TITLE="results for TO code"
VARIABLES = "x", "y", "z", "density", "sigmaxx", "sigmayy", "sigmazz", "sigmaxy", "sigmaxz", "sigmayz"
ZONE T="load step 1", NODES= 12221, ELEMENTS= 10000, DATAPACKING=POINT, ZONETYPE=FEBRICK
               0.00000000                0.00000000                0.00000000                1.00000000                0.00000000               -0.00000000                1.17553750                0.00000000                0.42569222                0.73771767
               1.00000000                0.00000000                0.00000000                1.00000000               -0.00000000                0.00000000                0.80747678               -0.00000000                0.08474356                0.57302412
               2.00000000                0.00000000                0.00000000                1.00000000                0.00000000                0.00000000                0.52317229               -0.00000000               -0.06515601                0.39738405
               3.00000000                0.00000000                0.00000000                1.00000000               -0.00000000                0.00000000                0.31771342                0.00000000               -0.12868522                0.24265782
               4.00000000                0.00000000                0.00000000                1.00000000                0.00000000                0.00000000                0.12943853               -0.00000000               -0.15740452                0.09818323
               5.00000000                0.00000000                0.00000000                1.00000000                0.00000000                0.00000000               -0.05160384               -0.00000000               -0.16242212               -0.04293515
               6.00000000                0.00000000                0.00000000                1.00000000               -0.00000000               -0.00000000               -0.23121079               -0.00000000               -0.14574720               -0.18250495
               7.00000000                0.00000000                0.00000000                1.00000000               -0.00000000                0.00000000               -0.41422727               -0.00000000               -0.10252995               -0.32121937
               8.00000000                0.00000000                0.00000000                1.00000000                0.00000000               -0.00000000               -0.60726818                0.00000000               -0.01835657               -0.45908847
               9.00000000                0.00000000                0.00000000                1.00000000                0.00000000               -0.00000000               -0.81879341               -0.00000000                0.14799580               -0.59152899
              10.00000000                0.00000000                0.00000000                1.00000000               -0.00000000                0.00000000               -1.15481256                0.00000000                0.50286387               -0.70601068
               0.00000000                1.00000000                0.00000000                1.00000000               -0.00000000                0.00000000                0.85521523                0.00000000                0.49478333                0.39953046
               1.00000000                1.00000000                0.00000000                1.00000000               -0.00000000               -0.00000000                0.48088717                0.00000000                0.18146177                0.29929227
               2.00000000                1.00000000                0.00000000                1.00000000               -0.00000000               -0.00000000                0.26957430               -0.00000000                0.04401790                0.18950734
               3.00000000                1.00000000                0.00000000                1.00000000                0.00000000                0.00000000                0.15933109               -0.00000000               -0.01922442                0.11306570
               4.00000000                1.00000000                0.00000000                1.00000000               -0.00000000               -0.00000000                0.06390266                0.00000000               -0.04757459                0.04432409
               5.00000000                1.00000000                0.00000000                1.00000000                0.00000000               -0.00000000               -0.02397114               -0.00000000               -0.05327011               -0.02168278
               6.00000000                1.00000000                0.00000000                1.00000000                0.00000000               -0.00000000               -0.11088116               -0.00000000               -0.03958862               -0.08687623
               7.00000000                1.00000000                0.00000000                1.00000000                0.00000000                0.00000000               -0.20226382               -0.00000000               -0.00256532               -0.15241292
               8.00000000                1.00000000                0.00000000                1.00000000               -0.00000000                0.00000000               -0.30601098                0.00000000                0.07119927               -0.21913234
               9.00000000                1.00000000                0.00000000                1.00000000               -0.00000000               -0.00000000               -0.42516991                0.00000000                0.21170002               -0.29158615
              10.00000000                1.00000000                0.00000000                1.00000000                0.00000000               -0.00000000               -0.71881220                0.00000000                0.49691853               -0.33823331
               0.00000000                2.00000000                0.00000000                1.00000000               -0.00000000                0.00000000                0.80334880               -0.00000000                0.53167684                0.23889786
               1.00000000                2.00000000                0.00000000                1.00000000                0.00000000                0.00000000                0.38568810                0.00000000                0.20246560                0.17684732
               2.00000000                2.00000000                0.00000000                1.00000000               -0.00000000                0.00000000                0.18846130                0.00000000                0.07376695                0.10631815
               3.00000000                2.00000000                0.00000000                1.00000000                0.00000000               -0.00000000                0.11003542                0.00000000                0.01704872                0.06196594
               4.00000000                2.00000000                0.00000000                1.00000000                0.00000000               -0.00000000                0.04261550               -0.00000000               -0.00767574                0.02342467
               5.00000000                2.00000000                0.00000000                1.00000000               -0.00000000               -0.00000000               -0.01761431                0.00000000               -0.01297401               -0.01316127
               6.00000000                2.00000000                0.00000000                1.00000000               -0.00000000                0.00000000               -0.07690899                0.00000000               -0.00234147               -0.04924890
               7.00000000                2.00000000                0.00000000                1.00000000               -0.00000000               -0.00000000               -0.14027686               -0.00000000                0.02775116               -0.08582774
               8.00000000                2.00000000                0.00000000                1.00000000                0.00000000                0.00000000               -0.21471951                0.00000000                0.08978811               -0.12424238
               9.00000000                2.00000000                0.00000000                1.00000000               -0.00000000               -0.00000000               -0.30391962                0.00000000                0.21021943               -0.16415041
              10.00000000                2.00000000                0.00000000                1.00000000                0.00000000                0.00000000               -0.59613301                0.00000000                0.48351651               -0.19147374
               0.00000000                3.00000000                0.00000000                1.00000000               -0.00000000                0.00000000                0.80851722                0.00000000                0.55299203                0.14054250
               1.00000000                3.00000000                0.00000000                1.00000000                0.00000000               -0.00000000                0.37603685                0.00000000                0.21744211                0.10369326
               2.00000000                3.00000000                0.00000000                1.00000000               -0.00000000               -0.00000000                0.18370461               -0.00000000                0.08622086                0.06019916
               3.00000000                3.00000000                0.00000000                1.00000000               -0.00000000                0.00000000                0.10632766                0.00000000                0.02871657                0.03435643
               4.00000000                3.00000000                0.00000000                1.00000000                0.00000000                0.00000000                0.04056322               -0.00000000                0.00374057                0.01242604
               5.00000000                3.00000000                0.00000000                1.00000000               -0.00000000                0.00000000               -0.01837897               -0.00000000               -0.00183167               -0.00821238
               6.00000000                3.00000000                0.00000000                1.00000000               -0.00000000                0.00000000               -0.07644584                0.00000000                0.00830407               -0.02857123
               7.00000000                3.00000000                0.00000000                1.00000000                0.00000000               -0.00000000               -0.13854368               -0.00000000                0.03760286               -0.04938701
               8.00000000                3.00000000                0.00000000                1.00000000               -0.00000000                0.00000000               -0.21188811               -0.00000000                0.09836029               -0.07121378
               9.00000000                3.00000000                0.00000000                1.00000000               -0.00000000                0.00000000               -0.30175296                0.00000000                0.22008236               -0.09350076
              10.00000000                3.00000000                0.00000000                1.00000000                0.00000000               -0.00000000               -0.60837510                0.00000000                0.50333800               -0.11410565
               0.00000000                4.00000000                0.00000000                1.00000000                0.00000000               -0.00000000                0.81295460               -0.00000000                0.56389148                0.06333322
               1.00000000                4.00000000                0.00000000                1.00000000               -0.00000000                0.00000000                0.37127785                0.00000000                0.22426449                0.04740009
               2.00000000                4.00000000                0.00000000                1.00000000                0.00000000                0.00000000                0.17986157                0.00000000                0.09221923                0.02719019
               3.00000000                4.00000000                0.00000000                1.00000000                0.00000000                0.00000000                0.10356544                0.00000000                0.03414916                0.01515662
               4.00000000                4.00000000                0.00000000                1.00000000               -0.00000000                0.00000000                0.03876937                0.00000000                0.00886616                0.00509054
               5.00000000                4.00000000                0.00000000                1.00000000               -0.00000000                0.00000000               -0.01919961               -0.00000000                0.00314840               -0.00435771
               6.00000000                4.00000000                0.00000000                1.00000000                0.00000000               -0.00000000               -0.07634793               -0.00000000                0.01324177               -0.01370946
               7.00000000                4.00000000                0.00000000                1.00000000               -0.00000000                0.00000000               -0.13762846                0.00000000                0.04258805               -0.02330624
               8.00000000                4.00000000                0.00000000                1.00000000               -0.00000000               -0.00000000               -0.21051811                0.00000000                0.10394398               -0.03335916
               9.00000000                4.00000000                0.00000000                1.00000000               -0.00000000               -0.00000000               -0.30085803                0.00000000                0.22807138               -0.04394086
              10.00000000                4.00000000                0.00000000                1.00000000               -0.00000000               -0.00000000               -0.61631912                0.00000000                0.51783495               -0.05479932
               0.00000000                5.00000000                0.00000000                1.00000000                0.00000000                0.00000000                0.81178452               -0.00000000                0.56490317               -0.00521213
               1.00000000                5.00000000                0.00000000                1.00000000                0.00000000                0.00000000                0.36881101                0.00000000                0.22518792               -0.00225019
               2.00000000                5.00000000                0.00000000                1.00000000               -0.00000000               -0.00000000                0.17799209                0.00000000                0.09330936               -0.00100503
               3.00000000                5.00000000                0.00000000                1.00000000                0.00000000               -0.00000000                0.10199788                0.00000000                0.03538336               -0.00073286
               4.00000000                5.00000000                0.00000000                1.00000000                0.00000000                0.00000000                0.03752377               -0.00000000                0.01014484               -0.00069884
               5.00000000                5.00000000                0.00000000                1.00000000                0.00000000               -0.00000000               -0.02017173                0.00000000                0.00447586               -0.00076541
               6.00000000                5.00000000                0.00000000                1.00000000               -0.00000000                0.00000000               -0.07708141                0.00000000                0.01463856               -0.00090342
               7.00000000                5.00000000                0.00000000                1.00000000                0.00000000               -0.00000000               -0.13818987               -0.00000000                0.04415639               -0.00108926
               8.00000000                5.00000000                0.00000000                1.00000000               -0.00000000               -0.00000000               -0.21104808               -0.00000000                0.10597469               -0.00127914
               9.00000000                5.00000000                0.00000000                1.00000000               -0.00000000                0.00000000               -0.30172598                0.00000000                0.23109662               -0.00148401
              10.00000000                5.00000000                0.00000000                1.00000000                0.00000000               -0.00000000               -0.62050351                0.00000000                0.52338064               -0.00214672
               0.00000000                6.00000000                0.00000000                1.00000000                0.00000000               -0.00000000                0.80405537               -0.00000000                0.55676837               -0.07317219
               1.00000000                6.00000000                0.00000000                1.00000000               -0.00000000               -0.00000000                0.36691884                0.00000000                0.22066270               -0.05124230
               2.00000000                6.00000000                0.00000000                1.00000000                0.00000000                0.00000000                0.17688382                0.00000000                0.09001212               -0.02862134
               3.00000000                6.00000000                0.00000000                1.00000000               -0.00000000               -0.00000000                0.10098651                0.00000000                0.03266947               -0.01612671
               4.00000000                6.00000000                0.00000000                1.00000000                0.00000000                0.00000000                0.03652563                0.00000000                0.00781334               -0.00609489
               5.00000000                6.00000000                0.00000000                1.00000000               -0.00000000                0.00000000               -0.02118868                0.00000000                0.00236365                0.00309731
               6.00000000                6.00000000                0.00000000                1.00000000                0.00000000               -0.00000000               -0.07813539                0.00000000                0.01264465                0.01203958
               7.00000000                6.00000000                0.00000000                1.00000000               -0.00000000               -0.00000000               -0.13928831                0.00000000                0.04221045                0.02109850
               8.00000000                6.00000000                0.00000000                1.00000000                0.00000000                0.00000000               -0.21213467                0.00000000                0.10406232                0.03063825
               9.00000000                6.00000000                0.00000000                1.00000000                0.00000000                0.00000000               -0.30254068                0.00000000                0.22904899                0.04090808
              10.00000000                6.00000000                0.00000000                1.00000000               -0.00000000               -0.00000000               -0.61906912                0.00000000                0.52013918                0.05088208
               0.00000000                7.00000000                0.00000000                1.00000000                0.00000000                0.00000000                0.78972381                0.00000000                0.53833953               -0.14865545
               1.00000000                7.00000000                0.00000000                1.00000000               -0.00000000               -0.00000000                0.36617084                0.00000000                0.20995945               -0.10527018
               2.00000000                7.00000000                0.00000000                1.00000000                0.00000000               -0.00000000                0.17677443                0.00000000                0.08162192               -0.05951880
               3.00000000                7.00000000                0.00000000                1.00000000               -0.00000000               -0.00000000                0.10061436               -0.00000000                0.02553139               -0.03349100
               4.00000000                7.00000000                0.00000000                1.00000000               -0.00000000                0.00000000                0.03578530                0.00000000                0.00137645               -0.01202513
               5.00000000                7.00000000                0.00000000                1.00000000               -0.00000000               -0.00000000               -0.02228569               -0.00000000               -0.00369503                0.00781508
               6.00000000                7.00000000                0.00000000                1.00000000               -0.00000000               -0.00000000               -0.07958696                0.00000000                0.00673815                0.02719233
               7.00000000                7.00000000                0.00000000                1.00000000                0.00000000                0.00000000               -0.14106745                0.00000000                0.03626066                0.04690363
               8.00000000                7.00000000                0.00000000                1.00000000                0.00000000               -0.00000000               -0.21402426               -0.00000000                0.09757483                0.06750633
               9.00000000                7.00000000                0.00000000                1.00000000                0.00000000                0.00000000               -0.30370490                0.00000000                0.22123365                0.08948388
              10.00000000                7.00000000                0.00000000                1.00000000               -0.00000000                0.00000000               -0.61184826               -0.00000000                0.50691204                0.11173526
               0.00000000                8.00000000                0.00000000                1.00000000                0.00000000               -0.00000000                0.77258286                0.00000000                0.50677067               -0.24349002
               1.00000000                8.00000000                0.00000000                1.00000000                0.00000000               -0.00000000                0.37095458                0.00000000                0.19005813               -0.17325689
               2.00000000                8.00000000                0.00000000                1.00000000               -0.00000000                0.00000000                0.17975620               -0.00000000                0.06635193               -0.10026734
               3.00000000                8.00000000                0.00000000                1.00000000                0.00000000               -0.00000000                0.10186510                0.00000000                0.01212035               -0.05637810
               4.00000000                8.00000000                0.00000000                1.00000000                0.00000000               -0.00000000                0.03560829               -0.00000000               -0.01106199               -0.01975209
               5.00000000                8.00000000                0.00000000                1.00000000                0.00000000                0.00000000               -0.02375241                0.00000000               -0.01548797                0.01432973
               6.00000000                8.00000000                0.00000000                1.00000000                0.00000000               -0.00000000               -0.08231725               -0.00000000               -0.00480484                0.04778454
               7.00000000                8.00000000                0.00000000                1.00000000               -0.00000000               -0.00000000               -0.14510221               -0.00000000                0.02463430                0.08168185
               8.00000000                8.00000000                0.00000000                1.00000000                0.00000000                0.00000000               -0.21913979               -0.00000000                0.08559737                0.11746065
               9.00000000                8.00000000                0.00000000                1.00000000               -0.00000000               -0.00000000               -0.30858643                0.00000000                0.20577227                0.15481991
              10.00000000                8.00000000                0.00000000                1.00000000                0.00000000                0.00000000               -0.60156975               -0.00000000                0.48100034                0.19179624
               0.00000000                9.00000000                0.00000000                1.00000000                0.00000000                0.00000000                0.75630506               -0.00000000                0.45172360               -0.38737235
               1.00000000                9.00000000                0.00000000                1.00000000               -0.00000000                0.00000000                0.38710195                0.00000000                0.15800529               -0.27779216
               2.00000000                9.00000000                0.00000000                1.00000000                0.00000000               -0.00000000                0.18516481                0.00000000                0.03732280               -0.16333981
               3.00000000                9.00000000                0.00000000                1.00000000                0.00000000               -0.00000000                0.10419008                0.00000000               -0.01519654               -0.09204793
               4.00000000                9.00000000                0.00000000                1.00000000               -0.00000000                0.00000000                0.03570068                0.00000000               -0.03632270               -0.03208842
               5.00000000                9.00000000                0.00000000                1.00000000               -0.00000000               -0.00000000               -0.02552512               -0.00000000               -0.03955702                0.02466138
               6.00000000                9.00000000                0.00000000                1.00000000                0.00000000                0.00000000               -0.08593301                0.00000000               -0.02837954                0.08053200
               7.00000000                9.00000000                0.00000000                1.00000000               -0.00000000               -0.00000000               -0.15076011                0.00000000                0.00109198                0.13700843
               8.00000000                9.00000000                0.00000000                1.00000000               -0.00000000                0.00000000               -0.22740991                0.00000000                0.06224563                0.19546737
               9.00000000                9.00000000                0.00000000                1.00000000                0.00000000                0.00000000               -0.31910860               -0.00000000                0.18424477                0.26070749
              10.00000000                9.00000000                0.00000000                1.00000000               -0.00000000               -0.00000000               -0.58734153                0.00000000                0.44064017                0.31848606
               0.00000000               10.00000000                0.00000000                1.00000000               -0.00000000                0.00000000                0.99464404               -0.00000000                0.36860810               -0.68422553
               1.00000000               10.00000000                0.00000000                1.00000000                0.00000000               -0.00000000                0.61042646               -0.00000000                0.05522829               -0.49602398
               2.00000000               10.00000000                0.00000000                1.00000000               -0.00000000               -0.00000000                0.32565102                0.00000000               -0.05731835               -0.30418900
               3.00000000               10.00000000                0.00000000                1.00000000               -0.00000000                0.00000000                0.18665088               -0.00000000               -0.09431536               -0.17407773
               4.00000000               10.00000000                0.00000000                1.00000000               -0.00000000               -0.00000000                0.06395010                0.00000000               -0.10902230               -0.06070687
               5.00000000               10.00000000                0.00000000                1.00000000                0.00000000                0.00000000               -0.04962419                0.00000000               -0.10976915                0.04737386
               6.00000000               10.00000000                0.00000000                1.00000000               -0.00000000                0.00000000               -0.16166603               -0.00000000               -0.09780490                0.15362810
               7.00000000               10.00000000                0.00000000                1.00000000                0.00000000                0.00000000               -0.27818686               -0.00000000               -0.06848683                0.26039235
               8.00000000               10.00000000                0.00000000                1.00000000               -0.00000000               -0.00000000               -0.40669907               -0.00000000               -0.00811134                0.36910730
               9.00000000               10.00000000                0.00000000                1.00000000               -0.00000000               -0.00000000               -0.55490859                0.00000000                0.11951032                0.48105903
              10.00000000               10.00000000                0.00000000                1.00000000                0.00000000               -0.00000000               -0.84420418                0.00000000                0.41549212                0.60288219
               0.00425692                0.00737718                1.01175537                0.94401156               -0.34094866               -0.33818721                1.17848373               -0.09560244                0.01077919                0.29668371
               1.00084744                0.00573024                1.00807477                0.88011851               -0.24542412               -0.27373185                0.90877384               -0.07344860               -0.11079879                0.17514752
               1.99934844                0.00397384                1.00523172                0.87109924               -0.10671439               -0.20787672                0.62738814               -0.05600923               -0.16528057                0.12183196
               2.99871315                0.00242658                1.00317713                0.86536331               -0.04612425               -0.12959212                0.38530515               -0.04013961               -0.20085839                0.07899809
               3.99842595                0.00098183                1.00129439                0.86214810               -0.01686845               -0.05385914                0.15943894               -0.03296656               -0.23023641                0.03152712
               4.99837578               -0.00042935                0.99948396                0.86114372                0.00582866                0.02125237               -0.06054581               -0.03119208               -0.23542179               -0.01656032
               5.99854253               -0.00182505                0.99768789                0.86226555                0.02994608                0.09562872               -0.27985100               -0.03298352               -0.21639678               -0.06431972
               6.99897470               -0.00321219                0.99585773                0.86557901                0.06369532                0.16880645               -0.50343792               -0.03832712               -0.17071033               -0.11035988
               7.99981643               -0.00459088                0.99392732                0.87134649                0.12526288                0.23995612               -0.73708866               -0.04559898               -0.09164410               -0.15272084
               9.00147996               -0.00591529                0.99181207                0.88013860                0.26061022                0.29994284               -0.99798113               -0.05975689               -0.01534766               -0.18267707
              10.00502864               -0.00706011                0.98845187                0.94388887                0.35486807                0.36777737               -1.27555071               -0.12042703                0.11151448               -0.25730137
               0.00494783                1.00399530                1.00855215                0.88517267               -0.31332156               -0.24940991                1.04004820               -0.04724588                0.12015423                0.25968774
               1.00181462                1.00299292                1.00480887                0.75557578               -0.22538272               -0.19808840                0.76588656               -0.04615054                0.02086344                0.14683172
               2.00044018                1.00189507                1.00269574                0.73918547               -0.10034310               -0.14553295                0.51528211               -0.02365180                0.01885324                0.09460808
               2.99980776                1.00113066                1.00159331                0.72907389               -0.04579625               -0.09034594                0.31150044                0.00027535               -0.00492837                0.06005541
               3.99952425                1.00044324                1.00063903                0.72347217               -0.01702284               -0.03737928                0.12794553                0.00749015               -0.03425443                0.02254955
               4.99946730                0.99978317                0.99976029                0.72173259                0.00399299                0.01488694               -0.04792424                0.00912390               -0.03950623               -0.01468004
               5.99960411                0.99913124                0.99889119                0.72367902                0.02535239                0.06662803               -0.22292285                0.00633780               -0.02263509               -0.05144173
               6.99997435                0.99847587                0.99797736                0.72944701                0.05539394                0.11769581               -0.40353715               -0.00098750                0.01844857               -0.08684326
               8.00071199                0.99780868                0.99693989                0.73959836                0.10713267                0.16742304               -0.59693460               -0.01551428                0.09386408               -0.11979144
               9.00211700                0.99708414                0.99574830                0.75536181                0.21285963                0.21368929               -0.81657086               -0.02843867                0.14742827               -0.14491237
              10.00496919                0.99661767                0.99281188                0.88467809                0.28521851                0.25726847               -1.08842591               -0.05632083                0.27458166               -0.21166878
               0.00531677                2.00238898                1.00803349                0.88348063               -0.32921123               -0.12949398                1.00088046               -0.03294619                0.14636525                0.26860160
               1.00202466                2.00176847                1.00385688                0.75236328               -0.22895494               -0.09779950                0.70382628               -0.04829969                0.06176357                0.18598619
               2.00073767                2.00106318                1.00188461                0.73698696               -0.09270844               -0.06465409                0.46610606               -0.03633921                0.08852780                0.12931562
               3.00017049                2.00061966                1.00110035                0.72790766               -0.04072134               -0.03935464                0.27788683               -0.01747624                0.06834968                0.08030698
               3.99992324                2.00023425                1.00042615                0.72296472               -0.01501136               -0.01594903                0.11194520               -0.01190602                0.03646523                0.03062392
               4.99987026                1.99986839                0.99982386                0.72144236                0.00266713                0.00673520               -0.04563809               -0.01061757                0.03069482               -0.01911255
               5.99997659                1.99950751                0.99923091                0.72315225                0.02036259                0.02915250               -0.20210142               -0.01238689                0.04711262               -0.06835103
               7.00027751                1.99914172                0.99859723                0.72823939                0.04606479                0.05151296               -0.36477540               -0.01741265                0.08856734               -0.11641792
               8.00089788                1.99875758                0.99785280                0.73734616                0.09123413                0.07395928               -0.54181812               -0.02558082                0.16635517               -0.16245075
               9.00210219                1.99835850                0.99696080                0.75196764                0.19686420                0.09904270               -0.75212494               -0.02942451                0.21479287               -0.20698449
              10.00483517                1.99808526                0.99403867                0.88279539                0.27329708                0.11206383               -1.05195068               -0.02411360                0.35384935               -0.27092726
               0.00552992                3.00140543                1.00808517                0.88311174               -0.33554992               -0.08778232                0.99481559               -0.02074192                0.16606247                0.18013052
               1.00217442                3.00103693                1.00376037                0.75140146               -0.23338559               -0.06472361                0.68217065               -0.02927223                0.08646547                0.13828857
               2.00086221                3.00060199                1.00183705                0.73626190               -0.09436277               -0.03956398                0.44717161               -0.02544228                0.11972248                0.09983454
               3.00028717                3.00034356                1.00106328                0.72752373               -0.04124014               -0.02340466                0.26385558               -0.01533635                0.09667333                0.06060519
               4.00003741                3.00012426                1.00040563                0.72282683               -0.01527412               -0.00916706                0.10420307               -0.01301345                0.06426335                0.02291013
               4.99998168                2.99991788                0.99981621                0.72138934                0.00228175                0.00440178               -0.04640836               -0.01243743                0.05807625               -0.01451048
               6.00008304                2.99971429                0.99923554                0.72300837                0.01971727                0.01776972               -0.19586468               -0.01279570                0.07447485               -0.05167892
               7.00037603                2.99950613                0.99861456                0.72784445                0.04502811                0.03126075               -0.35219231               -0.01390283                0.11621473               -0.08854784
               8.00098360                2.99928786                0.99788112                0.73661776                0.09123975                0.04544161               -0.52497224               -0.01497895                0.19437126               -0.12537740
               9.00220082                2.99906499                0.99698247                0.75103180                0.20248886                0.06010477               -0.73648832               -0.01251996                0.23820685               -0.16304710
              10.00503338                2.99885894                0.99391625                0.88244053                0.28325565                0.06833721               -1.05194021               -0.00344567                0.37684538               -0.20843155
               0.00563891                4.00063333                1.00812955                0.88311037               -0.33962699               -0.07287731                0.99399593               -0.00997756                0.17346951                0.08300463
               1.00224264                4.00047400                1.00371278                0.75115105               -0.23583613               -0.05297172                0.67320377               -0.01419861                0.09650151                0.06536929
               2.00092219                4.00027190                1.00179862                0.73601804               -0.09505767               -0.03060210                0.43896483               -0.01257748                0.13460750                0.04673847
               3.00034149                4.00015157                1.00103565                0.72739160               -0.04167653               -0.01754464                0.25731860               -0.00771643                0.11139886                0.02817746
               4.00008866                4.00005091                1.00038769                0.72278769               -0.01550038               -0.00656244                0.09978101               -0.00655503                0.07874828                0.01024060
               5.00003148                3.99995642                0.99980800                0.72138457                0.00218780                0.00372349               -0.04841953               -0.00624623                0.07252882               -0.00745362
               6.00013242                3.99986291                0.99923652                0.72297000                0.01971982                0.01383390               -0.19549986               -0.00630702                0.08906341               -0.02509883
               7.00042588                3.99976694                0.99862372                0.72771499                0.04535111                0.02414887               -0.34992756               -0.00654809                0.13106680               -0.04282472
               8.00103944                3.99966641                0.99789482                0.73638652                0.09274166                0.03496732               -0.52199324               -0.00651011                0.20951043               -0.06086619
               9.00228071                3.99956059                0.99699142                0.75081109                0.20694549                0.04600838               -0.73536971               -0.00521295                0.25070969               -0.07925862
              10.00517835                3.99945201                0.99383681                0.88245343                0.28976357                0.05597947               -1.06004187               -0.00083714                0.39028453               -0.10186827
               0.00564903                4.99994788                1.00811785                0.88312696               -0.33971524               -0.06825270                0.99074638               -0.00059961                0.17497245               -0.00751985
               1.00225188                4.99997750                1.00368811                0.75109249               -0.23579690               -0.04932119                0.66802107                0.00030265                0.09880908               -0.00269741
               2.00093309                4.99998995                1.00177992                0.73595021               -0.09490228               -0.02790576                0.43420685               -0.00034489                0.13809090               -0.00117387
               3.00035383                4.99999267                1.00101998                0.72735399               -0.04158226               -0.01564167                0.25327710               -0.00058675                0.11512728               -0.00068298
               4.00010145                4.99999301                1.00037524                0.72277749               -0.01545375               -0.00559272                0.09652082               -0.00054269                0.08272272               -0.00050762
               5.00004476                4.99999235                0.99979828                0.72138590                0.00224686                0.00372751               -0.05083488               -0.00049466                0.07667863               -0.00051544
               6.00014639                4.99999097                0.99922919                0.72296388                0.01984026                0.01287452               -0.19711693               -0.00046048                0.09339762               -0.00067922
               7.00044156                4.99998911                0.99861810                0.72768615                0.04566807                0.02220237               -0.35096501               -0.00037666                0.13560813               -0.00102240
               8.00105975                4.99998721                0.99788952                0.73633536                0.09347011                0.03199870               -0.52289422               -0.00013821                0.21431228               -0.00152243
               9.00231097                4.99998516                0.99698274                0.75078031                0.20870297                0.04242447               -0.73698605                0.00005501                0.25498143               -0.00217135
              10.00523381                4.99997853                0.99379496                0.88248597                0.29228402                0.05284070               -1.06475316                0.00048940                0.39504654               -0.00366004
               0.00556768                5.99926828                1.00804055                0.88307912               -0.33610567               -0.07172166                0.98368562                0.00864807                0.17102288               -0.09768244
               1.00220663                5.99948758                1.00366919                0.75110084               -0.23337813               -0.05151000                0.66507118                0.01466119                0.09412348               -0.07045978
               2.00090012                5.99971379                1.00176884                0.73598438               -0.09399661               -0.02925688                0.43189901                0.01171408                0.13155329               -0.04884626
               3.00032669                5.99983873                1.00100987                0.72737231               -0.04109939               -0.01637907                0.25098398                0.00633723                0.10897021               -0.02919873
               4.00007813                5.99993905                1.00036526                0.72277956               -0.01515291               -0.00566314                0.09404299                0.00522782                0.07708676               -0.01082433
               5.00002364                6.00003097                0.99978811                0.72138386                0.00241566                0.00429025               -0.05354729                0.00498179                0.07140608                0.00697744
               6.00012645                6.00012040                0.99921865                0.72297258                0.01992340                0.01404788               -0.20008301                0.00505039                0.08832324                0.02440772
               7.00042210                6.00021098                0.99860712                0.72771720                0.04570883                0.02399644               -0.35417206                0.00535147                0.13065439                0.04155319
               8.00104062                6.00030638                0.99787865                0.73638605                0.09341927                0.03439274               -0.52619447                0.00570486                0.20958529                0.05861110
               9.00229049                6.00040908                0.99697459                0.75080845                0.20803843                0.04548395               -0.73978147                0.00519044                0.25134064                0.07581435
              10.00520139                6.00050882                0.99380931                0.88245232                0.29109019                0.05694099               -1.06512428                0.00173970                0.39187185                0.09601690
               0.00538340                6.99851345                1.00789724                0.88303727               -0.32838008               -0.08515892                0.97371250                0.01838641                0.16096515               -0.19323032
               1.00209959                6.99894730                1.00366171                0.75127954               -0.22835881               -0.06100729                0.66543935                0.02926604                0.08126272               -0.14069950
               2.00081622                6.99940481                1.00176774                0.73617923               -0.09221403               -0.03582300                0.43263784                0.02405950                0.11355342               -0.09899227
               3.00025531                6.99966509                1.00100614                0.72747678               -0.04012273               -0.02012569                0.25069266                0.01347227                0.09170562               -0.05941487
               4.00001376                6.99987975                1.00035785                0.72280765               -0.01461321               -0.00682860                0.09237344                0.01121538                0.06070703               -0.02155704
               4.99996305                7.00007815                0.99977714                0.72138713                0.00268085                0.00561621               -0.05668277                0.01068292                0.05558053                0.01554981
               6.00006738                7.00027192                0.99920413                0.72301071                0.01997784                0.01787248               -0.20467004                0.01081953                0.07269243                0.05205728
               7.00036261                7.00046904                0.99858933                0.72783988                0.04541834                0.03029168               -0.36000811                0.01136892                0.11497902                0.08794798
               8.00097575                7.00067506                0.99785976                0.73659835                0.09248650                0.04341120               -0.53262162                0.01205766                0.19391030                0.12348179
               9.00221234                7.00089484                0.99696295                0.75099652                0.20466860                0.05695591               -0.74473420                0.01047611                0.23858167                0.15933329
              10.00506912                7.00111735                0.99388152                0.88241987                0.28567838                0.07045708               -1.06191775                0.00268196                0.37983479                0.20387597
               0.00506771                7.99756510                1.00772583                0.88333647               -0.31671253               -0.11935845                0.96480186                0.02692517                0.14068339               -0.30290861
               1.00190058                7.99826743                1.00370955                0.75213078               -0.22020937               -0.08626099                0.67359081                0.04563427                0.05556151               -0.21850513
               2.00066352                7.99899733                1.00179756                0.73682829               -0.08896889               -0.05191051                0.43920706                0.03628984                0.07862726               -0.15813307
               3.00012120                7.99943622                1.00101865                0.72781620               -0.03870696               -0.02927846                0.25383695                0.01989366                0.05896295               -0.09562733
               3.99988938                7.99980248                1.00035608                0.72292669               -0.01380416               -0.01003164                0.09195074                0.01650434                0.02945333               -0.03431369
               4.99984512                8.00014330                0.99976248                0.72143462                0.00312858                0.00842315               -0.06073272                0.01583732                0.02511139                0.02630722
               5.99995195                8.00047785                0.99917683                0.72314718                0.02006114                0.02666983               -0.21232374                0.01611722                0.04245942                0.08608217
               7.00024634                8.00081682                0.99854898                0.72821071                0.04520110                0.04505240               -0.37100769                0.01725372                0.08451712                0.14460761
               8.00085597                8.00117461                0.99780860                0.73727533                0.09056899                0.06398052               -0.54587248                0.01890443                0.16301338                0.20141229
               9.00205772                8.00154820                0.99691414                0.75184874                0.19770149                0.08561180               -0.75647998                0.01867335                0.21299208                0.25740705
              10.00481000                8.00191796                0.99398430                0.88272017                0.27522807                0.10337540               -1.05920397                0.00384039                0.35536422                0.33209249
               0.00451724                8.99612628                1.00756305                0.88471465               -0.29371830               -0.22036775                0.98041408                0.04049891                0.10409829               -0.31936566
               1.00158005                8.99722208                1.00387102                0.75473891               -0.20720040               -0.16138355                0.71125950                0.04460135                0.00456433               -0.22370015
               2.00037323                8.99836660                1.00185165                0.73855623               -0.08660091               -0.10196083                0.46386295                0.03103697                0.01472515               -0.17462856
               2.99984803                8.99907952                1.00104190                0.72873841               -0.03682275               -0.05884982                0.26740048                0.01240784                0.00169151               -0.10685464
               3.99963677                8.99967912                1.00035701                0.72334220               -0.01218024               -0.02047739                0.09521553                0.00937450               -0.02600536               -0.03818809
               4.99960443                9.00024661                0.99974475                0.72168980                0.00397158                0.01652206               -0.06794598                0.00916962               -0.02928120                0.03063466
               5.99971620                9.00080532                0.99914067                0.72359445                0.02032450                0.05292178               -0.23000531                0.00967349               -0.01139555                0.09876044
               7.00001092                9.00137008                0.99849240                0.72919176                0.04531258                0.08935525               -0.39881402                0.01090712                0.03047753                0.16488083
               8.00062246                9.00195467                0.99772590                0.73905521                0.09157639                0.12582332               -0.58304246                0.01499517                0.10787277                0.22744538
               9.00184245                9.00260707                0.99680891                0.75444663                0.18919727                0.16311956               -0.79775553                0.01837837                0.16702117                0.28273651
              10.00440640                9.00318486                0.99412658                0.88408339                0.25639540                0.20554297               -1.08029382                0.02502445                0.31369751                0.36774058
               0.00368608                9.99315774                1.00994644                0.94361513               -0.31337981               -0.29685317                1.09305371                0.10508605               -0.02113449               -0.36046475
               1.00055228                9.99503976                1.00610426                0.87936672               -0.21296323               -0.21823182                0.83109071                0.08724126               -0.14036670               -0.26346960
               1.99942682                9.99695811                1.00325651                0.87051841               -0.07477183               -0.14084918                0.54798775                0.06633197               -0.15524938               -0.21972815
               2.99905685                9.99825922                1.00186651                0.86505408               -0.02585197               -0.08202980                0.31913537                0.04262224               -0.15605904               -0.13623583
               3.99890978                9.99939293                1.00063950                0.86202639               -0.00772690               -0.02861845                0.11190996                0.03802620               -0.18070869               -0.04849150
               4.99890231               10.00047374                0.99950376                0.86109617                0.00560870                0.02271248               -0.08752029                0.03695535               -0.18195421                0.04121607
               5.99902195               10.00153628                0.99838334                0.86217120                0.02064116                0.07309611               -0.28577575                0.03708388               -0.16221198                0.13036590
               6.99931513               10.00260392                0.99721813                0.86531602                0.04484678                0.12338392               -0.48960584                0.03816079               -0.11794937                0.21646794
               7.99991889               10.00369107                0.99593301                0.87079883                0.09399857                0.17363993               -0.70657573                0.03997636               -0.03962292                0.29644824
               9.00119510               10.00481059                0.99445091                0.87921884                0.21180173                0.22035153               -0.95373944                0.05215300                0.03579644                0.36153793
              10.00415492               10.00602882                0.99155796                0.94329515                0.29598180                0.28439613               -1.23498697                0.09667511                0.18577971                0.45335615
               0.00757680                0.01234012                2.02356967                0.94195724               -0.32691217               -0.34244777                1.17837783                0.00074710               -0.09942151                0.13411787
               1.00430768                0.01003474                2.01817548                0.87831597               -0.29923879               -0.28802213                0.98610999               -0.04497584               -0.10773546                0.05059193
               2.00159202                0.00750860                2.01254776                0.87049723               -0.21937532               -0.22693274                0.72850651               -0.06429637               -0.14576417                0.04240292
               2.99992017                0.00474761                2.00770610                0.86497642               -0.12517889               -0.14697205                0.45475387               -0.07456905               -0.16054876                0.02828280
               3.99908844                0.00194126                2.00318878                0.86181620               -0.05110563               -0.06220384                0.19135874               -0.07562453               -0.18105386                0.01053740
               4.99889806               -0.00088386                1.99878908                0.86082519                0.01049271                0.02503643               -0.06700834               -0.07574672               -0.18588372               -0.00808541
               5.99929830               -0.00369299                1.99440298                0.86192064                0.07241550                0.11211346               -0.32551262               -0.07493767               -0.17016523               -0.02654992
               7.00034637               -0.00644647                1.98993124                0.86517768                0.14572403                0.19700972               -0.58916300               -0.07193846               -0.13550357               -0.04403290
               8.00221278               -0.00907956                1.98525823                0.87080328                0.24110616                0.27582453               -0.86311465               -0.06462093               -0.09841619               -0.06014934
               9.00516849               -0.01152601                1.98004038                0.87858254                0.33689466                0.34790262               -1.14857530               -0.04851499               -0.06704126               -0.06917691
              10.00895067               -0.01386603                1.97448899                0.94201946                0.37821820                0.40458635               -1.36636053                0.00737832               -0.07197878               -0.16247569
               0.00988965                1.00891564                2.02080096                0.88500579               -0.36159677               -0.32505537                1.24305569                0.00907402                0.00118130                0.21795516
               1.00627368                1.00715452                2.01531773                0.75833352               -0.31485101               -0.26332578                1.05527505               -0.02999500                0.00403626                0.12411034
               2.00359263                1.00523927                2.01030564                0.74181748               -0.21577645               -0.20317948                0.78164468               -0.04707864                0.00192057                0.10059882
               3.00195815                1.00327789                2.00623001                0.73026057               -0.12223460               -0.13057174                0.48489599               -0.05073843                0.00186339                0.06383483
               4.00114793                1.00131922                2.00255891                0.72361907               -0.05002177               -0.05476934                0.20162985               -0.04970134               -0.01057801                0.02406110
               5.00095771                0.99936650                1.99904152                0.72153442                0.00911457                0.02228439               -0.07544032               -0.04899949               -0.01249175               -0.01666818
               6.00133023                0.99742815                1.99554154                0.72384684                0.06812780                0.09908067               -0.35212730               -0.04861470                0.00213156               -0.05679328
               7.00232027                0.99552363                1.99192926                0.73069391                0.13880588                0.17404534               -0.63401617               -0.04731892                0.03272105               -0.09535761
               8.00410634                0.99367868                1.98806131                0.74247972                0.23781540                0.24446585               -0.92589217               -0.04099322                0.07054941               -0.13149905
               9.00707658                0.99195301                1.98366858                0.75872726                0.36290682                0.30760762               -1.23334291               -0.02786770                0.08545100               -0.16499509
              10.01136448                0.99017983                1.97823148                0.88493465                0.42879014                0.36715592               -1.46568451                0.02121052                0.09604377               -0.28647836
               0.01128052                2.00583901                2.02001761                0.88445976               -0.38963728               -0.27045446                1.22579215               -0.00301795                0.03369437                0.25287425
               1.00738415                2.00476823                2.01407653                0.75753409               -0.33767182               -0.21223237                1.04288826               -0.03451227                0.07138623                0.16775537
               2.00452708                2.00344501                2.00932212                0.74122192               -0.22793473               -0.15782917                0.76857639               -0.05665686                0.09311021                0.12988887
               3.00282545                2.00213617                2.00555774                0.72996476               -0.12606404               -0.10005422                0.47142006               -0.05962025                0.08926000                0.08118830
               4.00200580                2.00084587                2.00223890                0.72352429               -0.05081551               -0.04112787                0.19287490               -0.05949734                0.07544319                0.03027167
               5.00180914                1.99956183                1.99908724                0.72151082                0.00815380                0.01795698               -0.07772267               -0.05916724                0.07353714               -0.02147951
               6.00216888                1.99828863                1.99595797                0.72375313                0.06701553                0.07663317               -0.34772450               -0.05832341                0.08978835               -0.07274868
               7.00314945                1.99703444                1.99270449                0.73039631                0.13973265                0.13394643               -0.62441803               -0.05602111                0.12405455               -0.12284041
               8.00496353                1.99580976                1.98916364                0.74189388                0.24802702                0.18858767               -0.91542816               -0.04975619                0.16576948               -0.17208140
               9.00810999                1.99462614                1.98495750                0.75777518                0.39788619                0.23777138               -1.23468879               -0.03401216                0.15988919               -0.22988614
              10.01292125                1.99347708                1.97896099                0.88420461                0.48112625                0.29267007               -1.48668580                0.00033786                0.15117467               -0.34301466
               0.01197086                3.00350655                2.01989631                0.88380688               -0.39934215               -0.21057963                1.20523963               -0.00854756                0.04892487                0.18471636
               1.00797744                3.00290987                2.01364341                0.75665202               -0.34396577               -0.16942914                1.01691540               -0.02735250                0.10290490                0.13404355
               2.00509154                3.00208269                2.00894343                0.74072330               -0.23062775               -0.12265574                0.74279335               -0.03954393                0.14242492                0.10281125
               3.00336488                3.00127680                2.00527711                0.72975002               -0.12796041               -0.07646634                0.45162472               -0.03862883                0.13967362                0.06395215
               4.00253233                3.00049666                2.00208406                0.72350661               -0.05166325               -0.03053331                0.18138427               -0.03771731                0.12652486                0.02387521
               5.00233162                2.99972564                1.99907183                0.72156228                0.00794053                0.01535139               -0.07946034               -0.03716224                0.12510145               -0.01639155
               6.00269114                2.99896081                1.99608271                0.72373266                0.06735509                0.06078765               -0.33961595               -0.03632027                0.14169325               -0.05653417
               7.00367872                2.99820256                1.99295615                0.73017752                0.14141870                0.10527637               -0.60784737               -0.03483936                0.17577091               -0.09650417
               8.00551952                2.99745044                1.98950056                0.74139897                0.25251448                0.14822598               -0.89396120               -0.03175718                0.21471100               -0.13760716
               9.00872901                2.99670844                1.98527023                0.75693694                0.40749161                0.18942085               -1.21520065               -0.02274982                0.19446050               -0.18444996
              10.01366935                2.99603323                1.97896120                0.88359564                0.49403433                0.23034175               -1.47398099               -0.00783833                0.17448458               -0.25039079
               0.01230293                4.00162742                2.01987992                0.88348282               -0.40419646               -0.17839785                1.19495774               -0.00537443                0.05581129                0.09025515
               1.00826096                4.00137964                2.01346408                0.75619624               -0.34668255               -0.14601159                1.00336311               -0.01494272                0.11814030                0.06863255
               2.00536927                4.00099189                2.00877930                0.74045849               -0.23110306               -0.10381940                0.72941656               -0.02171946                0.16665326                0.05307192
               3.00363890                4.00060685                2.00514637                0.72964303               -0.12833290               -0.06323370                0.44049815               -0.02071698                0.16485651                0.03320988
               4.00280262                4.00023521                2.00199562                0.72351249               -0.05185749               -0.02421894                0.17381656               -0.01970874                0.15219752                0.01232356
               5.00260175                3.99986886                1.99903161                0.72160900                0.00814703                0.01419692               -0.08276648               -0.01914093                0.15116791               -0.00873649
               6.00296556                3.99950438                1.99609000                0.72373996                0.06806442                0.05217396               -0.33867542               -0.01859488                0.16791925               -0.02989079
               7.00396304                3.99913997                1.99300145                0.73007433                0.14284739                0.08967957               -0.60358393               -0.01784957                0.20164857               -0.05131904
               8.00582250                3.99877428                1.98956014                0.74114360                0.25545830                0.12676395               -0.88841609               -0.01616606                0.23862892               -0.07360760
               9.00907220                3.99841456                1.98529261                0.75650625                0.41462040                0.16324787               -1.21190203               -0.01125906                0.21050150               -0.09807083
              10.01411491                3.99808392                1.97879916                0.88329197                0.50427085                0.19605346               -1.47493326               -0.00270733                0.18450850               -0.13011780
               0.01235892                4.99993860                2.01981493                0.88338423               -0.40448132               -0.16802306                1.18854519               -0.00188218                0.05754124               -0.00719646
               1.00831411                4.99998964                2.01336042                0.75605290               -0.34644849               -0.13812190                0.99541734               -0.00195352                0.12188800               -0.00314470
               2.00542995                5.00000630                2.00868414                0.74037263               -0.23034386               -0.09783216                0.72164443               -0.00281987                0.17315305               -0.00161683
               3.00370723                5.00001213                2.00506554                0.72960782               -0.12768995               -0.05884932                0.43363673               -0.00249642                0.17200756               -0.00074143
               4.00287615                5.00001229                2.00193042                0.72351481               -0.05138022               -0.02171542                0.16819658               -0.00208384                0.15982090               -0.00028238
               5.00267962                5.00000958                1.99898330                0.72162652                0.00859918                0.01459166               -0.08691481               -0.00175063                0.15916785               -0.00001252
               6.00304813                5.00000429                1.99605766                0.72374742                0.06861024                0.05044153               -0.34139896               -0.00157634                0.17611387                0.00000282
               7.00405183                4.99999615                1.99298070                0.73004975                0.14367364                0.08599360               -0.60528422               -0.00142652                0.20976197               -0.00039888
               8.00592161                4.99998572                1.98954212                0.74107541                0.25711769                0.12138539               -0.88987410               -0.00105130                0.24617113               -0.00131529
               9.00919418                4.99997340                1.98526028                0.75639109                0.41774375                0.15607592               -1.21428327               -0.00037320                0.21580611               -0.00264883
              10.01427648                4.99995430                1.97870494                0.88321108                0.50822987                0.18749333               -1.47879229                0.00074464                0.18829072               -0.00446108
               0.01216319                5.99826696                2.01967371                0.88345405               -0.40090032               -0.17442383                1.18408665                0.00159695                0.05492480               -0.10434715
               1.00815419                5.99861721                2.01330142                0.75614369               -0.34363997               -0.14219946                0.99154715                0.01044677                0.11571780               -0.07466661
               2.00529039                5.99903525                2.00863798                0.74042045               -0.22855996               -0.10074348                0.71807363                0.01546691                0.16371868               -0.05614028
               3.00358299                5.99942986                2.00501968                0.72962055               -0.12634510               -0.06046065                0.42985862                0.01512108                0.16261133               -0.03462780
               4.00276349                5.99980090                2.00188086                0.72350293               -0.05041272               -0.02171262                0.16393501                0.01489093                0.15086403               -0.01264181
               5.00257473                6.00016069                1.99892905                0.72160852                0.00919870                0.01635259               -0.09175000                0.01490103                0.15062792                0.00931974
               6.00294746                6.00051321                1.99599834                0.72374402                0.06891744                0.05393370               -0.34682328                0.01463418                0.16783670                0.03089545
               7.00395308                6.00085984                1.99291656                0.73007898                0.14383842                0.09104740               -0.61124050                0.01404492                0.20173699                0.05185175
               8.00582423                6.00120198                1.98947611                0.74114675                0.25715384                0.12769850               -0.89612055                0.01296052                0.23883316                0.07236341
               9.00909616                6.00153608                1.98520437                0.75650830                0.41718881                0.16368618               -1.22014308                0.00937461                0.21085581                0.09382720
              10.01416801                6.00183379                1.97869751                0.88329304                0.50718483                0.19741132               -1.48351660                0.00392500                0.18539208                0.12182984
               0.01169036                6.99645012                2.01947425                0.88374302               -0.39356143               -0.19954715                1.18293632                0.00370563                0.04713423               -0.20064825
               1.00775475                6.99714565                2.01330879                0.75653621               -0.33818648               -0.15983099                0.99275982                0.02133117                0.09800569               -0.14326316
               2.00492663                6.99799143                2.00865276                0.74063961               -0.22553723               -0.11409083                0.71944256                0.03151575                0.13631816               -0.10944996
               3.00324400                6.99880292                2.00501385                0.72970101               -0.12417460               -0.06890822                0.42952171                0.03121769                0.13483326               -0.06815513
               4.00244314                6.99957803                2.00184747                0.72348620               -0.04893352               -0.02431629                0.16106572                0.03077359                0.12366851               -0.02472553
               5.00226533                7.00033663                1.99886634                0.72156116                0.00992626                0.01989251               -0.09747111                0.03058414                0.12393288                0.01921472
               6.00264167                7.00108296                1.99590660                0.72373970                0.06893101                0.06359471               -0.35536859                0.02978450                0.14145211                0.06262555
               7.00364395                7.00181710                1.99279984                0.73018279                0.14314571                0.10646196               -0.62214729                0.02811050                0.17578319                0.10480247
               8.00550458                7.00253969                1.98934757                0.74139671                0.25529600                0.14800592               -0.90816150                0.02504525                0.21473123                0.14617158
               9.00874987                7.00324712                1.98510532                0.75692697                0.41274913                0.18830509               -1.23074421                0.01754112                0.19407399                0.19012606
              10.01375956                7.00390253                1.97876165                0.88358905                0.50096896                0.22814985               -1.49078244                0.00548750                0.17491211                0.25032589
               0.01084623                7.99427602                2.01929604                0.88438638               -0.38067367               -0.25290219                1.19034548                0.00324036                0.03154639               -0.27690220
               1.00703950                7.99542059                2.01347182                0.75741366               -0.32913967               -0.20071873                1.00310929                0.02626802                0.06396038               -0.19070134
               2.00426344                7.99675343                2.00878414                0.74113859               -0.22093793               -0.14714751                0.72901842                0.04140492                0.08408834               -0.15220077
               3.00262074                7.99805170                2.00507674                0.72991086               -0.12090992               -0.08939336                0.43449368                0.04228027                0.08268682               -0.09651216
               4.00184524                7.99931457                2.00183901                0.72349867               -0.04696275               -0.03126063                0.16017268                0.04203731                0.07255018               -0.03485120
               5.00168148                8.00055854                1.99878535                0.72150985                0.01087223                0.02673886               -0.10474454                0.04179556                0.07334269                0.02812117
               6.00206269                8.00178510                1.99575353                0.72376945                0.06885424                0.08428662               -0.36899851                0.04066564                0.09116656                0.09036547
               7.00305857                8.00298908                1.99257985                0.73042489                0.14162118                0.14056822               -0.64133534                0.03786822                0.12603907                0.15043313
               8.00489511                8.00416210                1.98908255                0.74193793                0.25127866                0.19424067               -0.93073568                0.03247296                0.16764903                0.20749851
               9.00808414                8.00530218                1.98487040                0.75784166                0.40359205                0.24354143               -1.25155634                0.02122731                0.16119744                0.26860377
              10.01296695                8.00639678                1.97881592                0.88424318                0.48828096                0.29393151               -1.50688302                0.00341272                0.15427055                0.36424737
               0.00946603                8.99139208                2.01960828                0.88474420               -0.36633387               -0.31260450                1.22073343               -0.00530828                0.00173019               -0.25347066
               1.00580269                8.99313128                2.01422519                0.75780679               -0.31712031               -0.25782343                1.03550893                0.02497525               -0.00397251               -0.16088171
               2.00312362                8.99504848                2.00927726                0.74138387               -0.21371088               -0.19788609                0.75752258                0.03765496               -0.01227410               -0.14328768
               3.00152847                8.99701505                2.00534801                0.73003882               -0.11732885               -0.12128144                0.45103967                0.03897149               -0.00939638               -0.09199416
               4.00077704                8.99895282                2.00190431                0.72353824               -0.04488793               -0.04246954                0.16338906                0.03798484               -0.01879294               -0.03306443
               5.00063071                9.00087141                1.99864108                0.72152215                0.01236971                0.03738820               -0.11574983                0.03757353               -0.01792898                0.02705637
               6.00102444                9.00276870                1.99539989                0.72382088                0.06968034                0.11684373               -0.39425110                0.03678765                0.00058661                0.08643743
               7.00202432                9.00462846                1.99202372                0.73057506                0.14082507                0.19444074               -0.67984182                0.03442895                0.03637259                0.14331664
               8.00384094                9.00642450                1.98833915                0.74220807                0.24577100                0.26763230               -0.97964938                0.02845688                0.08148018                0.19596969
               9.00693974                9.00811795                1.98404489                0.75827208                0.38988342                0.33222901               -1.30303715                0.01817470                0.09698730                0.24360664
              10.01163861                9.00978116                1.97839412                0.88462522                0.46988691                0.39037967               -1.55522554               -0.00695183                0.11570404                0.35170277
               0.00726166                9.98802393                2.02186107                0.94173704               -0.33790655               -0.33681497                1.17500563                0.00358262               -0.08780014               -0.18604396
               1.00388260                9.99026412                2.01662181                0.87785680               -0.30644468               -0.28671603                1.00040728                0.04658008               -0.11447331               -0.10660929
               2.00113277                9.99279571                2.01095976                0.87011072               -0.21933839               -0.22527676                0.73993064                0.06901212               -0.16545941               -0.11351734
               2.99949583                9.99562607                2.00638271                0.86478405               -0.11920956               -0.13889820                0.44020105                0.08020912               -0.17228930               -0.07415008
               3.99874858                9.99846518                2.00223820                0.86174812               -0.04393757               -0.04876385                0.15638343                0.08116499               -0.19010930               -0.02603684
               4.99861708               10.00130630                1.99824959                0.86081062                0.01464051                0.04348918               -0.12069063                0.08147627               -0.19133011                0.02398221
               5.99904139               10.00412198                1.99428448                0.86188220                0.07371330                0.13532819               -0.39755173                0.08027438               -0.17007546                0.07377523
               7.00009134               10.00687789                1.99020788                0.86503896                0.14666858                0.22494306               -0.68074312                0.07634082               -0.12759928                0.12102707
               8.00197476               10.00951475                1.98586849                0.87050015                0.24998184                0.30902477               -0.97695103                0.06682508               -0.07662298                0.16401136
               9.00509098               10.01194676                1.98092521                0.87807844                0.37633736                0.38288067               -1.29122533                0.04960541               -0.03319598                0.19717572
              10.00950151               10.01420438                1.97530026                0.94168178                0.44105261                0.44232201               -1.53338520                0.01205148               -0.01420521                0.29252523
               0.01305689                0.01559696                3.03532293                0.94169125               -0.33422494               -0.36904821                1.19707951               -0.02583471               -0.07048950                0.06743030
               1.00971464                0.01245757                3.02779697                0.87750418               -0.30771786               -0.28834901                0.96415535               -0.04693812               -0.09895050                0.00582253
               2.00690253                0.00930614                3.01980185                0.87021565               -0.24267407               -0.21734487                0.72601404               -0.05927917               -0.10157298               -0.00542978
               3.00486116                0.00594442                3.01227221                0.86493845               -0.15903168               -0.13887026                0.46192949               -0.06963133               -0.07808171               -0.00405279
               4.00372190                0.00245232                3.00512156                0.86176120               -0.07086268               -0.05779791                0.19675058               -0.07408817               -0.06881771               -0.00280353
               5.00344390               -0.00109592                2.99814379                0.86074407                0.01375844                0.02475768               -0.06562490               -0.07518167               -0.06467933               -0.00123559
               6.00399707               -0.00463317                2.99117764                0.86186463                0.09827396                0.10735545               -0.32825045               -0.07345422               -0.05973310                0.00037605
               7.00540938               -0.00808888                2.98407447                0.86514305                0.18709547                0.18843507               -0.59424868               -0.06838093               -0.05737755                0.00169255
               8.00773897               -0.01140003                2.97666503                0.87054028                0.27494958                0.26733186               -0.86413726               -0.05884980               -0.06623159                0.00118789
               9.01090837               -0.01455524                2.96884056                0.87775847                0.34764357                0.34223518               -1.12021072               -0.04498169               -0.07099158               -0.00874104
              10.01469185               -0.01779461                2.96112466                0.94171997                0.37834723                0.42107118               -1.35395424               -0.01669572               -0.06342136               -0.06456218
               0.01593792                1.01190647                3.03341327                0.88450946               -0.35472602               -0.36229198                1.27237642                0.00755754               -0.02171952                0.10129034
               1.01239066                1.00957408                3.02591437                0.75674675               -0.31858060               -0.28298361                1.04536968               -0.01702757               -0.02060493                0.03795655
               2.00956631                1.00713269                3.01832864                0.74131407               -0.23994547               -0.21414855                0.79036783               -0.04011143               -0.00157245                0.02013323
               3.00759176                1.00455572                3.01129123                0.73027437               -0.15325627               -0.13740499                0.50287380               -0.05403033                0.02917952                0.01197006
               4.00650119                1.00187434                3.00467162                0.72362996               -0.06784617               -0.05688936                0.21084000               -0.06116788                0.04341581                0.00325279
               5.00623483                0.99915165                2.99825148                0.72150614                0.01289078                0.02522010               -0.07987203               -0.06279624                0.05010563               -0.00577282
               6.00675900                0.99644038                2.99184864                0.72386086                0.09370856                0.10722740               -0.37077495               -0.05990763                0.05501491               -0.01473764
               7.00810900                0.99379547                2.98529704                0.73073065                0.18123260                0.18734501               -0.66352794               -0.05117706                0.05632777               -0.02388919
               8.01038366                0.99127328                2.97842205                0.74204390                0.27734218                0.26383674               -0.95761207               -0.03535344                0.04654565               -0.03510604
               9.01365585                0.98886711                2.97108144                0.75710296                0.36903037                0.33571807               -1.24015964               -0.01314652                0.02449543               -0.06273443
              10.01776426                0.98641610                2.96349819                0.88432491                0.41084162                0.41449341               -1.47535691                0.01289074                0.00074861               -0.12948356
               0.01787282                2.00835112                3.03254933                0.88484457               -0.37249545               -0.33345152                1.27081874               -0.00150715               -0.01102515                0.14494772
               1.01414787                2.00679790                3.02471465                0.75741491               -0.33770802               -0.26219136                1.05610601               -0.02666062                0.02087386                0.07514126
               2.01111866                2.00502317                3.01725614                0.74166287               -0.25544822               -0.19658252                0.79224964               -0.05454404                0.07373941                0.04701199
               3.00903890                2.00319632                3.01052876                0.73046656               -0.16080290               -0.12608740                0.50119860               -0.06801929                0.11532450                0.02732161
               4.00790260                2.00131453                3.00428365                0.72373512               -0.07084845               -0.05146446                0.20728469               -0.07579246                0.13251367                0.00879968
               5.00762194                1.99940848                2.99826940                0.72159112                0.01262470                0.02470098               -0.08442443               -0.07764598                0.14072675               -0.00927324
               6.00815510                1.99751137                2.99227642                0.72398471                0.09655007                0.10055963               -0.37647447               -0.07384399                0.14628265               -0.02740530
               7.00955294                1.99565802                2.98610887                0.73095886                0.19025814                0.17418106               -0.67137354               -0.06350390                0.14651418               -0.04672037
               8.01196026                1.99387670                2.97954424                0.74245199                0.29748463                0.24329682               -0.97036577               -0.04594038                0.12623858               -0.07109757
               9.01550263                1.99215912                2.97226703                0.75757659                0.39457133                0.30868879               -1.25975695               -0.02039494                0.07061145               -0.11416370
              10.01985169                1.99049526                2.96430495                0.88439207                0.43490589                0.37984261               -1.47762194                0.00245756                0.00827287               -0.19076241
               0.01901422                3.00523744                3.03218996                0.88457174               -0.38288165               -0.29156482                1.25226450               -0.00501872                0.00078826                0.12180741
               1.01518540                3.00433025                3.02409868                0.75724169               -0.34686036               -0.23341277                1.04412187               -0.02390988                0.04900898                0.07382667
               2.01207701                3.00320104                3.01669291                0.74168221               -0.26226949               -0.17152669                0.77956583               -0.04209919                0.11898130                0.05143014
               3.00994001                3.00203397                3.01009577                0.73052827               -0.16519133               -0.10844946                0.49022578               -0.04862993                0.16530036                0.03120612
               4.00877318                3.00084505                3.00403332                0.72382182               -0.07274709               -0.04317539                0.19964555               -0.05217641                0.18529974                0.01137701
               5.00848507                2.99964567                2.99822700                0.72169003                0.01297017                0.02308721               -0.08799233               -0.05274754                0.19476084               -0.00817956
               6.00903258                2.99845157                2.99244322                0.72407865                0.09942652                0.08893802               -0.37602147               -0.05003598                0.20026791               -0.02794370
               7.01047360                2.99727909                2.98645762                0.73103713                0.19655790                0.15289965               -0.66789377               -0.04382845                0.19815164               -0.04903428
               8.01296374                2.99613922                2.98000189                0.74250106                0.30778976                0.21379976               -0.96570551               -0.03388007                0.17000611               -0.07415573
               9.01662939                2.99504089                2.97267846                0.75745203                0.40887022                0.27250035               -1.25518944               -0.01885914                0.09783663               -0.10907648
              10.02114115                2.99401295                2.96443663                0.88415547                0.45117544                0.33053271               -1.46656166               -0.00260784                0.02364395               -0.16233580
               0.01958683                4.00251982                3.03202870                0.88426968               -0.38807541               -0.26136436                1.23841943               -0.00428492                0.00653729                0.06495738
               1.01570607                4.00212964                3.02378004                0.75689861               -0.35069330               -0.21264989                1.03248870               -0.01460767                0.06366095                0.04190859
               2.01257296                4.00159264                3.01638695                0.74154690               -0.26418873               -0.15510557                0.76796018               -0.02441422                0.14313346                0.03012727
               3.01042230                4.00102733                3.00984562                0.73050245               -0.16627931               -0.09647183                0.48009298               -0.02669587                0.19201345                0.01897035
               4.00924737                4.00045102                3.00386402                0.72386435               -0.07309193               -0.03714620                0.19230127               -0.02750928                0.21360486                0.00749428
               5.00896046                3.99987022                2.99815267                0.72175812                0.01367943                0.02244884               -0.09193079               -0.02725420                0.22388367               -0.00403106
               6.00952096                3.99929013                2.99246301                0.72412651                0.10141299                0.08155560               -0.37658807               -0.02577660                0.22917057               -0.01586343
               7.01098872                3.99871601                2.98655204                0.73102257                0.19999489                0.13934651               -0.66583828               -0.02293435                0.22529436               -0.02866849
               8.01352086                3.99815270                2.98012650                0.74238262                0.31314985                0.19528531               -0.96243058               -0.01835171                0.19278501               -0.04363231
               9.01725172                3.99760913                2.97275338                0.75713555                0.41672724                0.24897650               -1.25203251               -0.01059562                0.11189458               -0.06303470
              10.02185541                3.99710591                2.96433814                0.88387424                0.46036895                0.29890041               -1.46083424               -0.00186407                0.03044781               -0.09040569
               0.01970887                5.00001016                3.03188875                0.88415506               -0.38884391               -0.24989033                1.23086550               -0.00209345                0.00839607               -0.00463724
               1.01582043                5.00007726                3.02359646                0.75675674               -0.35089174               -0.20418821                1.02493731               -0.00302918                0.06809643               -0.00215568
               2.01269103                5.00009893                3.01621281                0.74148171               -0.26363621               -0.14851370                0.76043361               -0.00447214                0.15058279               -0.00058166
               3.01054771                5.00010454                3.00969271                0.73048329               -0.16554641               -0.09147338                0.47306327               -0.00415310                0.20031778                0.00030701
               4.00938011                5.00010212                3.00373917                0.72387555               -0.07234175               -0.03409295                0.18629988               -0.00356099                0.22257111                0.00094109
               5.00910087                5.00009465                2.99805999                0.72178215                0.01455799                0.02320511               -0.09663311               -0.00305920                0.23327232                0.00142638
               6.00967127                5.00008269                2.99240121                0.72414450                0.10257393                0.07996163               -0.38001832               -0.00269591                0.23853733                0.00161626
               7.01115235                5.00006602                2.98651242                0.73101696                0.20161623                0.13564357               -0.66834946               -0.00237017                0.23403617                0.00124741
               8.01370359                5.00004493                2.98009204                0.74233727                0.31559589                0.18977513               -0.96465474               -0.00184939                0.20005858                0.00011739
               9.01746427                5.00002042                2.97269707                0.75702072                0.42033575                0.24157293               -1.25461025               -0.00097410                0.11619341               -0.00169366
              10.02211031                4.99999096                2.96421912                0.88377664                0.46460382                0.28913999               -1.46298175                0.00043108                0.03259175               -0.00365940
               0.01941076                5.99752201                3.03172229                0.88424392               -0.38540421               -0.25659999                1.22861768               -0.00020650                0.00660586               -0.07514468
               1.01555672                5.99804588                3.02350013                0.75685242               -0.34772593               -0.20828067                1.02096533                0.00805601                0.06330404               -0.04723081
               2.01245624                5.99862236                3.01613031                0.74151177               -0.26103369               -0.15146389                0.75632209                0.01492344                0.14265543               -0.03232676
               3.01033604                5.99919787                3.00960704                0.73048077               -0.16350996               -0.09298036                0.46866338                0.01781813                0.19180944               -0.01923525
               4.00918604                5.99976916                3.00364396                0.72385503               -0.07086633               -0.03375206                0.18142836                0.01954985                0.21410920               -0.00601409
               5.00891871                6.00033433                2.99795311                0.72175836                0.01548182                0.02557516               -0.10207141                0.02009556                0.22501798                0.00722755
               6.00949568                6.00088937                2.99228218                0.72413280                0.10301793                0.08432818               -0.38603102                0.01931107                0.23052524                0.02024340
               7.01097907                6.00142888                2.98638231                0.73103183                0.20168995                0.14178893               -0.67486158                0.01718923                0.22641038                0.03299219
               8.01352947                6.00194820                2.97995624                0.74239329                0.31535644                0.19735638               -0.97149825                0.01365051                0.19338973                0.04610698
               9.01728620                6.00244059                2.97257173                0.75714740                0.41967355                0.25054558               -1.26167161                0.00779914                0.11191599                0.06174615
              10.02192295                6.00288871                2.96413898                0.88388035                0.46367433                0.30072524               -1.47098614                0.00203212                0.03029956                0.08473668
               0.01865701                6.99487816                3.03155596                0.88452409               -0.37758045               -0.28144943                1.23212214                0.00016464                0.00079891               -0.13583469
               1.01488120                6.99591164                3.02351690                0.75715796               -0.34097449               -0.22544390                1.02052271                0.01632328                0.04853367               -0.08340874
               2.01183752                6.99706965                3.01615660                0.74161922               -0.25619673               -0.16467761                0.75568550                0.03087050                0.11815041               -0.05781833
               3.00975727                6.99824493                3.00959658                0.73048906               -0.16014366               -0.10130232                0.46691457                0.03707281                0.16525711               -0.03519985
               4.00863464                6.99942708                3.00357917                0.72380455               -0.06873449               -0.03602745                0.17764372                0.04034816                0.18706290               -0.01164251
               5.00838258                7.00060615                2.99782772                0.72169082                0.01641438                0.02983296               -0.10832443                0.04104571                0.19803482                0.01227745
               6.00896293                7.00176925                2.99209676                0.72409275                0.10273625                0.09512466               -0.39473104                0.03903754                0.20402585                0.03602165
               7.01043730                7.00290180                2.98614638                0.73106058                0.20009820                0.15863586               -0.68552838                0.03409160                0.20128224                0.05962065
               8.01296489                7.00399206                2.97969653                0.74253219                0.31212185                0.21923974               -0.98313975                0.02592285                0.17174363                0.08458642
               9.01667974                7.00503133                2.97234807                0.75748991                0.41449050                0.27700566               -1.27343822                0.01377540                0.09830360                0.11604123
              10.02125470                7.00600546                2.96406587                0.88417547                0.45749657                0.33408609               -1.48559858                0.00148482                0.02309285                0.16343791
               0.01734708                7.99189302                3.03153274                0.88480761               -0.36553917               -0.31931648                1.24252703               -0.00255144               -0.01037934               -0.16619072
               1.01369168                7.99353700                3.02377173                0.75735979               -0.33033566               -0.25285981                1.02336119                0.01931044                0.02050912               -0.09169648
               2.01074036                7.99532881                3.01637793                0.74162396               -0.24858092               -0.18722087                0.75875662                0.04011141                0.07271364               -0.06399013
               3.00872007                7.99717182                3.00970852                0.73043656               -0.15542931               -0.11556296                0.46800261                0.04977964                0.11618009               -0.03967729
               4.00763178                7.99904861                3.00355954                0.72371751               -0.06613015               -0.04042203                0.17495387                0.05461830                0.13714176               -0.01315886
               5.00739746                8.00093098                2.99766759                0.72159329                0.01745026                0.03586693               -0.11550255                0.05554684                0.14799244                0.01408170
               6.00798078                8.00279186                2.99179686                0.72401410                0.10203179                0.11169300               -0.40635517                0.05264906                0.15460438                0.04113084
               7.00943810                8.00460160                2.98572227                0.73102425                0.19688089                0.18532908               -0.70075195                0.04514730                0.15410551                0.06790318
               8.01191840                8.00633299                2.97919389                0.74256383                0.30551010                0.25480387               -1.00028146                0.03225486                0.13123619                0.09657378
               9.01554830                8.00798070                2.97188301                0.75773641                0.40429870                0.31965335               -1.29090383                0.01424599                0.07289331                0.13628291
              10.02000437                8.00957043                2.96384664                0.88448227                0.44560726                0.38645560               -1.50932304               -0.00266150                0.01005461                0.20559005
               0.01531802                8.98849183                3.03197772                0.88422950               -0.34863976               -0.34808720                1.24388178               -0.01066190               -0.02570841               -0.12793265
               1.01183163                8.99085445                3.02458120                0.75615220               -0.31565482               -0.27113376                1.01379197                0.01529295               -0.02257905               -0.05328031
               2.00900493                8.99332523                3.01700210                0.74081212               -0.23992849               -0.20030191                0.75601382                0.03477973               -0.00139478               -0.03901544
               3.00703306                8.99593367                3.01006269                0.73002243               -0.15185414               -0.12324969                0.46585771                0.04529791                0.03746685               -0.02539565
               4.00596784                8.99861864                3.00362479                0.72354256               -0.06413942               -0.04220981                0.17095665                0.04993754                0.05698517               -0.00835137
               5.00575027                9.00132349                2.99742975                0.72149519                0.01887270                0.04026850               -0.12187845                0.05082117                0.06709927                0.00967903
               6.00634530                9.00400311                2.99125565                0.72383269                0.10244239                0.12253716               -0.41508493                0.04831290                0.07440044                0.02745887
               7.00779911                9.00660838                2.98489556                0.73059568                0.19427962                0.20272691               -0.71114622                0.04130350                0.07661636                0.04474687
               8.01023089                9.00908813                2.97813291                0.74172945                0.29640531                0.27898187               -1.01029845                0.02833580                0.06260089                0.06282204
               9.01372722                9.01142440                2.97074817                0.75654593                0.38955621                0.35063800               -1.29935383                0.00987753                0.03053480                0.09157061
              10.01802201                9.01373458                2.96302207                0.88393206                0.42947935                0.42483106               -1.52917405               -0.01316489               -0.01042363                0.15971168
               0.01240860                9.98493128                3.03344655                0.94143506               -0.32444627               -0.35605460                1.17192908                0.02736216               -0.07575667               -0.09130487
               1.00916414                9.98811433                3.02611241                0.87694798               -0.30259317               -0.27401201                0.93661389                0.05282559               -0.10487923               -0.01225263
               2.00635674                9.99132277                3.01805512                0.86974276               -0.24157597               -0.20024633                0.69948250                0.06480585               -0.10335308               -0.00456269
               3.00433262                9.99470683                3.01067053                0.86470535               -0.15580155               -0.12268434                0.42754619                0.07403840               -0.06293108               -0.00327220
               4.00324070                9.99820442                3.00376717                0.86168337               -0.06515978               -0.04142254                0.15351854                0.07876254               -0.04659087                0.00003922
               5.00302942               10.00173636                2.99708995                0.86073062                0.02107242                0.04128625               -0.11728183                0.07982466               -0.03789322                0.00344496
               6.00366215               10.00524260                2.99043231                0.86181912                0.10748625                0.12394945               -0.38855923                0.07767462               -0.02969648                0.00670111
               7.00517915               10.00865614                2.98360327                0.86497187                0.20034732                0.20477574               -0.66378609                0.07150447               -0.02543677                0.01005810
               8.00766910               10.01191263                2.97639399                0.87016545                0.29601314                0.28244984               -0.94385141                0.06068707               -0.03677609                0.01517281
               9.01109941               10.01499346                2.96862641                0.87712010                0.37258096                0.35690641               -1.21202426                0.04493983               -0.05071464                0.03071737
              10.01512072               10.01806705                2.96089025                0.94128532                0.40213097                0.43324763               -1.44430412                0.01722951               -0.06737108                0.09594153
               0.02121894                0.01750806                4.04751126                0.94187599               -0.33691909               -0.37930074                1.23487163               -0.03575665               -0.04151658                0.02784524
               1.01784974                0.01391638                4.03745858                0.87749232               -0.30668084               -0.29204093                0.97231470               -0.04843453               -0.06123091               -0.00458714
               2.01508532                0.01034644                4.02706804                0.87008056               -0.24054578               -0.21587882                0.72724885               -0.05449339               -0.05929633               -0.01038186
               3.01303883                0.00662851                4.01694469                0.86490553               -0.16224058               -0.13677692                0.46788784               -0.06207641               -0.02736977               -0.00877400
               4.01184051                0.00278506                4.00712379                0.86175484               -0.07452189               -0.05628778                0.20050723               -0.06607398               -0.00416530               -0.00427386
               5.01154839               -0.00112395                3.99747659                0.86073254                0.01662285                0.02493858               -0.06869687               -0.06718506                0.00565635                0.00089089
               6.01217296               -0.00502747                3.98783797                0.86186329                0.10815198                0.10620859               -0.33840401               -0.06549026                0.00319392                0.00600388
               7.01371143               -0.00885776                3.97804627                0.86512487                0.19745453                0.18692012               -0.60795934               -0.06091973               -0.01175988                0.01003021
               8.01612205               -0.01256985                3.96797548                0.87042635                0.27887948                0.26671933               -0.87330777               -0.05316237               -0.03634050                0.01052434
               9.01928902               -0.01618260                3.95763616                0.87774057                0.34959915                0.34544560               -1.12807039               -0.04659155               -0.04551257                0.00347333
              10.02311404               -0.01990433                3.94740990                0.94188516                0.38250174                0.43141940               -1.38802451               -0.02898053               -0.03595311               -0.02487473
               0.02445304                1.01371505                4.04624849                0.88448136               -0.35068330               -0.37733942                1.28702372                0.00361502               -0.01108998                0.04232070
               1.02094621                1.01099597                4.03622512                0.75602765               -0.31343616               -0.29148173                1.02390358               -0.01411655               -0.01191257                0.00233342
               2.01818432                1.00818765                4.02611300                0.74064169               -0.23737283               -0.21627321                0.76727570               -0.03163925                0.00444322               -0.00928652
               3.01619875                1.00526075                4.01628748                0.73003599               -0.15641602               -0.13752247                0.49214919               -0.04499320                0.03713308               -0.00976752
               4.01505600                1.00222218                4.00677571                0.72358742               -0.07079725               -0.05624447                0.20698596               -0.05301935                0.06119443               -0.00535294
               5.01478281                0.99912544                3.99744407                0.72150224                0.01644843                0.02623942               -0.08143567               -0.05525258                0.07202685                0.00037338
               6.01538497                0.99603461                3.98812604                0.72382603                0.10453066                0.10867059               -0.37047436               -0.05159480                0.07080726                0.00590412
               7.01687342                0.99301144                3.97865870                0.73051671                0.19339421                0.18986066               -0.65837128               -0.04183919                0.05735330                0.00925345
               8.01925285                0.99009735                3.96890907                0.74139390                0.28084622                0.26889015               -0.94093239               -0.02657474                0.03315813                0.00596213
               9.02249035                0.98727186                3.95886539                0.75631335                0.36465549                0.34642250               -1.21117309               -0.01074955                0.00969853               -0.01048276
              10.02654596                0.98440987                3.94872434                0.88421211                0.40556160                0.43138603               -1.47533836                0.00864208               -0.00026201               -0.04923273
               0.02672939                2.00996127                4.04543398                0.88491378               -0.36345722               -0.36258590                1.29418565               -0.00164409               -0.00473381                0.06718196
               1.02309481                2.00808675                4.03519865                0.75677222               -0.32708121               -0.28374807                1.04081906               -0.02159188                0.01377419                0.02090734
               2.02018776                2.00602097                4.02516711                0.74104785               -0.24951922               -0.21035819                0.78091627               -0.04594645                0.05824093                0.00322885
               3.01810443                2.00387807                4.01558171                0.73026770               -0.16361672               -0.13383408                0.49912728               -0.06145346                0.10447220               -0.00289380
               4.01691543                2.00166017                4.00638460                0.72370476               -0.07367600               -0.05391759                0.20704479               -0.07130635                0.13439128               -0.00308129
               5.01663091                1.99940084                3.99739875                0.72158989                0.01698181                0.02766714               -0.08854076               -0.07400563                0.14738867               -0.00117076
               6.01725506                1.99714594                3.98842848                0.72396698                0.10905024                0.10903653               -0.38496512               -0.06902315                0.14554442                0.00035376
               7.01881191                1.99493946                3.97927702                0.73079383                0.20375409                0.18836321               -0.68043904               -0.05641629                0.12697391               -0.00161911
               8.02133015                1.99280796                3.96975632                0.74186251                0.29747975                0.26438603               -0.97026510               -0.03738280                0.08825439               -0.01242167
               9.02476151                1.99074585                3.95976236                0.75683558                0.38403576                0.33843517               -1.24156462               -0.01619514                0.03619372               -0.03938496
              10.02901086                1.98872339                3.94940855                0.88434680                0.42493514                0.41717283               -1.49277952                0.00175042                0.00787970               -0.08828918
               0.02816920                3.00646333                4.04494160                0.88500065               -0.37145321               -0.33667425                1.28504338               -0.00415158                0.00201677                0.06455132
               1.02445467                3.00532101                4.03452585                0.75713093               -0.33475630               -0.26833566                1.03857650               -0.02008632                0.03396993                0.02971264
               2.02147407                3.00398048                4.02453475                0.74139754               -0.25620918               -0.19732145                0.77785796               -0.03791718                0.09538137                0.01530839
               3.01933048                3.00258406                4.01508163                0.73049091               -0.16834886               -0.12443769                0.49535174               -0.04694958                0.14974558                0.00678641
               4.01810710                3.00114383                4.00607697                0.72382988               -0.07567780               -0.04904660                0.20255161               -0.05265268                0.18429232                0.00172123
               5.01781693                2.99967878                3.99731199                0.72168527                0.01793971                0.02772048               -0.09379672               -0.05394808                0.19904068               -0.00194971
               6.01846589                2.99821534                3.98856228                0.72410695                0.11330755                0.10415932               -0.39113249               -0.05027658                0.19621975               -0.00609238
               7.02008308                2.99677871                3.97959828                0.73104792                0.21164544                0.17861706               -0.68767129               -0.04183756                0.17285051               -0.01305018
               8.02269880                2.99538507                3.97018645                0.74225848                0.30839635                0.25017653               -0.97812123               -0.02957146                0.12358022               -0.02621872
               9.02625101                2.99404056                3.96016644                0.75724384                0.39635435                0.31946972               -1.24715098               -0.01474018                0.05567061               -0.04997702
              10.03062589                2.99275332                3.94962996                0.88446126                0.43748805                0.38849606               -1.48986123               -0.00154978                0.01644879               -0.08751407
               0.02893099                4.00322778                4.04464831                0.88488162               -0.37550576               -0.31555331                1.27412183               -0.00366347                0.00637549                0.03783329
               1.02517593                4.00272004                4.03411385                0.75707413               -0.33823122               -0.25472874                1.03130577               -0.01279659                0.04629259                0.01966684
               2.02216637                4.00207454                4.02413850                0.74144787               -0.25869216               -0.18645908                0.77085425               -0.02297239                0.11694706                0.01192108
               3.02000209                4.00138931                4.01474823                0.73055604               -0.16993552               -0.11636072                0.48868002               -0.02692809                0.17525978                0.00659604
               4.01876766                4.00067924                4.00584165                0.72389266               -0.07608276               -0.04463285                0.19666078               -0.02904285                0.21245780                0.00267227
               5.01848044                3.99995525                3.99719299                0.72174943                0.01909746                0.02794446               -0.09874642               -0.02920039                0.22828112               -0.00071579
               6.01914961                3.99922913                3.98855824                0.72417958                0.11625024                0.10010512               -0.39519477               -0.02714470                0.22468461               -0.00454895
               7.02080544                3.99851180                3.97968468                0.73113284                0.21636284                0.17060605               -0.69103103               -0.02294975                0.19821223               -0.01011594
               8.02347686                3.99781149                3.97031152                0.74233683                0.31465045                0.23866259               -0.98082519               -0.01686143                0.14307268               -0.01908248
               9.02709845                3.99713525                3.96025196                0.75722074                0.40387385                0.30403062               -1.24839125               -0.00891040                0.06641004               -0.03338546
              10.03155434                3.99649332                3.94958248                0.88436364                0.44558903                0.36634770               -1.48687944               -0.00127599                0.02115497               -0.05462126
               0.02911142                5.00015226                4.04443224                0.88481321               -0.37594504               -0.30654668                1.26705521               -0.00215144                0.00786579               -0.00245362
               1.02535197                5.00022644                4.03385917                0.75700716               -0.33830380               -0.24839466                1.02482866               -0.00323264                0.05058190               -0.00170037
               2.02234535                5.00025130                4.02389281                0.74143330               -0.25823749               -0.18148066                0.76434987               -0.00496816                0.12444415               -0.00057612
               3.02018722                5.00025685                4.01452681                0.73056206               -0.16925247               -0.11240102                0.48234194               -0.00483446                0.18408629                0.00026917
               4.01896030                5.00025118                4.00565641                0.72390928               -0.07520954               -0.04193111                0.19081549               -0.00436200                0.22226342                0.00102190
               5.01868303                5.00023767                3.99705064                0.72177214                0.02030754                0.02911271               -0.10394626               -0.00386480                0.23854798                0.00168221
               6.01936645                5.00021745                3.98845730                0.72420469                0.11793443                0.09966997               -0.39975995               -0.00338376                0.23465396                0.00201783
               7.02104172                5.00019083                3.97961371                0.73115562                0.21858351                0.16869621               -0.69509576               -0.00286706                0.20698417                0.00170542
               8.02373812                5.00015832                3.97024902                0.74234627                0.31746236                0.23540730               -0.98457307               -0.00219589                0.14966018                0.00050317
               9.02739097                5.00012117                3.96016807                0.75718418                0.40730539                0.29923804               -1.25182712               -0.00123737                0.06990363               -0.00158822
              10.03188423                5.00008028                3.94944530                0.88431343                0.44932588                0.35942271               -1.48926770                0.00016882                0.02254210               -0.00403488
               0.02873962                5.99709685                4.04424607                0.88486236               -0.37273741               -0.31146456                1.26457312               -0.00081892                0.00675314               -0.04395398
               1.02501224                5.99775214                4.03372073                0.75703937               -0.33515124               -0.25102800                1.02015596                0.00604488                0.04730050               -0.02428733
               2.02203659                5.99844493                4.02376442                0.74142099               -0.25533565               -0.18319294                0.75922140                0.01268842                0.11852515               -0.01414599
               3.01990553                5.99914129                4.01439295                0.73053877               -0.16684980               -0.11297086                0.47706876                0.01675188                0.17719913               -0.00698662
               4.01869960                5.99984062                4.00550943                0.72388502               -0.07343309               -0.04107865                0.18539358                0.01945853                0.21506120               -0.00116255
               5.01843687                6.00053751                3.99688763                0.72175067                0.02145884                0.03150201               -0.10955210                0.02036562                0.23137643                0.00414329
               6.01912877                6.00122253                3.98827772                0.72418869                0.11851795                0.10356367               -0.40555146                0.01926449                0.22772982                0.00930664
               7.02080723                6.00188572                3.97941933                0.73114893                0.21869136                0.17393594               -0.70104473                0.01626075                0.20061051                0.01483476
               8.02350260                6.00251963                3.97004615                0.74235948                0.31722582                0.24177249               -0.99070007                0.01169660                0.14442821                0.02180123
               9.02715174                6.00312001                3.95997094                0.75724966                0.40684536                0.30677483               -1.25846952                0.00588854                0.06676126                0.03210621
              10.03163951                6.00368177                3.94927779                0.88438017                0.44877639                0.36916701               -1.49749129                0.00125564                0.02102202                0.04813532
               0.02778446                6.99392297                4.04411669                0.88497019               -0.36596696               -0.32832014                1.26599867               -0.00065739                0.00299650               -0.07466101
               1.02412479                6.99520588                4.03371924                0.75707621               -0.32872461               -0.26148895                1.01638044                0.01283579                0.03622572               -0.03814743
               2.02120997                6.99658744                4.02376647                0.74135537               -0.24991085               -0.19084011                0.75480146                0.02679416                0.09875576               -0.02120088
               3.01912657                6.99799743                4.01435214                0.73046293               -0.16283560               -0.11746286                0.47246882                0.03496812                0.15411323               -0.01034447
               4.01795326                6.99942960                4.00540034                0.72381676               -0.07090677               -0.04174219                0.18026439                0.03998496                0.19047093               -0.00203331
               5.01770844                7.00086771                3.99669986                0.72168813                0.02251342                0.03503182               -0.11545580                0.04131308                0.20649154                0.00541720
               6.01840352                7.00228872                3.98801198                0.72412735                0.11806955                0.11131528               -0.41222369                0.03865762                0.20361341                0.01290086
               7.02006983                7.00366955                3.97908927                0.73108754                0.21671207                0.18561195               -0.70828462                0.03207347                0.17876825                0.02168235
               8.02273777                7.00499377                3.96968477                0.74231855                0.31383873                0.25687794               -0.99838118                0.02218096                0.12715445                0.03424649
               9.02634660                7.00625667                3.95963655                0.75732390                0.40240253                0.32538625               -1.26734084                0.01036801                0.05695700                0.05480038
              10.03078582                7.00746362                3.94904967                0.88450774                0.44392123                0.39353043               -1.51074664                0.00075830                0.01666829                0.08722287
               0.02616066                7.99053045                4.04414658                0.88489139               -0.35561731               -0.35016830                1.26668940               -0.00278628               -0.00343757               -0.08173008
               1.02260449                7.99252236                4.03393904                0.75673177               -0.31898701               -0.27404422                1.00889382                0.01498092                0.01705432               -0.03260292
               2.01978092                7.99462813                4.02395927                0.74101663               -0.24208766               -0.19982327                0.74770098                0.03369664                0.06386000               -0.01477372
               3.01776273                7.99679203                4.01443679                0.73024316               -0.15759517               -0.12261507                0.46646024                0.04530964                0.11320157               -0.00587819
               4.01662902                7.99900577                4.00533809                0.72369037               -0.06793614               -0.04257214                0.17465251                0.05212707                0.14711666               -0.00031854
               5.01640401                8.00123814                3.99647529                0.72159467                0.02355358                0.03874602               -0.12099331                0.05382283                0.16257296                0.00424733
               6.01710009                8.00344883                3.98762642                0.72400237                0.11698180                0.11968529               -0.41764272                0.05014656                0.16079813                0.00894237
               7.01874365                8.00559796                3.97856481                0.73087126                0.21295039                0.19864275               -0.71332541                0.04089564                0.13968536                0.01549568
               8.02135910                8.00765719                3.96907692                0.74199016                0.30728034                0.27435359               -1.00300976                0.02661782                0.09643728                0.02761802
               9.02488925                8.00962773                3.95905232                0.75701445                0.39408404                0.34746474               -1.27356294                0.01049283                0.03995106                0.05207905
              10.02924078                8.01155238                3.94862946                0.88445300                0.43515228                0.42340795               -1.52464017               -0.00270974                0.00952469                0.09584280
               0.02374490                8.98691961                4.04448592                0.88417376               -0.34181737               -0.36351431                1.25266140               -0.00675376               -0.01182569               -0.05752708
               1.02032673                8.98972499                4.03450103                0.75536117               -0.30653356               -0.27828611                0.98301254                0.01216631               -0.01186673               -0.00958551
               2.01761423                8.99259098                4.02439754                0.74008472               -0.23358038               -0.20148578                0.72701448                0.02734025                0.01138163                0.00052187
               3.01565512                8.99554513                4.01466516                0.72975795               -0.15322700               -0.12235410                0.45198077                0.03748035                0.05507320                0.00280417
               4.01454969                8.99857816                4.00532344                0.72349444               -0.06566409               -0.04122859                0.16593938                0.04329138                0.08700524                0.00229685
               5.01434184                9.00164263                3.99620351                0.72149326                0.02484736                0.04083367               -0.12378806                0.04471663                0.10185182                0.00113272
               6.01504664                9.00468243                3.98709820                0.72379617                0.11687717                0.12269275               -0.41442281                0.04169088                0.10094729                0.00007288
               7.01667938                9.00764240                3.97780080                0.73036491                0.20968563                0.20328414               -0.70413178                0.03378461                0.08333309                0.00045522
               8.01924035                9.01048084                3.96813318                0.74102956                0.29909466                0.28194307               -0.98832321                0.02102828                0.04969596                0.00567763
               9.02266127                9.01320597                3.95805781                0.75565351                0.38209901                0.35884501               -1.25721971                0.00710521                0.01397707                0.02269944
              10.02688233                9.01593178                3.94781064                0.88375764                0.42210552                0.44172341               -1.51951468               -0.00813805               -0.00137975                0.06268374
               0.02041481                9.98326016                4.04529966                0.94158457               -0.32383720               -0.36594472                1.19649491                0.03663928               -0.04051508               -0.04122620
               1.01717644                9.98695664                4.03535409                0.87685948               -0.29536133               -0.27683522                0.92497196                0.05188400               -0.06327921                0.00222215
               2.01450759                9.99059841                4.02494940                0.86955113               -0.23256407               -0.19925666                0.68433774                0.05875124               -0.05460537                0.00658441
               3.01252516                9.99434495                4.01493363                0.86464528               -0.15551216               -0.12001791                0.42317353                0.06614354               -0.00756394                0.00645581
               4.01139734                9.99818120                4.00530857                0.86167078               -0.06655416               -0.03969568                0.15227082                0.07025853                0.02519200                0.00337081
               5.01119408               10.00205481                3.99590396                0.86072076                0.02683952                0.04121837               -0.12127300                0.07129806                0.04001394               -0.00043021
               6.01193413               10.00590269                3.98651330                0.86181444                0.12134235                0.12202604               -0.39566174                0.06919106                0.03876618               -0.00420632
               7.01362092               10.00966364                3.97693216                0.86493334                0.21409822                0.20212399               -0.66998092                0.06382259                0.02065281               -0.00662682
               8.01621610               10.01329605                3.96699146                0.86999932                0.29797488                0.28152124               -0.93978293                0.05462438               -0.01213329               -0.00485646
               9.01958042               10.01680463                3.95668473                0.87699777                0.37051463                0.35986671               -1.19631630                0.04645432               -0.03410907                0.00628581
              10.02362639               10.02038685                3.94641418                0.94138289                0.40459695                0.44550687               -1.45889805                0.03262749               -0.03103982                0.04183426
               0.03233192                0.01867940                5.06002036                0.94200420               -0.33986765               -0.38492368                1.25976571               -0.04157159               -0.01822814                0.00997380
               1.02893324                0.01483275                5.04724326                0.87757947               -0.30507113               -0.29520588                0.98383377               -0.04807409               -0.02635380               -0.00795869
               2.02623049                0.01100859                5.03434683                0.87002415               -0.23376133               -0.21607013                0.72817827               -0.05123719               -0.01811255               -0.00990037
               3.02425801                0.00708336                5.02162997                0.86485649               -0.15618987               -0.13600045                0.46717969               -0.05591064                0.00914484               -0.00819600
               4.02310670                0.00306300                5.00913170                0.86174245               -0.07075826               -0.05565274                0.19920676               -0.05864314                0.03240110               -0.00378574
               5.02284285               -0.00101308                4.99676986                0.86073367                0.01922820                0.02500403               -0.07248364               -0.05939346                0.04251155                0.00154339
               6.02349126               -0.00508924                4.98440956                0.86185705                0.10969122                0.10571941               -0.34486858               -0.05807650                0.03732694                0.00672878
               7.02503667               -0.00911314                4.97191528                0.86508892                0.19655042                0.18629226               -0.61515502               -0.05473653                0.01865328                0.01065591
               8.02742227               -0.01305672                4.95919887                0.87038380                0.27635147                0.26684041               -0.88057539               -0.04976885               -0.00586063                0.01165378
               9.03056370               -0.01694423                4.94627915                0.87782337                0.35015189                0.34754851               -1.14190761               -0.04613011               -0.01815926                0.00765307
              10.03442531               -0.02092099                4.93336417                0.94200055                0.38616045                0.43537907               -1.41397606               -0.03609583               -0.01512495               -0.00698930
               0.03576286                1.01483017                5.05915374                0.88440015               -0.34749535               -0.38388797                1.29062039                0.00089725               -0.00113313                0.01343119
               1.03228791                1.01188069                5.04639244                0.75564645               -0.30850214               -0.29587131                1.01342879               -0.01126479                0.00373855               -0.01119711
               2.02959282                1.00884789                5.03367415                0.74019644               -0.23081009               -0.21712981                0.74942001               -0.02437054                0.02053674               -0.01678090
               3.02767170                1.00572335                5.02113421                0.72978254               -0.15121654               -0.13695269                0.47857325               -0.03442850                0.04665674               -0.01423799
               4.02656849                1.00250647                5.00881134                0.72351519               -0.06733348               -0.05556783                0.19998435               -0.04098519                0.06889405               -0.00674707
               5.02632504                0.99923696                4.99662277                0.72149231                0.01960191                0.02651173               -0.08285139               -0.04277723                0.07908511                0.00274765
               6.02696052                0.99596795                4.98443916                0.72376176                0.10740053                0.10857293               -0.36652169               -0.03953600                0.07537269                0.01190455
               7.02847305                0.99274978                4.97212961                0.73027857                0.19398006                0.18995969               -0.64788713               -0.03141819                0.05896027                0.01822811
               8.03084013                0.98961169                4.95960340                0.74095245                0.27807470                0.27038031               -0.92391879               -0.02003940                0.03510573                0.01859853
               9.03403454                0.98653126                4.94685798                0.75588930                0.36004947                0.35072976               -1.19503390               -0.00841572                0.01409565                0.00936893
              10.03804112                0.98343280                4.93399142                0.88408583                0.40065753                0.43724229               -1.47000950                0.00473417                0.00399687               -0.01281358
               0.03824882                2.01100165                5.05843304                0.88472045               -0.35586010               -0.37580110                1.29917490               -0.00247285                0.00191989                0.02459860
               1.03469022                2.00891532                5.04553103                0.75613036               -0.31742026               -0.29356925                1.02769399               -0.01759527                0.02072893               -0.00566433
               2.03190042                2.00666600                5.03287447                0.74042430               -0.23896792               -0.21560343                0.76215105               -0.03674872                0.05779275               -0.01527569
               3.02991086                2.00434430                5.02051130                0.72992363               -0.15635145               -0.13600883                0.48571573               -0.04966809                0.09539136               -0.01438434
               4.02877339                2.00195164                5.00842455                0.72359082               -0.06925199               -0.05420231                0.19985146               -0.05834847                0.12324922               -0.00711541
               5.02852582                1.99951715                4.99649859                0.72155302                0.02071630                0.02877389               -0.09087638               -0.06069425                0.13542833                0.00293528
               6.02918772                1.99708222                4.98457712                0.72385968                0.11193753                0.11160072               -0.38261215               -0.05604667                0.13040233                0.01243210
               7.03076457                1.99468606                4.97250009                0.73046032                0.20261464                0.19303198               -0.67156363               -0.04489667                0.10833694                0.01779883
               8.03324001                1.99235089                4.96013894                0.74122924                0.29048517                0.27239790               -0.95321235               -0.02943162                0.07207559                0.01494061
               9.03657428                1.99007037                4.94743574                0.75613311                0.37384517                0.35102484               -1.22498623               -0.01311442                0.03200342               -0.00045652
              10.04071691                1.98782385                4.93444936                0.88409868                0.41426335                0.43279708               -1.49265593                0.00044710                0.00896844               -0.02996731
               0.03988605                3.00731415                5.05789083                0.88494727               -0.36144031               -0.36078979                1.29622125               -0.00376291                0.00648397                0.02783243
               1.03627165                3.00600930                5.04487021                0.75664393               -0.32285974               -0.28628286                1.02989781               -0.01634075                0.03528644                0.00406103
               2.03342886                3.00453582                5.03225007                0.74084054               -0.24394767               -0.20964998                0.76395865               -0.03145122                0.08611497               -0.00388974
               3.03139270                3.00300318                5.02000281                0.73016835               -0.16000950               -0.13151151                0.48562990               -0.03999565                0.13184405               -0.00555243
               4.03022867                3.00142243                5.00808435                0.72370435               -0.07060605               -0.05133084                0.19683511               -0.04561809                0.16449208               -0.00292333
               5.02998058                2.99981244                4.99635107                0.72162475                0.02210095                0.03000508               -0.09735134               -0.04693985                0.17832475                0.00161496
               6.03067069                2.99819997                4.98462057                0.72399045                0.11629317                0.11109605               -0.39264378               -0.04333807                0.17181830                0.00559198
               7.03230644                2.99661042                4.97270419                0.73073953                0.20982464                0.19061020               -0.68466269               -0.03526071                0.14450031                0.00630964
               8.03486718                2.99505965                4.96043947                0.74169496                0.29964241                0.26787909               -0.96774994               -0.02418175                0.09865621                0.00080919
               9.03829929                2.99355175                4.94773544                0.75669581                0.38379536                0.34347113               -1.23758178               -0.01181104                0.04600766               -0.01360060
              10.04254309                2.99208874                4.93463940                0.88435002                0.42438001                0.41871461               -1.49931123               -0.00127408                0.01515707               -0.03803392
               0.04078325                4.00378585                5.05751114                0.88497474               -0.36415206               -0.34754108                1.28932978               -0.00330513                0.00964055                0.01856878
               1.03714173                4.00318966                5.04440616                0.75678713               -0.32528662               -0.27864674                1.02598056               -0.01065038                0.04481032                0.00511541
               2.03427752                4.00247300                5.03180403                0.74099871               -0.24586916               -0.20371683                0.76019818               -0.01960853                0.10382888                0.00063501
               3.03222435                4.00171407                5.01961922                0.73027770               -0.16128754               -0.12689870                0.48153328               -0.02374209                0.15404376               -0.00087937
               4.03105177                4.00092503                5.00779724                0.72376732               -0.07074311               -0.04838220                0.19202675               -0.02619739                0.18966695               -0.00030522
               5.03080949                4.00011725                4.99617775                0.72167389                0.02355985                0.03106133               -0.10311065               -0.02652576                0.20456896                0.00117709
               6.03152297                3.99930414                4.98455912                0.72406589                0.11950977                0.11017989               -0.39938831               -0.02442039                0.19696769                0.00218694
               7.03319968                3.99849826                4.97273142                0.73087356                0.21460383                0.18775301               -0.69208597               -0.02008996                0.16614886                0.00118895
               8.03581504                3.99770847                4.96050999                0.74188809                0.30546407                0.26303619               -0.97498744               -0.01416094                0.11441624               -0.00340944
               9.03930896                3.99693979                4.94778555                0.75687738                0.39012092                0.33589583               -1.24307510               -0.00717775                0.05424786               -0.01298768
              10.04361746                3.99619815                4.93460055                0.88439863                0.43084978                0.40631042               -1.50098186               -0.00098439                0.01855667               -0.02804080
               0.04101232                5.00036332                5.05722985                0.88495990               -0.36408282               -0.34136858                1.28335874               -0.00203368                0.01092126               -0.00024474
               1.03737150                5.00043637                5.04409303                0.75679617               -0.32500235               -0.27448019                1.02059565               -0.00296006                0.04859603               -0.00096951
               2.03451228                5.00046149                5.03149981                0.74102705               -0.24528347               -0.20036063                0.75476793               -0.00470800                0.11067347               -0.00047468
               3.03246583                5.00046520                5.01933955                0.73030201               -0.16053679               -0.12406389                0.47605981               -0.00480169                0.16246453                0.00010619
               4.03130154                5.00045478                5.00755548                0.72378494               -0.06974389               -0.04615216                0.18651823               -0.00453624                0.19923872                0.00077232
               5.03107095                5.00043366                4.99598106                0.72169167                0.02498665                0.03253610               -0.10868124               -0.00413761                0.21458738                0.00139416
               6.03180127                5.00040356                4.98440601                0.72409316                0.12146790                0.11083396               -0.40501880               -0.00362866                0.20652158                0.00170175
               7.03350031                5.00036548                4.97261050                0.73091697                0.21705780                0.18758791               -0.69768282               -0.00300094                0.17424886                0.00136732
               8.03614243                5.00032037                4.96040058                0.74194413                0.30828758                0.26200003               -0.98032859               -0.00222136                0.12016205                0.00013308
               9.03966606                5.00026967                4.94766053                0.75692045                0.39321306                0.33372217               -1.24778698               -0.00123013                0.05712507               -0.00208730
              10.04400669                5.00021495                4.93443377                0.88440314                0.43406331                0.40244496               -1.50459177                0.00013860                0.01965717               -0.00500999
               0.04059649                5.99695848                5.05701375                0.88496090               -0.36121225               -0.34394503                1.27967905               -0.00086611                0.01030185               -0.02023741
               1.03698437                5.99770006                5.04390325                0.75676125               -0.32209835               -0.27529919                1.01503731                0.00458758                0.04657708               -0.00820237
               2.03415452                5.99846578                5.03131474                0.74097804               -0.24246750               -0.20053515                0.74873531                0.01000939                0.10680594               -0.00257768
               3.03213502                5.99923280                5.01914841                0.73026381               -0.15809700               -0.12355041                0.47005190                0.01380132                0.15762814                0.00030641
               4.03099258                6.00000198                5.00735183                0.72376091               -0.06785340               -0.04485145                0.18072567                0.01649941                0.19394963                0.00137965
               5.03077795                6.00076798                4.99576207                0.72167567                0.02629931                0.03465835               -0.11421026                0.01743293                0.20923304                0.00156209
               6.03151857                6.00152082                4.98417115                0.72407675                0.12224532                0.11374998               -0.41028369                0.01632763                0.20139789                0.00163519
               7.03322286                6.00225002                4.97236141                0.73089432                0.21739285                0.19122408               -0.70273335                0.01336105                0.16969444                0.00242653
               8.03586643                6.00294847                4.96014224                0.74191929                0.30834619                0.26629201               -0.98536012                0.00912440                0.11663119                0.00499237
               9.03938978                6.00361423                4.94740234                0.75691931                0.39316258                0.33881405               -1.25330374                0.00432462                0.05511954                0.01050185
              10.04372968                6.00424704                4.93418915                0.88442344                0.43398981                0.40916527               -1.51152236                0.00103778                0.01879698                0.01972800
               0.03951184                6.99348442                5.05687594                0.88492537               -0.35558976               -0.35346397                1.27699044               -0.00055850                0.00792903               -0.03279233
               1.03595594                6.99493038                5.04384451                0.75660196               -0.31660557               -0.27984522                1.00809367                0.01010325                0.03898437               -0.01014201
               2.03317973                6.99645078                5.03125262                0.74080628               -0.23751435               -0.20317587                0.74119410                0.02145490                0.09242008               -0.00089240
               3.03120565                6.99799419                5.01904595                0.73014448               -0.15416889               -0.12457800                0.46298693                0.02886148                0.13975107                0.00263441
               4.03009635                6.99955775                5.00718446                0.72369278               -0.06524410               -0.04414198                0.17450884                0.03378283                0.17417739                0.00258412
               5.02990077                7.00112683                4.99551860                0.72162845                0.02747174                0.03721503               -0.11949093                0.03517266                0.18899531                0.00093377
               6.03064578                7.00267856                4.98385228                0.72401333                0.12195499                0.11818371               -0.41463748                0.03258987                0.18205315               -0.00061874
               7.03233987                7.00418997                4.97198069                0.73078527                0.21574585                0.19749849               -0.70634035                0.02630476                0.15285249               -0.00022460
               8.03496070                7.00564621                4.95972890                0.74176602                0.30570527                0.27442366               -0.98885706                0.01745938                0.10416874                0.00445148
               9.03845398                7.00704595                4.94700125                0.75679366                0.39005626                0.34933933               -1.25817034                0.00785233                0.04853503                0.01589291
              10.04276183                7.00839825                4.93385094                0.88440868                0.43078491                0.42396368               -1.52021865                0.00077591                0.01622779                0.03496603
               0.03769340                7.98988920                5.05686653                0.88469991               -0.34733256               -0.36481087                1.27082685               -0.00163211                0.00398207               -0.03257242
               1.03422008                7.99210315                5.04394961                0.75608773               -0.30867945               -0.28413501                0.99557219                0.01198993                0.02605753               -0.00306188
               2.03151981                7.99440227                5.03133195                0.74038785               -0.23073980               -0.20526210                0.72884848                0.02633890                0.06779791                0.00637709
               3.02960528                7.99674124                5.01903773                0.72989590               -0.14921027               -0.12506413                0.45281494                0.03599162                0.10944506                0.00770013
               4.02853561                7.99911914                5.00705259                0.72357588               -0.06223433               -0.04318250                0.16716197                0.04221452                0.14109755                0.00447143
               5.02836059                8.00151228                4.99524772                0.72155860                0.02858127                0.03953273               -0.12380702                0.04385636                0.15524834               -0.00068481
               6.02910723                8.00388449                4.98344400                0.72389588                0.12103572                0.12195622               -0.41591733                0.04044430                0.14959642               -0.00560484
               7.03078131                8.00619999                4.97145576                0.73053673                0.21261983                0.20300822               -0.70494241                0.03216856                0.12427254               -0.00788829
               8.03335963                8.00843694                4.95913369                0.74135247                0.30067384                0.28204700               -0.98601584                0.02040615                0.08295226               -0.00434210
               9.03679478                8.01060102                4.94641175                0.75630798                0.38404834                0.36000156               -1.25689523                0.00823483                0.03753617                0.00881988
              10.04104060                8.01272632                4.93335384                0.88420549                0.42458117                0.44026395               -1.52498926               -0.00112365                0.01198155                0.03316919
               0.03505128                8.98618821                5.05703095                0.88407417               -0.33686120               -0.37049600                1.25332674               -0.00425106               -0.00086733               -0.02105829
               1.03168267                8.98924768                5.04424145                0.75494466               -0.29914300               -0.28252555                0.97024137                0.00930306                0.00774161                0.00607460
               2.02906842                8.99234554                5.03154239                0.73961280               -0.22370307               -0.20257733                0.70717331                0.02052524                0.03352203                0.01103528
               3.02720861                8.99549291                5.01910231                0.72949073               -0.14494119               -0.12211147                0.43699088                0.02827272                0.06994720                0.00964598
               4.02616960                8.99869410                5.00694358                0.72341852               -0.05980297               -0.04087809                0.15789995                0.03315915                0.09970443                0.00467094
               5.02601255                9.00191748                4.99495399                0.72148391                0.02986794                0.04072911               -0.12615032                0.03439811                0.11344230               -0.00174766
               6.02676696                9.00511769                4.98296719                0.72373064                0.12091191                0.12218879               -0.41129881                0.03173430                0.10873805               -0.00795119
               7.02843079                9.00825013                4.97081293                0.73011668                0.21004160                0.20304404               -0.69383843                0.02510996                0.08664879               -0.01207571
               8.03096779                9.01128715                4.95836645                0.74056053                0.29492558                0.28310029               -0.96994857                0.01550467                0.05303799               -0.01139801
               9.03432930                9.01424598                4.94560378                0.75518204                0.37604843                0.36321651               -1.23994185                0.00580526                0.02136981               -0.00240217
              10.03848876                9.01720353                4.93263178                0.88360276                0.41594586                0.44851742               -1.51505169               -0.00422404                0.00594981                0.01852088
               0.03148942                9.98247928                5.05737645                0.94169111               -0.32406223               -0.37089279                1.21350447                0.04115056               -0.01569898               -0.01535239
               1.02824880                9.98645264                5.04461185                0.87690740               -0.29021682               -0.27950401                0.92915171                0.05018506               -0.02130149                0.00750583
               2.02568509                9.99035072                5.03174188                0.86946678               -0.22133150               -0.19948208                0.67692487                0.05398454               -0.00494266                0.00966862
               3.02382217                9.99429901                5.01913400                0.86458257               -0.14554353               -0.11939054                0.41652695                0.05889918                0.03353545                0.00800992
               4.02277422                9.99830158                5.00681259                0.86165468               -0.05986018               -0.03925213                0.14743904                0.06185430                0.06498828                0.00364996
               5.02262497               10.00232686                4.99466449                0.86072221                0.03175272                0.04093744               -0.12631209                0.06257601                0.07928096               -0.00175542
               6.02340927               10.00632827                4.98251907                0.86180637                0.12445380                0.12105786               -0.40112533                0.06093177                0.07394654               -0.00700559
               7.02511405               10.01026087                4.97020365                0.86488679                0.21322982                0.20107384               -0.67358836                0.05685971                0.05069873               -0.01075797
               8.02767387               10.01409895                4.95759833                0.86992884                0.29402305                0.28118014               -0.94021644                0.05083185                0.01749361               -0.01108986
               9.03099451               10.01786535                4.94470008                0.87702878                0.36835743                0.36193675               -1.20213452                0.04640624               -0.00548338               -0.00523276
              10.03504102               10.02169667                4.93171229                0.94146434                0.40465112                0.44931339               -1.47660049                0.03835723               -0.00955210                0.01146500
               0.04640858                0.01944078                6.07270658                0.94203961               -0.34123753               -0.38697868                1.27213023               -0.04375414               -0.00344013                0.00097435
               1.04299620                0.01545884                6.05713526                0.87761734               -0.30361084               -0.29745779                0.99238346               -0.04691276               -0.00081240               -0.00881878
               2.04033636                0.01149379                6.04163161                0.86999311               -0.22796754               -0.21693944                0.72860454               -0.04844478                0.01422695               -0.00829610
               3.03843685                0.00745610                6.02628829                0.86481822               -0.14938604               -0.13614496                0.46431886               -0.05140161                0.03666898               -0.00650646
               4.03734864                0.00335007                6.01110793                0.86173086               -0.06580422               -0.05556720                0.19588875               -0.05308176                0.05545773               -0.00285385
               5.03712077               -0.00079890                5.99602691                0.86073722                0.02127200                0.02505629               -0.07561853               -0.05351491                0.06339037                0.00151395
               6.03777408               -0.00495209                5.98094060                0.86185047                0.10872094                0.10572348               -0.34771608               -0.05257045                0.05779847                0.00574156
               7.03929519               -0.00907330                5.96574317                0.86505949                0.19334451                0.18645004               -0.61792460               -0.05036738                0.04070439                0.00896938
               8.04164097               -0.01314583                5.95036397                0.87035945                0.27326728                0.26750766               -0.88507733               -0.04713174                0.01864267                0.01013448
               9.04476053               -0.01718719                5.93479801                0.87785471                0.35002628                0.34898474               -1.15159799               -0.04526841                0.00220285                0.00838111
              10.04864150               -0.02129861                5.91913038                0.94202722                0.38809644                0.43670126               -1.42737041               -0.03938889               -0.00170604                0.00091358
               0.04995297                1.01557099                6.07206090                0.88422470               -0.34524017               -0.38623158                1.28875543               -0.00051066                0.00573414                0.00006408
               1.04650057                1.01248427                6.05649370                0.75532061               -0.30498441               -0.29815721                1.00801570               -0.00874151                0.01664084               -0.01542924
               2.04385328                1.00932439                6.04110140                0.73989467               -0.22529376               -0.21771260                0.73877427               -0.01813153                0.03684043               -0.01705809
               3.04199469                1.00609465                6.02585895                0.72959167               -0.14539792               -0.13671579                0.46837294               -0.02523369                0.05764538               -0.01336752
               4.04094533                1.00279440                6.01077540                0.72345299               -0.06289989               -0.05526065                0.19369832               -0.02992542                0.07518204               -0.00590274
               5.04073670                0.99945166                5.99578705                0.72148416                0.02201259                0.02650742               -0.08413067               -0.03115557                0.08289518                0.00323561
               6.04138558                0.99610515                5.98079561                0.72370535                0.10758427                0.10826261               -0.36264396               -0.02864684                0.07854981                0.01202980
               7.04288838                0.99279120                5.96570096                0.73009584                0.19205105                0.18970797               -0.63936386               -0.02271271                0.06344003                0.01844650
               8.04522660                0.98952925                5.95043069                0.74064743                0.27479269                0.27082631               -0.91303664               -0.01467507                0.04215803                0.02032753
               9.04838424                0.98630265                5.93496471                0.75553366                0.35662108                0.35232295               -1.18549857               -0.00651097                0.02044678                0.01582380
              10.05235902                0.98306841                5.91932415                0.88388639                0.39747831                0.43873350               -1.46296201                0.00264917                0.00878101                0.00322563
               0.05257182                2.01171615                6.07141748                0.88438790               -0.35038473               -0.38145532                1.29500123               -0.00268688                0.00679467                0.00345261
               1.04906797                2.00949570                6.05575253                0.75550205               -0.31042373               -0.29785810                1.01774712               -0.01380126                0.02783942               -0.01624214
               2.04636334                2.00713954                6.04041013                0.73991430               -0.23028982               -0.21756351                0.74744858               -0.02817117                0.06249931               -0.02038527
               3.04446217                2.00472179                6.02529602                0.72962334               -0.14851094               -0.13647774                0.47284779               -0.03781440                0.09152391               -0.01641964
               4.04339312                2.00224486                6.01038163                0.72348198               -0.06376334               -0.05408621                0.19230096               -0.04435959                0.11335321               -0.00726817
               5.04318691                1.99973125                5.99558122                0.72151797                0.02342420                0.02901311               -0.09212595               -0.04605955                0.12250086                0.00425789
               6.04386161                1.99721316                5.98077624                0.72375315                0.11149619                0.11200190               -0.37729858               -0.04234166                0.11682400                0.01523478
               7.04541683                1.99472086                5.96584575                0.73016008                0.19872017                0.19411891               -0.65997166               -0.03383312                0.09707842                0.02268984
               8.04783601                1.99227070                5.95069208                0.74070205                0.28371615                0.27504749               -0.93780283               -0.02237565                0.06697612                0.02369641
               9.05109115                1.98985926                5.93526264                0.75546432                0.36634810                0.35580389               -1.21084371               -0.01038233                0.03253335                0.01583283
              10.05516297                1.98747606                5.91955543                0.88373988                0.40718199                0.43865241               -1.48411948               -0.00021645                0.01235807               -0.00165619
               0.05434013                3.00794189                6.07086603                0.88463060               -0.35389745               -0.37280051                1.29455010               -0.00338085                0.01002416                0.00810677
               1.05080116                3.00652710                6.05512381                0.75598649               -0.31381787               -0.29480900                1.02071701               -0.01287434                0.03838694               -0.00791351
               2.04806377                3.00497312                6.03981392                0.74028020               -0.23340346               -0.21510140                0.74995771               -0.02477331                0.08343467               -0.01170377
               3.04613309                3.00336510                6.02479423                0.72982984               -0.15075493               -0.13434046                0.47323908               -0.03164335                0.11910305               -0.00991849
               4.04504867                3.00171267                6.01001367                0.72356837               -0.06429438               -0.05214254                0.18933260               -0.03619164                0.14485089               -0.00429096
               5.04484720                3.00003192                5.99536496                0.72156602                0.02502305                0.03087769               -0.09908204               -0.03722290                0.15524417                0.00307600
               6.04554914                2.99834519                5.98070940                0.72385617                0.11534941                0.11371330               -0.38826706               -0.03423341                0.14811294                0.00990969
               7.04715419                2.99667357                5.96590502                0.73039920                0.20457699                0.19542044               -0.67425262               -0.02771387                0.12396474                0.01386498
               8.04964067                2.99503020                5.95083145                0.74111410                0.29085183                0.27557477               -0.95374604               -0.01899027                0.08650674                0.01271472
               9.05297122                2.99341873                5.93541481                0.75599512                0.37402091                0.35455666               -1.22586389               -0.00935263                0.04282751                0.00475285
              10.05712109                2.99184145                5.91964374                0.88400549                0.41498693                0.43310377               -1.49548972               -0.00110280                0.01675760               -0.01065997
               0.05533376                4.00426014                6.07043490                0.88472150               -0.35545193               -0.36485641                1.29029455               -0.00289350                0.01238658                0.00770870
               1.05177925                4.00359952                6.05463346                0.75619829               -0.31519411               -0.29085756                1.01856896               -0.00849216                0.04568837               -0.00220781
               2.04902988                4.00283751                6.03934246                0.74045962               -0.23447441               -0.21210108                0.74778250               -0.01580093                0.09738790               -0.00460638
               3.04708976                4.00203498                6.02437890                0.72993924               -0.15137078               -0.13176600                0.47028850               -0.01938732                0.13705647               -0.00410808
               4.04600247                4.00120201                6.00968218                0.72361976               -0.06399096               -0.05003201                0.18494550               -0.02156437                0.16543366               -0.00154401
               5.04580994                4.00034880                5.99513078                0.72159967                0.02664109                0.03246528               -0.10529543               -0.02187612                0.17668412                0.00192870
               6.04653529                3.99948743                5.98057048                0.72392060                0.11838013                0.11471313               -0.39630516               -0.02006149                0.16846462                0.00497156
               7.04817754                3.99862926                5.96584296                0.73053424                0.20878802                0.19573025               -0.68362111               -0.01636466                0.14121499                0.00618738
               8.05071105                3.99778219                5.95081177                0.74132998                0.29576520                0.27492679               -0.96339675               -0.01141050                0.09887824                0.00427817
               9.05409284                3.99695040                5.93539045                0.75624690                0.37922109                0.35219547               -1.23430303               -0.00574982                0.04924816               -0.00171445
              10.05829547                3.99613814                5.91956284                0.88411764                0.42026263                0.42750141               -1.50126648               -0.00073526                0.01950675               -0.01214117
               0.05560350                5.00064476                6.07009941                0.88473730               -0.35495547               -0.36070607                1.28520121               -0.00183621                0.01347125                0.00188764
               1.05205394                5.00070995                6.05427108                0.75624580               -0.31455999               -0.28814541                1.01389689               -0.00250532                0.04889447                0.00001092
               2.04931230                5.00073110                6.03898817                0.74050488               -0.23365493               -0.20984750                0.74300198               -0.00412545                0.10335999               -0.00017320
               3.04738084                5.00072978                6.02404800                0.72996818               -0.15043658               -0.12969802                0.46532608               -0.00439117                0.14459956                0.00006176
               4.04630356                5.00071203                6.00938678                0.72363460               -0.06282950               -0.04813856                0.17964158               -0.00430439                0.17406795                0.00052050
               5.04612425                5.00068123                5.99487702                0.72161219                0.02819385                0.03412017               -0.11105969               -0.00401596                0.18569047                0.00098502
               6.04686744                5.00063945                5.98035692                0.72394549                0.12039394                0.11607611               -0.40251791               -0.00354746                0.17697468                0.00117261
               7.04853213                5.00058818                5.96566005                0.73058314                0.21119445                0.19674010               -0.69008568               -0.00291146                0.14834259                0.00077722
               8.05109133                5.00052873                5.95064245                0.74140441                0.29840750                0.27544798               -0.96974112               -0.00211468                0.10387741               -0.00046559
               9.05450028                5.00046264                5.93521233                0.75633018                0.38197879                0.35194643               -1.24006783               -0.00114361                0.05175384               -0.00273136
              10.05873091                5.00039148                5.91935347                0.88415347                0.42306250                0.42605099               -1.50613279                0.00020200                0.02054796               -0.00597579
               0.05516665                5.99704602                6.06983965                0.88470995               -0.35238562               -0.36152040                1.28039011               -0.00082077                0.01320391               -0.00496966
               1.05164279                5.99783661                6.05402148                0.75617630               -0.31195512               -0.28766364                1.00770998                0.00341966                0.04786687                0.00122999
               2.04892755                5.99864056                6.03873913                0.74044150               -0.23108959               -0.20893587                0.73647679                0.00745195                0.10128345                0.00341036
               3.04702100                5.99944102                6.02379399                0.72992658               -0.14813094               -0.12844872                0.45895622                0.01037991                0.14183548                0.00359537
               4.04596493                6.00023924                6.00912394                0.72361370               -0.06093988               -0.04657539                0.17369911                0.01253874                0.17092614                0.00222039
               5.04580221                6.00103120                5.99460342                0.72160154                0.02962299                0.03597550               -0.11646883                0.01329898                0.18246729               -0.00000797
               6.04655739                6.00180895                5.98007205                0.72393196                0.12139103                0.11820232               -0.40739336                0.01239627                0.17392064               -0.00232845
               7.04823003                6.00256407                5.96536466                0.73055656                0.21184526                0.19912629               -0.69453061                0.01001646                0.14571035               -0.00395980
               8.05079429                6.00329115                5.95033894                0.74136438                0.29885990                0.27813064               -0.97402114                0.00672542                0.10192726               -0.00412991
               9.05420722                6.00398933                5.93490486                0.75629425                0.38237663                0.35512397               -1.24467066                0.00314987                0.05068091               -0.00226021
              10.05844183                6.00465916                5.91904734                0.88414602                0.42346033                0.43033843               -1.51175611                0.00098791                0.02016612                0.00178766
               0.05400589                6.99341435                6.06965650                0.88461073               -0.34780982               -0.36610137                1.27488121               -0.00039261                0.01173273               -0.00817183
               1.05052779                6.99495668                6.05388111                0.75594784               -0.30744805               -0.28862108                0.99914574                0.00777273                0.04289172                0.00438630
               2.04785693                6.99655239                6.03859035                0.74024759               -0.22690137               -0.20873269                0.72755993                0.01626662                0.09163018                0.00811348
               3.04598976                6.99816080                6.02361188                0.72980638               -0.14463879               -0.12756681                0.45081714                0.02190683                0.12941331                0.00755106
               4.04496415                6.99978053                6.00889052                0.72355683               -0.05846247               -0.04515763                0.16703633                0.02579914                0.15685795                0.00390182
               5.04482051                7.00140074                5.99431004                0.72156977                0.03091758                0.03789277               -0.12135610                0.02691623                0.16797068               -0.00127580
               6.04558250                7.00300349                5.97971923                0.72387931                0.12148728                0.12064376               -0.41052577                0.02482750                0.16020978               -0.00635876
               7.04725026                7.00457070                5.96496246                0.73044563                0.21090366                0.20219444               -0.69629871                0.01986171                0.13408213               -0.00966622
               8.04980058                7.00609135                5.94990763                0.74118692                0.29725062                0.28208261               -0.97533187                0.01311373                0.09363248               -0.00951889
               9.05319527                7.00756512                5.93447314                0.75609716                0.38052113                0.36061382               -1.24700649                0.00597565                0.04643552               -0.00465217
              10.05741100                7.00899825                5.91864530                0.88406729                0.42157279                0.43878793               -1.51686314                0.00103330                0.01860376                0.00487212
               0.05207414                7.98972399                6.06956311                0.88436335               -0.34139242               -0.37129166                1.26577720               -0.00094686                0.00938321               -0.00611886
               1.04866021                7.99206419                6.05385048                0.75545267               -0.30126906               -0.28862183                0.98573460                0.00921211                0.03459126                0.00979009
               2.04604876                7.99446591                6.03853624                0.73987178               -0.22146077               -0.20753141                0.71446714                0.01961863                0.07546118                0.01334757
               3.04423100                7.99688968                6.02349309                0.72959162               -0.14038894               -0.12595123                0.43992096                0.02666454                0.10891391                0.01113854
               4.04324098                7.99933608                6.00868133                0.72346570               -0.05567183               -0.04344734                0.15937051                0.03136609                0.13406032                0.00518466
               5.04311756                8.00178906                5.99399915                0.72152351                0.03214974                0.03950865               -0.12535834                0.03261491                0.14462425               -0.00252108
               6.04388397                8.00422183                5.97930808                0.72378842                0.12109228                0.12224205               -0.41089788                0.02994266                0.13798943               -0.01000385
               7.04553941                8.00660795                5.96446596                0.73023262                0.20890906                0.20411478               -0.69364815                0.02369084                0.11494996               -0.01519614
               8.04806215                8.00893280                5.94935660                0.74081794                0.29402122                0.28484488               -0.97112618                0.01516652                0.07981055               -0.01594303
               9.05141983                8.01120160                5.93391442                0.75562968                0.37670382                0.36522352               -1.24380603                0.00650897                0.03940008               -0.01046400
              10.05559623                8.01343492                5.91812967                0.88384121                0.41763983                0.44727447               -1.51765095                0.00004732                0.01609044                0.00129001
               0.04930655                8.98598852                6.06955245                0.88388470               -0.33364329               -0.37309422                1.24929810               -0.00263234                0.00669868               -0.00250630
               1.04597012                8.98918424                6.05390586                0.75459771               -0.29413703               -0.28491166                0.96424758                0.00690058                0.02370671                0.01136271
               2.04342381                8.99240176                6.03854100                0.73929665               -0.21586201               -0.20365487                0.69564529                0.01476809                0.05479182                0.01298381
               3.04165288                8.99564178                6.02340498                0.72929203               -0.13658564               -0.12239564                0.42574889                0.02019925                0.08441651                0.01010984
               4.04069210                8.99891158                6.00848144                0.72335383               -0.05329046               -0.04099507                0.15067408                0.02373892                0.10807615                0.00443379
               5.04058707                9.00219091                5.99368051                0.72147560                0.03351825                0.04048291               -0.12820542                0.02462031                0.11839106               -0.00250110
               6.04136246                9.00544834                5.97887222                0.72367279                0.12130160                0.12184950               -0.40792534                0.02260083                0.11255264               -0.00923203
               7.04301310                9.00865300                5.96392403                0.72992704                0.20738987                0.20295403               -0.68541639                0.01780703                0.09192017               -0.01421058
               8.04551026                9.01178824                5.94873421                0.74023920                0.29051198                0.28388448               -0.95905903                0.01119881                0.06187325               -0.01570054
               9.04882334                9.01486959                5.93325898                0.75479864                0.37175296                0.36528821               -1.23091868                0.00462279                0.02975390               -0.01214790
              10.05294532                9.01794374                5.91750961                0.88338550                0.41219791                0.45101016               -1.50873425               -0.00185018                0.01264323               -0.00268531
               0.04563004                9.98226210                6.06956975                0.94171396               -0.32450522               -0.37264124                1.22127413                0.04273390                0.00018304               -0.00188593
               1.04238499                9.98636596                6.05393713                0.87692518               -0.28717274               -0.28182869                0.93531731                0.04802190                0.00920578                0.00841506
               2.03988658                9.99039281                6.03848790                0.86942214               -0.21299121               -0.20089494                0.67378043                0.05006784                0.03485726                0.00888284
               3.03812516                9.99444177                6.02326417                0.86453755               -0.13599791               -0.12000109                0.41053404                0.05339704                0.06549388                0.00684315
               4.03716662                9.99851618                6.00825735                0.86164102               -0.05259745               -0.03953978                0.14201413                0.05530013                0.09053373                0.00288091
               5.03707321               10.00259872                5.99337772                0.86072559                0.03536378                0.04078058               -0.13034532                0.05574621                0.10140960               -0.00188110
               6.03787390               10.00665882                5.97849079                0.86179862                0.12412134                0.12104828               -0.40354601                0.05455966                0.09500726               -0.00650358
               7.03955564               10.01066704                5.96346039                0.86485169                0.20978201                0.20140347               -0.67456255                0.05183768                0.07331991               -0.00998790
               8.04206954               10.01461049                5.94818713                0.86989005                0.29005761                0.28222502               -0.94196736                0.04794464                0.04345313               -0.01114388
               9.04535679               10.01850737                5.93264204                0.87703350                0.36706929                0.36377770               -1.20843618                0.04557643                0.01632693               -0.00898527
              10.04941093               10.02245512                5.91688217                0.94147359                0.40541349                0.45113797               -1.48578233                0.04133600                0.00591578               -0.00221654
               0.06340575                0.01999025                7.08546297                0.94198740               -0.34137913               -0.38697031                1.27576590               -0.04445743                0.00561716               -0.00330840
               1.05999196                0.01593949                7.06709093                0.87756102               -0.30218739               -0.29846513                0.99664812               -0.04553187                0.01596261               -0.00871254
               2.05736201                0.01190309                7.04891892                0.86994723               -0.22384428               -0.21748866                0.72844402               -0.04614230                0.03706268               -0.00693302
               3.05551508                0.00781190                7.03091635                0.86478418               -0.14423905               -0.13636359                0.46154465               -0.04805198                0.05670866               -0.00509544
               4.05447723                0.00367098                7.01304948                0.86172179               -0.06185472               -0.05562622                0.19281944               -0.04906815                0.07145265               -0.00213509
               5.05427798               -0.00050307                6.99525749                0.86074150                0.02268752                0.02504319               -0.07775697               -0.04929614                0.07706734                0.00126987
               6.05493098               -0.00468443                6.97745524                0.86184462                0.10747021                0.10573407               -0.34873036               -0.04864923                0.07163383                0.00455129
               7.05642739               -0.00884933                6.95955679                0.86503011                0.19046521                0.18654598               -0.61858471               -0.04721358                0.05657630                0.00713359
               8.05874028               -0.01298746                6.94149732                0.87031486                0.27069836                0.26775978               -0.88700322               -0.04510908                0.03609299                0.00841114
               9.06184135               -0.01711001                6.92324719                0.87779178                0.34930842                0.34931147               -1.15611296               -0.04427451                0.01574451                0.00796017
              10.06572645               -0.02129027                6.90481677                0.94196987                0.38850946                0.43625301               -1.43178991               -0.04088579                0.00656858                0.00437396
               0.06701194                1.01612055                7.08492885                0.88395390               -0.34317174               -0.38623395                1.28355534               -0.00112720                0.00985753               -0.00573135
               1.06358022                1.01295484                7.06655276                0.75493636               -0.30237826               -0.29895583                1.00377383               -0.00649742                0.02559407               -0.01561881
               2.06096438                1.00972820                7.04844964                0.73963944               -0.22148052               -0.21786608                0.73214526               -0.01308352                0.04968903               -0.01505853
               3.05915061                1.00644827                7.03050167                0.72944488               -0.14101730               -0.13656331                0.46156170               -0.01793577                0.06773956               -0.01115118
               4.05814403                1.00311472                7.01268531                0.72340691               -0.05939437               -0.05514877                0.18917271               -0.02114378                0.08145378               -0.00470963
               5.05796273                0.99974736                6.99494016                0.72148050                0.02367907                0.02637338               -0.08500298               -0.02192803                0.08685160                0.00288525
               6.05861761                0.99637291                6.97718628                0.72366242                0.10720195                0.10787767               -0.35963226               -0.02012677                0.08234371                0.01017571
               7.06010677                0.99301613                6.95934234                0.72995158                0.19009592                0.18925549               -0.63331225               -0.01599258                0.06879336                0.01571226
               8.06241953                0.98969014                6.94134267                0.74038439                0.27216236                0.27057616               -0.90564770               -0.01053325                0.04899993                0.01811611
               9.06555001                0.98638311                6.92314801                0.75512924                0.35391611                0.35234676               -1.17829991               -0.00488191                0.02572199                0.01631879
              10.06949785                0.98307226                6.90473218                0.88360507                0.39478395                0.43807068               -1.45496005                0.00151747                0.01204352                0.00934098
               0.06971463                2.01226557                7.08433307                0.88397787               -0.34602720               -0.38308430                1.28692796               -0.00256817                0.00954906               -0.00585773
               1.06625436                2.00996037                7.06588597                0.75486274               -0.30538617               -0.29923698                1.00934624               -0.01042663                0.03279660               -0.01880470
               2.06360691                2.00754577                7.04782344                0.73948542               -0.22422540               -0.21793927                0.73688266               -0.02084892                0.06723962               -0.01982817
               3.06176985                2.00508064                7.02996826                0.72938447               -0.14258259               -0.13631666                0.46324305               -0.02766874                0.09081943               -0.01489639
               4.06075525                2.00256800                7.01227057                0.72339808               -0.05943104               -0.05393315                0.18652495               -0.03226583                0.10742193               -0.00623718
               5.06058123                2.00002440                6.99465607                0.72149391                0.02522070                0.02885178               -0.09256867               -0.03339375                0.11373658                0.00412605
               6.06125967                1.99747312                6.97703115                0.72366890                0.11045388                0.11155078               -0.37212379               -0.03066720                0.10814466                0.01400913
               7.06279031                1.99493578                6.95930066                0.72991645                0.19514864                0.19371874               -0.65012933               -0.02460676                0.09127329                0.02124772
               8.06516264                1.99242406                6.94138288                0.74025454                0.27856421                0.27520517               -0.92542422               -0.01654275                0.06551894                0.02387915
               9.06836159                1.98993693                6.92321886                0.75479993                0.36079244                0.35679443               -1.19865037               -0.00796918                0.03390783                0.02039265
              10.07237849                1.98747114                6.90476697                0.88332098                0.40168990                0.43979336               -1.47289288               -0.00045179                0.01455036                0.01015739
               0.07157098                3.00845886                7.08378183                0.88418285               -0.34794829               -0.37794663                1.28671501               -0.00291447                0.01190042               -0.00103026
               1.06809149                3.00697010                7.06528455                0.75525052               -0.30719219               -0.29810693                1.01136866               -0.00979317                0.04039225               -0.01186552
               2.06542713                3.00536942                7.04724923                0.73976646               -0.22582445               -0.21695728                0.73835239               -0.01876150                0.08238532               -0.01330386
               3.06357501                3.00372193                7.02946759                0.72953815               -0.14360905               -0.13512508                0.46277409               -0.02387276                0.11091512               -0.01023241
               4.06255495                3.00203605                7.01187100                0.72345755               -0.05926363               -0.05234804                0.18307608               -0.02721161                0.13034830               -0.00415590
               5.06238973                3.00032440                6.99436943                0.72152389                0.02689646                0.03096873               -0.09952024               -0.02792419                0.13748308                0.00324272
               6.06309288                2.99860392                6.97685523                0.72374325                0.11369782                0.11414650               -0.38256007               -0.02567414                0.13071179                0.01018491
               7.06466369                2.99689051                6.95921914                0.73009907                0.19973245                0.19655970               -0.66343510               -0.02086546                0.11058887                0.01490394
               8.06708753                2.99519424                6.94136455                0.74057654                0.28399285                0.27794850               -0.94033116               -0.01445183                0.07960595                0.01581957
               9.07034355                2.99351900                6.92321816                0.75523064                0.36664258                0.35855245               -1.21332635               -0.00724212                0.04140826                0.01175314
              10.07442038                2.99186813                6.90472961                0.88354775                0.40768360                0.43872244               -1.48542484               -0.00087017                0.01775023                0.00206846
               0.07263387                4.00470664                7.08331703                0.88428309               -0.34859302               -0.37312638                1.28359939               -0.00246881                0.01366631                0.00272210
               1.06914794                4.00399823                7.06477754                0.75545315               -0.30770135               -0.29607632                1.00967281               -0.00654401                0.04593996               -0.00477640
               2.06647984                4.00320662                7.04675968                0.73992255               -0.22610885               -0.21540303                0.73644242               -0.01223389                0.09311861               -0.00608056
               3.06462576                4.00237813                7.02902499                0.72962741               -0.14356412               -0.13352914                0.45992237               -0.01506899                0.12483304               -0.00481735
               4.06360856                4.00152104                7.01149615                0.72349463               -0.05854434               -0.05063104                0.17865743               -0.01677133                0.14629398               -0.00179490
               5.06345487                4.00064377                6.99407184                0.72154546                0.02857582                0.03281627               -0.10585668               -0.01700529                0.15402836                0.00197509
               6.06418008                3.99975605                6.97663301                0.72379279                0.11639039                0.11607610               -0.39079029               -0.01559736                0.14634889                0.00538469
               7.06578268                3.99886698                6.95905899                0.73021274                0.20325212                0.19844119               -0.67310442               -0.01275396                0.12382663                0.00732898
               8.06824512                3.99798303                6.94124206                0.74076757                0.28800892                0.27948246               -0.95056516               -0.00894165                0.08915910                0.00682193
               9.07154286                3.99710798                6.92309949                0.75547270                0.37088521                0.35908192               -1.22298235               -0.00454334                0.04643628                0.00312224
              10.07566282                3.99624559                6.90457523                0.88366912                0.41199615                0.43713999               -1.49341755               -0.00048809                0.01994563               -0.00419023
               0.07293841                5.00099633                7.08293388                0.88430798               -0.34777824               -0.37023215                1.27896775               -0.00162409                0.01458561                0.00378298
               1.06946063                5.00104857                7.06437097                0.75550714               -0.30679291               -0.29418038                1.00533459               -0.00203442                0.04864188                0.00107456
               2.06680255                5.00106136                7.04635985                0.73996572               -0.22507114               -0.21374063                0.73195016               -0.00346884                0.09824159                0.00028040
               3.06495921                5.00105135                7.02864607                0.72965213               -0.14243329               -0.13186551                0.45514768               -0.00383850                0.13136095                0.00014879
               4.06395389                5.00102343                7.01114831                0.72350517               -0.05722947               -0.04891965                0.17341905               -0.00387573                0.15373771                0.00036064
               5.06381462                5.00098072                6.99375987                0.72155376                0.03019204                0.03455112               -0.11167821               -0.00368341                0.16174822                0.00063319
               6.06455773                5.00092545                6.97635565                0.72381326                0.11835056                0.11779437               -0.39717696               -0.00328606                0.15362227                0.00067750
               7.06618163                5.00085933                6.95880879                0.73025718                0.20549846                0.20007178               -0.67986707               -0.00270356                0.12994004                0.00020417
               8.06866770                5.00078389                6.94100575                0.74083969                0.29042445                0.28088296               -0.95736881               -0.00195225                0.09351113               -0.00105997
               9.07199012                5.00070063                6.92285918                0.75556273                0.37338444                0.36001215               -1.22943592               -0.00104114                0.04867465               -0.00335557
              10.07613539                5.00061093                6.90431111                0.88371431                0.41452692                0.43726851               -1.49926776                0.00029031                0.02095689               -0.00680864
               0.07249691                5.99730200                7.08262155                0.88427173               -0.34546858               -0.36994069                1.27350727               -0.00079424                0.01456075                0.00392587
               1.06904223                5.99811463                7.06405745                0.75543190               -0.30446133               -0.29297338                0.99892634                0.00245570                0.04833928                0.00603785
               2.06640768                5.99893181                7.04604427                0.73990498               -0.22276544               -0.21227100                0.72534400                0.00526039                0.09758974                0.00589789
               3.06458692                5.99974082                7.02832754                0.72961489               -0.14030064               -0.13026193                0.44874909                0.00726903                0.13039597                0.00457741
               4.06360167                6.00054265                7.01082581                0.72348854               -0.05538625               -0.04725172                0.16748896                0.00877184                0.15257498                0.00222827
               5.06347919                6.00133479                6.99343269                0.72154724                0.03170363                0.03624289               -0.11702198                0.00930749                0.16053429               -0.00072765
               6.06423574                6.00211194                6.97602328                0.72380402                0.11954879                0.11949565               -0.40193459                0.00867223                0.15248823               -0.00376000
               7.06587017                6.00286841                6.95847080                0.73023497                0.20645129                0.20180054               -0.68415330                0.00701185                0.12900094               -0.00633514
               8.06836477                6.00360069                6.94066182                0.74080215                0.29124154                0.28271406               -0.96143460                0.00473890                0.09284962               -0.00801109
               9.07169500                6.00430822                6.92250893                0.75552081                0.37416349                0.36213595               -1.23367498                0.00225870                0.04831082               -0.00856501
              10.07584804                6.00499096                6.90395403                0.88369802                0.41530418                0.44012188               -1.50417376                0.00098461                0.02090451               -0.00804489
               0.07129727                6.99359752                7.08237356                0.88416158               -0.34173389               -0.37155621                1.26666459               -0.00037082                0.01374103                0.00514962
               1.06787993                6.99518910                7.06382743                0.75521040               -0.30078526               -0.29202053                0.99001581                0.00574823                0.04535784                0.01081339
               2.06528156                6.99681594                7.04580382                0.73973292               -0.21930897               -0.21066226                0.71634149                0.01178767                0.09174102                0.01101655
               3.06349375                6.99844611                7.02806230                0.72951392               -0.13731040               -0.12849576                0.44059491                0.01570062                0.12271155                0.00845402
               4.06253535                7.00007840                7.01052518                0.72344562               -0.05311360               -0.04553675                0.16085486                0.01842727                0.14375814                0.00376614
               5.06243148                7.00170558                6.99309148                0.72152743                0.03311000                0.03782965               -0.12181664                0.01920520                0.15142035               -0.00202070
               6.06319755                7.00331536                6.97564177                0.72376582                0.12008175                0.12097427               -0.40491597                0.01771172                0.14392820               -0.00773354
               7.06483311                7.00489534                6.95805471                0.73014416                0.20625574                0.20330442               -0.68572034                0.01422106                0.12184020               -0.01219711
               8.06732267                7.00643817                6.94022227                0.74064733                0.29059534                0.28454071               -0.96240298                0.00953100                0.08781161               -0.01439890
               9.07064502                7.00794335                6.92206112                0.75533020                0.37334609                0.36488451               -1.23521404                0.00449565                0.04573662               -0.01377118
              10.07478959                7.00941337                6.90351367                0.88360796                0.41445721                0.44484230               -1.50750837                0.00119393                0.02002298               -0.01050147
               0.06930633                7.98987087                7.08218207                0.88394718               -0.33675553               -0.37330347                1.25688808               -0.00060666                0.01246798                0.00731179
               1.06593877                7.99227421                7.06366430                0.75480469               -0.29599490               -0.29004038                0.97739958                0.00680108                0.04044356                0.01435210
               2.06338643                7.99471856                7.04562129                0.73943711               -0.21501515               -0.20811898                0.70417285                0.01401339                0.08205805                0.01437112
               3.06163847                7.99717091                7.02783615                0.72934940               -0.13378404               -0.12610415                0.43035929                0.01880495                0.11019092                0.01072843
               4.06071075                7.99963191                7.01024000                0.72338062               -0.05060676               -0.04358192                0.15346425                0.02203617                0.12967567                0.00454775
               5.06062633                8.00209139                6.99274055                0.72149918                0.03447337                0.03916601               -0.12595394                0.02288145                0.13697678               -0.00285358
               6.06140022                8.00453142                6.97522605                0.72370283                0.12027215                0.12174851               -0.40584966                0.02100251                0.13027838               -0.01007739
               7.06303178                8.00693450                6.95758280                0.72998485                0.20535818                0.20380701               -0.68401457                0.01670856                0.11022928               -0.01571865
               8.06550738                8.00929151                6.93971117                0.74036266                0.28889692                0.28522222               -0.95925313                0.01095230                0.07949548               -0.01852594
               9.06880972                8.01160591                6.92153563                0.75495323                0.37122570                0.36660279               -1.23247751                0.00501329                0.04148591               -0.01775998
              10.07293189                8.01388781                6.90300082                0.88341422                0.41221781                0.44919834               -1.50719615                0.00072831                0.01859416               -0.01379169
               0.06647845                8.98613145                7.08201691                0.88360479               -0.33101913               -0.37319490                1.24262072               -0.00171565                0.01125272                0.00659559
               1.06316826                8.98938830                7.06352640                0.75420185               -0.29066560               -0.28579041                0.95998260                0.00490481                0.03474371                0.01210887
               2.06066514                8.99265356                7.04545529                0.73903472               -0.21058783               -0.20419950                0.68868559                0.01022468                0.07098196                0.01182385
               3.05895650                8.99592403                7.02761729                0.72914151               -0.13047681               -0.12267083                0.41831255                0.01386668                0.09664085                0.00861128
               4.05805560                8.99920676                7.00995706                0.72330639               -0.04834520               -0.04122654                0.14552818                0.01627350                0.11514529                0.00354579
               5.05798960                9.00248890                6.99238988                0.72147160                0.03594454                0.04017140               -0.12949989                0.01684770                0.12231162               -0.00237296
               6.05877449                9.00575033                6.97480868                0.72362868                0.12088028                0.12148110               -0.40505999                0.01545527                0.11615057               -0.00812904
               7.06040720                9.00897148                6.95710460                0.72977864                0.20479082                0.20269368               -0.67934497                0.01223084                0.09759142               -0.01269279
               8.06287031                9.01214261                6.93918527                0.73996707                0.28708894                0.28393656               -0.95174656                0.00789182                0.06981648               -0.01509226
               9.06614898                9.01527541                6.92098540                0.75437891                0.36850257                0.36568082               -1.22412218                0.00355037                0.03629352               -0.01471482
              10.07024036                9.01839733                6.90245710                0.88309435                0.40913777                0.45097034               -1.50108841               -0.00044900                0.01694375               -0.01199204
               0.06275832                9.98240697                7.08180193                0.94165578               -0.32435628               -0.37244768                1.22260933                0.04313083                0.00967738                0.00489502
               1.05951476                9.98655841                7.06331820                0.87686069               -0.28515670               -0.28298892                0.93937191                0.04603046                0.02930630                0.00796144
               2.05705519                9.99063457                7.04521749                0.86937125               -0.20760795               -0.20189828                0.67249390                0.04695965                0.06305948                0.00754346
               3.05536260                9.99471749                7.02734468                0.86450096               -0.12919214               -0.12065364                0.40645881                0.04925050                0.08910852                0.00541259
               4.05447135                9.99880738                7.00965287                0.86163105               -0.04714420               -0.03993764                0.13791431                0.05044082                0.10853133                0.00212596
               5.05441972               10.00289482                6.99205758                0.86072959                0.03776961                0.04059146               -0.13298505                0.05069529                0.11608439               -0.00166949
               6.05522674               10.00696105                6.97444815                0.86179212                0.12321953                0.12107165               -0.40443689                0.04990281                0.10948238               -0.00535578
               7.05688411               10.01098838                6.95671240                0.86481983                0.20672755                0.20168920               -0.67458586                0.04815019                0.09011192               -0.00830315
               8.05936129               10.01497024                6.93875898                0.86983928                0.28709481                0.28276222               -0.94294250                0.04565585                0.06234731               -0.00991714
               9.06262600               10.01891953                6.92053136                0.87695959                0.36588885                0.36441173               -1.21188810                0.04455137                0.03121473               -0.00980223
              10.06667907               10.02290722                6.90199665                0.94140946                0.40530623                0.45098839               -1.48850461                0.04263984                0.01536112               -0.00859145
               0.08326500                0.02044285                8.09822190                0.94187008               -0.34054946               -0.38565850                1.27389611               -0.04446056                0.01092679               -0.00520038
               1.07985950                0.01636094                8.07706822                0.87741660               -0.30063986               -0.29840871                0.99713751               -0.04424135                0.02640103               -0.00817787
               2.07725220                0.01229370                8.05620049                0.86987056               -0.22095180               -0.21749916                0.72732461               -0.04427497                0.05213536               -0.00584357
               3.07544047                0.00818354                8.03551918                0.86474544               -0.14078240               -0.13638204                0.45917021               -0.04556486                0.07074264               -0.00406506
               4.07443655                0.00403571                8.01496431                0.86171292               -0.05920554               -0.05565916                0.19053906               -0.04618237                0.08296347               -0.00166023
               5.07425636               -0.00013884                7.99447177                0.86074529                0.02354518                0.02496251               -0.07896148               -0.04630172                0.08693598                0.00097537
               6.07490746               -0.00432314                7.97396599                0.86183718                0.10641355                0.10558917               -0.34867840               -0.04586273                0.08159297                0.00350313
               7.07638463               -0.00850173                7.95337147                0.86499262                0.18824855                0.18632997               -0.61787135               -0.04493432                0.06778355                0.00557712
               8.07867243               -0.01266829                7.93262391                0.87023605                0.26856765                0.26743017               -0.88658832               -0.04354530                0.04782380                0.00685242
               9.08175598               -0.01682963                7.91167575                0.87764137                0.34806476                0.34869853               -1.15630455               -0.04336506                0.02434901                0.00710079
              10.08563372               -0.02104196                7.89049458                0.94184986                0.38777419                0.43469744               -1.43034980               -0.04145049                0.01155036                0.00566991
               0.08690230                1.01658627                8.09773201                0.88361102               -0.34106392               -0.38484213                1.27627143               -0.00134148                0.01221370               -0.00779222
               1.08349166                1.01337685                8.07656918                0.75447092               -0.30020773               -0.29865602                0.99910431               -0.00467638                0.03128863               -0.01424449
               2.08089815                1.01011871                8.05574430                0.73937932               -0.21889260               -0.21751580                0.72721287               -0.00917417                0.05875671               -0.01260601
               3.07911381                1.00681972                8.03509018                0.72931532               -0.13811155               -0.13627971                0.45689899               -0.01243119                0.07589567               -0.00895867
               4.07813592                1.00347912                8.01455885                0.72337021               -0.05705253               -0.05506439                0.18615176               -0.01458684                0.08735160               -0.00371056
               5.07797276                1.00011078                7.99408699                0.72147934                0.02471762                0.02616681               -0.08539393               -0.01508297                0.09116618                0.00224857
               6.07863027                0.99673275                7.97360296                0.72362633                0.10675488                0.10737651               -0.35719527               -0.01383762                0.08648654                0.00794967
               7.08010786                0.99336157                7.95303471                0.72982010                0.18853257                0.18853672               -0.62861513               -0.01104048                0.07376825                0.01243975
               8.08240092                0.99000601                7.93231774                0.74011377                0.27006509                0.26973444               -0.89964607               -0.00742263                0.05441967                0.01484499
               9.08550916                0.98665736                7.91139871                0.75465053                0.35153131                0.35132963               -1.17145194               -0.00358764                0.02944083                0.01451417
              10.08943155                0.98330502                7.89022495                0.88325971                0.39223867                0.43618692               -1.44606420                0.00096744                0.01413203                0.01085605
               0.08965700                2.01274601                8.09715604                0.88352815               -0.34234637               -0.38244722                1.27714815               -0.00229853                0.01100216               -0.00917601
               1.08623353                2.01038782                8.07593945                0.75420665               -0.30155742               -0.29893113                1.00140675               -0.00763406                0.03574053               -0.01778242
               2.08362585                2.00794338                8.05514779                0.73909681               -0.22010504               -0.21739521                0.72887260               -0.01497920                0.07071127               -0.01723494
               3.08183143                2.00545794                8.03456088                0.72918659               -0.13860491               -0.13579997                0.45638040               -0.01965805                0.09141637               -0.01241636
               4.08085375                2.00293442                8.01411213                0.72333386               -0.05651860               -0.05375718                0.18257496               -0.02277847                0.10467253               -0.00507531
               5.08070106                2.00038449                7.99372985                0.72147843                0.02630818                0.02851130               -0.09244464               -0.02350806                0.10901391                0.00337864
               6.08137991                1.99782439                7.97333376                0.72360241                0.10947497                0.11071314               -0.36771060               -0.02160481                0.10353933                0.01143457
               7.08289056                1.99526901                7.95284316                0.72971110                0.19241362                0.19258716               -0.64215223               -0.01746036                0.08857834                0.01762747
               8.08522819                1.99272640                7.93218359                0.73984792                0.27473299                0.27407018               -0.91526052               -0.01195954                0.06534402                0.02066122
               9.08838522                1.99019697                7.91128963                0.75412953                0.35647849                0.35579007               -1.18758585               -0.00597247                0.03494723                0.01953444
              10.09235776                1.98768178                7.89009757                0.88287243                0.39725362                0.43847774               -1.46079627               -0.00043617                0.01589648                0.01363937
               0.09157271                3.00893732                8.09660033                0.88368190               -0.34311057               -0.37917357                1.27623076               -0.00245529                0.01272056               -0.00438946
               1.08814161                3.00739823                8.07535118                0.75448911               -0.30221380               -0.29851236                1.00194541               -0.00723301                0.04114284               -0.01181623
               2.08552844                3.00577080                8.05458097                0.73929565               -0.22059975               -0.21690525                0.72885940               -0.01377776                0.08149036               -0.01213537
               3.08372961                3.00410372                8.03404971                0.72929205               -0.13873194               -0.13489001                0.45476196               -0.01741562                0.10573743               -0.00894443
               4.08275380                3.00240397                8.01367520                0.72337155               -0.05584915               -0.05228107                0.17859112               -0.01974813                0.12090846               -0.00354043
               5.08261263                3.00068101                7.99337455                0.72149573                0.02799311                0.03066841               -0.09916282               -0.02021883                0.12574352                0.00278710
               6.08331366                2.99894702                7.97305820                0.72365309                0.11220081                0.11351575               -0.37713295               -0.01862488                0.11939476                0.00874682
               7.08485665                2.99721332                7.95263632                0.72984178                0.19600548                0.19585927               -0.65383019               -0.01525665                0.10217500                0.01309610
               8.08723377                2.99548741                7.93202482                0.74008273                0.27888406                0.27755151               -0.92831489               -0.01073041                0.07535151                0.01473597
               9.09043433                2.99377316                7.91114828                0.75445169                0.36097130                0.35874297               -1.20077322               -0.00548289                0.04034722                0.01278890
              10.09445320                2.99207457                7.88993524                0.88304705                0.40188692                0.43955269               -1.47275713               -0.00060073                0.01820793                0.00661031
               0.09268608                4.00516254                8.09610689                0.88376680               -0.34306860               -0.37607133                1.27329371               -0.00208098                0.01403729                0.00109375
               1.08925539                4.00441757                8.07482692                0.75465115               -0.30206374               -0.29733495                0.99995545               -0.00490287                0.04532438               -0.00478179
               2.08664480                4.00360528                8.05407131                0.73941414               -0.22027209               -0.21593424                0.72656267               -0.00919211                0.08962257               -0.00563990
               3.08484995                4.00276014                8.03357734                0.72935668               -0.13816525               -0.13367571                0.45154935               -0.01132474                0.11627315               -0.00433610
               4.08388150                4.00188880                8.01325533                0.72339583               -0.05481538               -0.05071934                0.17398091               -0.01257783                0.13291064               -0.00161549
               5.08375364                4.00099786                7.99301365                0.72150875                0.02968063                0.03260127               -0.10542517               -0.01274229                0.13813350                0.00167885
               6.08447511                4.00009471                7.97275467                0.72368884                0.11456934                0.11578558               -0.38501719               -0.01171825                0.13109040                0.00468742
               7.08604503                3.99918619                7.95238088                0.72992887                0.19893110                0.19835704               -0.66299924               -0.00965489                0.11212758                0.00658520
               8.08845373                3.99827743                7.93180047                0.74023363                0.28216874                0.28001803               -0.93814698               -0.00684858                0.08263168                0.00663121
               9.09168840                3.99737183                7.91093081                0.75465166                0.36445941                0.36064665               -1.21045636               -0.00352509                0.04424384                0.00421589
              10.09574292                3.99647284                7.88969449                0.88315268                0.40545168                0.44009671               -1.48146326               -0.00025019                0.01993822               -0.00113592
               0.09302103                5.00141589                8.09567877                0.88378953               -0.34202172               -0.37388438                1.26880412               -0.00143701                0.01481141                0.00536952
               1.08960081                5.00145153                8.07437777                0.75469615               -0.30095026               -0.29583311                0.99566927               -0.00161553                0.04760020                0.00209591
               2.08700202                5.00145212                8.05362717                0.73944736               -0.21906063               -0.21453689                0.72210143               -0.00284353                0.09399181                0.00080706
               3.08521960                5.00143020                8.03315096                0.72937424               -0.13687484               -0.13219011                0.44676922               -0.00325475                0.12184932                0.00033155
               4.08426452                5.00138959                8.01285516                0.72340221               -0.05338595               -0.04909351                0.16873520               -0.00336981                0.13922383                0.00029521
               5.08415188                5.00133303                7.99264345                0.72151401                0.03132207                0.03435864               -0.11122152               -0.00325422                0.14464357                0.00037680
               6.08489097                5.00126273                7.97241338                0.72370479                0.11644750                0.11764630               -0.39134544               -0.00293199                0.13722525                0.00027765
               7.08648083                5.00118046                7.95206271                0.72996540                0.20100995                0.20026226               -0.66972061               -0.00242357                0.11733074               -0.00028848
               8.08891117                5.00108777                7.93149507                0.74029484                0.28437952                0.28184951               -0.94502112               -0.00174675                0.08640866               -0.00160555
               9.09216842                5.00098609                7.91062362                0.75473217                0.36675060                0.36221276               -1.21719664               -0.00092209                0.04623425               -0.00395242
              10.09624618                5.00087651                7.88936811                0.88319561                0.40777588                0.44114310               -1.48784249                0.00038096                0.02087196               -0.00753923
               0.09258607                5.99768485                8.09530979                0.88375463               -0.33992108               -0.37295356                1.26308056               -0.00079655                0.01495997                0.00880454
               1.08918686                5.99850091                8.07400000                0.75462901               -0.29884058               -0.29427156                0.98931705                0.00167843                0.04783476                0.00815825
               2.08660926                5.99931454                8.05324601                0.73939616               -0.21697355               -0.21282103                0.71565446                0.00351466                0.09441901                0.00658637
               3.08484739                6.00011634                8.03276897                0.72934392               -0.13489925               -0.13044660                0.44052253                0.00477144                0.12229441                0.00452693
               4.08391127                6.00090693                8.01247372                0.72338960               -0.05159844               -0.04739623                0.16289418                0.00571491                0.13965685                0.00196597
               5.08381542                6.00168504                7.99226298                0.72151039                0.03288886                0.03597161               -0.11655739                0.00605796                0.14506706               -0.00092488
               6.08456905                6.00244763                7.97203335                0.72369972                0.11780466                0.11916673               -0.39617715                0.00566373                0.13763866               -0.00388153
               7.08617151                6.00319144                7.95168159                0.72995036                0.20220552                0.20171532               -0.67414650                0.00462623                0.11771551               -0.00664566
               8.08861316                6.00391442                7.93111025                0.74026705                0.28548596                0.28331213               -0.94923942                0.00319410                0.08671550               -0.00904991
               9.09188123                6.00461608                7.91023136                0.75469817                0.36782784                0.36384502               -1.22149252                0.00157298                0.04638506               -0.01107712
              10.09596972                6.00529570                7.88896387                0.88318053                0.40884861                0.44324623               -1.49255248                0.00097036                0.02104792               -0.01281217
               0.09137298                6.99395682                8.09498979                0.88365789               -0.33682904               -0.37289857                1.25585862               -0.00042403                0.01461605                0.01185269
               1.08800469                6.99556610                8.07368143                0.75444543               -0.29580487               -0.29243242                0.98072788                0.00409398                0.04634812                0.01295396
               2.08545688                6.99719570                8.05291718                0.73926016               -0.21410255               -0.21063423                0.70713738                0.00819940                0.09148890                0.01112284
               3.08372264                6.99882127                8.03242378                0.72926680               -0.13233751               -0.12835416                0.43279280                0.01073455                0.11836492                0.00777638
               4.08281013                7.00044166                8.01210762                0.72335922               -0.04951510               -0.04558835                0.15647022                0.01250052                0.13510001                0.00320564
               5.08273233                7.00205247                7.99187370                0.72149902                0.03438541                0.03742761               -0.12142469                0.01300157                0.14034767               -0.00201409
               6.08349784                7.00364606                7.97162091                0.72367486                0.11871165                0.12028660               -0.39951370                0.01202701                0.13322789               -0.00718893
               7.08510657                7.00521476                7.95124806                0.72988489                0.20262823                0.20261289               -0.67626562                0.00976567                0.11405234               -0.01165188
               8.08755040                7.00675402                7.93065957                0.74015000                0.28560155                0.28424331               -0.95074652                0.00671534                0.08414087               -0.01490560
               9.09081860                7.00826299                7.90976886                0.75454576                0.36779758                0.36530192               -1.22322033                0.00330423                0.04504462               -0.01676945
              10.09490635                7.00974143                7.88849513                0.88310356                0.40877559                0.44599820               -1.49536715                0.00124447                0.02065563               -0.01740127
               0.08935904                7.99022688                8.09470088                0.88349148               -0.33291755               -0.37281292                1.24644666               -0.00047959                0.01410644                0.01363795
               1.08602986                7.99265226                8.07339848                0.75414029               -0.29204843               -0.28967864                0.96947734                0.00484484                0.04389899                0.01498566
               2.08351807                7.99510186                8.05261970                0.73904358               -0.21068749               -0.20768287                0.69636489                0.00963409                0.08658069                0.01306826
               3.08181611                7.99754926                8.03210028                0.72914903               -0.12939907               -0.12579004                0.42358636                0.01273012                0.11185286                0.00910762
               4.08093009                7.99999516                8.01175062                0.72331557               -0.04725319               -0.04360195                0.14950442                0.01483030                0.12769128                0.00364644
               5.08087105                8.00243359                7.99148008                0.72148341                0.03586024                0.03869791               -0.12585044                0.01537702                0.13274117               -0.00253377
               6.08164729                8.00485336                7.97119108                0.72363503                0.11939099                0.12087939               -0.40144751                0.01415136                0.12607962               -0.00859310
               7.08325887                8.00724370                7.95078567                0.72977574                0.20259706                0.20273909               -0.67612571                0.01138485                0.10802141               -0.01372856
               8.08569923                8.00959928                7.93017154                0.73994876                0.28505157                0.28422844               -0.94937153                0.00769034                0.07983407               -0.01732068
               9.08895990                8.01192212                7.90926487                0.75427073                0.36692496                0.36582853               -1.22186658                0.00375808                0.04281275               -0.01920389
              10.09303773                8.01421566                7.88798575                0.88295741                0.40778330                0.44833210               -1.49542731                0.00107679                0.02001851               -0.01991792
               0.08651262                8.98650057                8.09440487                0.88325700               -0.32860157               -0.37184610                1.23440699               -0.00120280                0.01387865                0.01072438
               1.08322661                8.98977253                8.07310551                0.75373179               -0.28800297               -0.28553320                0.95547734                0.00335857                0.04172177                0.01109197
               2.08075256                8.99304204                8.05231471                0.73877312               -0.20713371               -0.20412808                0.68372759                0.00680821                0.08207467                0.00984351
               3.07908393                8.99630547                8.03177123                0.72901102               -0.12650773               -0.12270134                0.41339156                0.00917097                0.10594791                0.00680823
               4.07822241                8.99956962                8.01139201                0.72326924               -0.04511296               -0.04140422                0.14223418                0.01076091                0.12123195                0.00267916
               5.07818167                9.00282643                7.99109051                0.72147011                0.03741747                0.03981732               -0.13001154                0.01112979                0.12622113               -0.00194627
               6.07897076                9.00606365                7.97077102                0.72359174                0.12033361                0.12097038               -0.40255166                0.01022771                0.11984176               -0.00645861
               7.08058835                9.00926954                7.95033713                0.72964502                0.20275138                0.20208374               -0.67448897                0.00815558                0.10253848               -0.01027178
               8.08302579                9.01243859                7.92969928                0.73969229                0.28445190                0.28327193               -0.94568176                0.00541575                0.07577883               -0.01290774
               9.08627738                9.01557957                7.90877653                0.75389351                0.36575121                0.36486462               -1.21741218                0.00265048                0.04068480               -0.01423958
              10.09034081                9.01870807                7.88748784                0.88274489                0.40634261                0.44942640               -1.49221333                0.00034267                0.01959076               -0.01544912
               0.08279106                9.98278996                8.09402193                0.94153672               -0.32355027               -0.37106095                1.21972233                0.04300793                0.01517344                0.00812926
               1.07955556                9.98694160                8.07272456                0.87671543               -0.28348873               -0.28309297                0.94039746                0.04436214                0.04180043                0.00701021
               2.07712129                9.99101929                8.05193778                0.86929491               -0.20418047               -0.20227465                0.67133697                0.04455425                0.08168282                0.00618021
               3.07547195                9.99509523                8.03139335                0.86446225               -0.12484668               -0.12102395                0.40374632                0.04619091                0.10567094                0.00417542
               4.07462435                9.99916708                8.01101564                0.86162205               -0.04361654               -0.04025453                0.13528139                0.04692957                0.12152583                0.00154587
               5.07459962               10.00322993                7.99071801                0.86073316                0.03921870                0.04035090               -0.13436529                0.04707925                0.12673628               -0.00135880
               6.07540873               10.00727277                7.97040206                0.86178442                0.12237130                0.12091225               -0.40432547                0.04656877                0.12001265               -0.00418635
               7.07704704               10.01128537                7.94996868                0.86478188                0.20444005                0.20158257               -0.67364468                0.04546743                0.10208906               -0.00660123
               8.07949753               10.01526472                7.92932828                0.86975945                0.28481889                0.28261369               -0.94227089                0.04387642                0.07516788               -0.00833043
               9.08274342               10.01921941                7.90840427                0.87680775                0.36450215                0.36398476               -1.21185520                0.04357723                0.04070756               -0.00929226
              10.08678757               10.02320419                7.88711208                0.94128904                0.40441490                0.44961162               -1.48641107                0.04315380                0.02104768               -0.01114613
               0.10593164                0.02086602                9.11094089                0.94170750               -0.33902492               -0.38354645                1.26856944               -0.04417690                0.01395976               -0.00587065
               1.10254139                0.01677402                9.08703368                0.87720282               -0.29889422               -0.29753010                0.99471882               -0.04314089                0.03267679               -0.00751676
               2.09995376                0.01269859                9.06346541                0.86976152               -0.21876431               -0.21698041                0.72510005               -0.04279656                0.06168695               -0.00499375
               3.09816611                0.00858859                9.04009975                0.86469700               -0.13849277               -0.13612039                0.45692213               -0.04370711                0.08023551               -0.00333882
               4.09718390                0.00444870                9.01686026                0.86170196               -0.05755402               -0.05560053                0.18888932               -0.04409325                0.09121479               -0.00136426
               5.09701503                0.00028601                8.99367826                0.86074775                0.02396175                0.02482480               -0.07942402               -0.04415941                0.09423345                0.00070175
               6.09766314               -0.00388832                8.97048167                0.86182619                0.10550579                0.10524457               -0.34781616               -0.04386508                0.08886258                0.00267539
               7.09912514               -0.00806426                8.94719936                0.86494294                0.18646714                0.18574982               -0.61601047               -0.04326584                0.07558107                0.00436217
               8.10139248               -0.01223807                8.92376556                0.87012267                0.26662608                0.26654230               -0.88417791               -0.04233872                0.05552044                0.00557309
               9.10445766               -0.01641392                8.90012110                0.87742227                0.34636587                0.34734282               -1.15326013               -0.04258213                0.02972112                0.00617478
              10.10831980               -0.02063761                8.87620977                0.94168611                0.38621336                0.43240053               -1.42510492               -0.04154775                0.01451916                0.00594894
               0.10958187                1.01703056                9.11045428                0.88321837               -0.33881753               -0.38261461                1.26766657               -0.00137322                0.01350119               -0.00809273
               1.10619370                1.01379872                9.08653484                0.75393383               -0.29816852               -0.29756495                0.99357187               -0.00328714                0.03475084               -0.01243724
               2.10361850                1.01052878                9.06299389                0.73909514               -0.21698599               -0.21670921                0.72272326               -0.00626942                0.06479115               -0.01033438
               3.10185398                1.00722739                9.03963965                0.72918577               -0.13621225               -0.13579032                0.45331943               -0.00841789                0.08200876               -0.00713197
               4.10089426                1.00389269                9.01640834                0.72333610               -0.05560211               -0.05492730                0.18409755               -0.00986448                0.09241702               -0.00297288
               5.10074194                1.00053426                8.99323228                0.72147837                0.02526799                0.02591962               -0.08535498               -0.01018582                0.09532423                0.00158717
               6.10139962                0.99716413                8.97004237                0.72359067                0.10627106                0.10674462               -0.35491694               -0.00935059                0.09042444                0.00593422
               7.10286736                0.99379324                8.94677003                0.72968533                0.18721507                0.18754896               -0.62438549               -0.00749347                0.07793583                0.00946840
               8.10514392                0.99042736                8.92334974                0.73981748                0.26821275                0.26841339               -0.89389770               -0.00515764                0.05840801                0.01164646
               9.10823161                0.98705951                8.89971897                0.75410471                0.34920474                0.34959822               -1.16420254               -0.00260350                0.03195015                0.01205958
              10.11212802                0.98368639                8.87581090                0.88286928                0.38964015                0.43356283               -1.43637474                0.00072512                0.01542014                0.01035241
               0.11236786                2.01321373                9.10987603                0.88306000               -0.33904333               -0.38051679                1.26662134               -0.00201058                0.01171430               -0.00964815
               1.10897742                2.01082272                9.08591410                0.75353735               -0.29840786               -0.29762062                0.99345819               -0.00546583                0.03735071               -0.01547142
               2.10639970                2.00836440                9.06240089                0.73872458               -0.21717913               -0.21627991                0.72214710               -0.01050127                0.07294159               -0.01424343
               3.10463384                2.00587279                9.03909586                0.72901007               -0.13599785               -0.13504021                0.45122371               -0.01363525                0.09236820               -0.00999342
               4.10367974                2.00335015                9.01592207                0.72328093               -0.05469845               -0.05353260                0.17989694               -0.01571841                0.10381680               -0.00409888
               5.10353987                2.00080440                8.99280718                0.72146778                0.02687004                0.02810413               -0.09193669               -0.01619564                0.10699020                0.00248032
               6.10421714                1.99824658                8.96967693                0.72354584                0.10860880                0.10969118               -0.36386638               -0.01491457                0.10153196                0.00873941
               7.10571205                1.99568672                8.94645761                0.72952548                0.19029559                0.19107384               -0.63540001               -0.01215848                0.08758676                0.01372115
               8.10802305                1.99313020                8.92307767                0.73945869                0.27172543                0.27223615               -0.90635158               -0.00849961                0.06558397                0.01657836
               9.11114656                1.99057805                8.89946714                0.75345302                0.35287418                0.35370427               -1.17709142               -0.00440486                0.03563667                0.01662510
              10.11508054                1.98803364                8.87555105                0.88241124                0.39339823                0.43585120               -1.44845361               -0.00031006                0.01665558                0.01330531
               0.11432368                3.00942022                9.10930645                0.88316652               -0.33899741               -0.37818285                1.26475222               -0.00205633                0.01297420               -0.00491712
               1.11093371                3.00784631                9.08532345                0.75372944               -0.29826347               -0.29733580                0.99253609               -0.00522271                0.04115332               -0.01011242
               2.10835841                3.00620319                9.06182641                0.73885651               -0.21690908               -0.21583906                0.72074544               -0.00987779                0.08053271               -0.01002164
               3.10659553                3.00452658                9.03856283                0.72907752               -0.13550697               -0.13413117                0.44857882               -0.01238894                0.10245629               -0.00724428
               4.10564827                3.00282204                9.01544282                0.72330250               -0.05369640               -0.05206918                0.17548549               -0.01397576                0.11515558               -0.00287142
               5.10552160                3.00109634                8.99238617                0.72147642                0.02853675                0.03020249               -0.09835594               -0.01428765                0.11860435                0.00212568
               6.10621901                2.99935795                8.96931257                0.72357875                0.11094833                0.11240210               -0.37226517               -0.01320557                0.11252165                0.00683651
               7.10774057                2.99761472                8.94614253                0.72961504                0.19317959                0.19427849               -0.64547807               -0.01092456                0.09704800                0.01040799
               8.11008260                2.99587208                8.92279825                0.73962250                0.27497533                0.27576032               -0.91753145               -0.00781766                0.07261917                0.01207411
               9.11324007                2.99413360                8.89920270                0.75368209                0.35640109                0.35694562               -1.18854608               -0.00407489                0.03947811                0.01116496
              10.11721062                2.99240342                8.87527447                0.88253779                0.39705502                0.43781808               -1.45922039               -0.00033396                0.01831232                0.00708674
               0.11547456                4.00565007                9.10878290                0.88322931               -0.33845572               -0.37597002                1.26154138               -0.00175955                0.01395574                0.00113254
               1.11209000                4.00487600                9.08477664                0.75384574               -0.29763482               -0.29644517                0.98995343               -0.00359644                0.04429065               -0.00366148
               2.10952186                4.00404762                9.06129094                0.73893851               -0.21613985               -0.21501919                0.71784799               -0.00675250                0.08665318               -0.00443754
               3.10776721                4.00319016                9.03805597                0.72912021               -0.13456977               -0.13301124                0.44489443               -0.00830887                0.11035834               -0.00343465
               4.10683047                4.00230877                9.01497577                0.72331675               -0.05245014               -0.05055475                0.17067467               -0.00920565                0.12409848               -0.00130087
               5.10671820                4.00140845                8.99196333                0.72148359                0.03020927                0.03212917               -0.10445987               -0.00932399                0.12779033                0.00127338
               6.10743465                4.00049462                8.96893267                0.72360346                0.11306136                0.11471801               -0.37963556               -0.00860991                0.12119245                0.00362865
               7.10897943                3.99957229                8.94579901                0.72967825                0.19565827                0.19690634               -0.65389072               -0.00716140                0.10447459                0.00515003
               8.11134782                3.99864541                8.92247912                0.73973439                0.27771440                0.27849602               -0.92657570               -0.00514815                0.07812204                0.00527152
               9.11453372                3.99771696                8.89889037                0.75383460                0.35932002                0.35937157               -1.19766650               -0.00268548                0.04246361                0.00348258
              10.11853422                3.99679001                8.87494596                0.88262075                0.40005012                0.43936738               -1.46778975               -0.00003489                0.01965317               -0.00068078
               0.11583663                5.00190082                9.10830996                0.88324574               -0.33723997               -0.37415067                1.25700523               -0.00128550                0.01461249                0.00664939
               1.11246423                5.00191740                9.08428435                0.75387708               -0.29637122               -0.29509362                0.98555942               -0.00126593                0.04622097                0.00300959
               2.10990921                5.00190280                9.06080187                0.73896036               -0.21480126               -0.21370467                0.71328630               -0.00229037                0.09039075                0.00134483
               3.10816821                5.00186636                9.03758146                0.72913070               -0.13316673               -0.13158119                0.44003043               -0.00269852                0.11512573                0.00056936
               4.10724587                5.00181095                9.01452301                0.72331976               -0.05094682               -0.04896292                0.16540257               -0.00285548                0.12946461                0.00030088
               5.10714927                5.00173892                8.99153544                0.72148675                0.03185507                0.03387954               -0.11019285               -0.00279684                0.13330045                0.00020100
               6.10788297                5.00165231                8.96852874                0.72361561                0.11486411                0.11660794               -0.38581384               -0.00254153                0.12638918               -0.00003958
               7.10944655                5.00155284                8.94541438                0.72970690                0.19759980                0.19889328               -0.66042511               -0.00210831                0.10891500               -0.00071294
               8.11183497                5.00144200                8.92210533                0.73978313                0.27976069                0.28048937               -0.93331069               -0.00151620                0.08139055               -0.00211259
               9.11504176                5.00132103                8.89851524                0.75390057                0.36144339                0.36122344               -1.20440136               -0.00079363                0.04421098               -0.00453160
              10.11906384                5.00119076                8.87455426                0.88265706                0.40220717                0.44088466               -1.47432438                0.00046187                0.02048648               -0.00820615
               0.11541569                5.99816706                9.10788316                0.88321599               -0.33529846               -0.37286662                1.25123442               -0.00080858                0.01488271                0.01135120
               1.11206270                5.99897413                9.08384379                0.75382210               -0.29442942               -0.29338463                0.97938135                0.00108731                0.04684428                0.00888993
               2.10952710                5.99977353                9.06035736                0.73891977               -0.21288056               -0.21190502                0.70707305                0.00220956                0.09160221                0.00649263
               3.10780509                6.00055854                9.03713799                0.72910711               -0.13131532               -0.12980141                0.43398314                0.00291921                0.11660701                0.00413225
               4.10690079                6.00132951                9.01408369                0.72331040               -0.04920976               -0.04726662                0.15966612                0.00345327                0.13108383                0.00168477
               5.10682090                6.00208604                8.99110155                0.72148510                0.03345549                0.03546402               -0.11554600                0.00365693                0.13494610               -0.00086702
               6.10756990                6.00282678                8.96809974                0.72361393                0.11633410                0.11807690               -0.39078518                0.00344510                0.12794956               -0.00347909
               7.10914758                6.00355016                8.94498787                0.72969881                0.19897031                0.20026942               -0.66508781                0.00286811                0.11026539               -0.00611665
               8.11154931                6.00425519                8.92167703                0.73976615                0.28107503                0.28183844               -0.93780576                0.00204920                0.08238978               -0.00881080
               9.11476908                6.00494143                8.89807908                0.75387851                0.36273384                0.36267153               -1.20892316                0.00105453                0.04472398               -0.01166909
              10.11880399                6.00560770                8.87410298                0.88264689                0.40349063                0.44263471               -1.47909499                0.00094340                0.02081301               -0.01478976
               0.11420631                6.99444349                9.10749073                0.88313968               -0.33268078               -0.37192512                1.24412070               -0.00049947                0.01488437                0.01492213
               1.11087951                6.99604971                9.08344199                0.75368190               -0.29186620               -0.29121410                0.97138105                0.00282180                0.04645820                0.01305964
               2.10836899                6.99766470                9.05994657                0.73881895               -0.21044485               -0.20955673                0.69921518                0.00548815                0.09082967                0.01014552
               3.10667061                6.99927033                9.03671815                0.72905135               -0.12907792               -0.12764641                0.42678117                0.00702138                0.11547739                0.00665535
               4.10578743                7.00086561                9.01365459                0.72328987               -0.04727352               -0.04545283                0.15348163                0.00809267                0.12972006                0.00262835
               5.10572514                7.00244820                8.99066299                0.72147948                0.03501647                0.03689331               -0.12054140                0.00840163                0.13352080               -0.00169799
               6.10648776                7.00401385                8.96765150                0.72359969                0.11751790                0.11913368               -0.39461298                0.00781698                0.12663104               -0.00600948
               7.10807550                7.00555823                8.94452940                0.72965610                0.19984591                0.20103515               -0.66796395                0.00645401                0.10918823               -0.01002920
               8.11048468                7.00707877                8.92120734                0.73968592                0.28174268                0.28250954               -0.94013855                0.00458882                0.08163264               -0.01361534
               9.11371035                7.00857446                8.89759671                0.75376988                0.36327434                0.36363674               -1.21127471                0.00236853                0.04430147               -0.01682680
              10.11775017                7.01004346                8.87360633                0.88259011                0.40398155                0.44445226               -1.48207751                0.00122544                0.02078969               -0.01981469
               0.11219326                7.99072856                9.10711100                0.88301846               -0.32953305               -0.37093036                1.23544446               -0.00044968                0.01490746                0.01624341
               1.10889793                7.99314985                9.08305385                0.75346415               -0.28885078               -0.28828323                0.96153269                0.00335883                0.04576159                0.01399862
               2.10641624                7.99558240                9.05954859                0.73866751               -0.20766590               -0.20661771                0.68979843                0.00638380                0.08932846                0.01111632
               3.10474461                7.99800561                9.03630788                0.72897077               -0.12657343               -0.12516042                0.41855903                0.00828071                0.11328528                0.00735268
               4.10388477                8.00042045                9.01323009                0.72326213               -0.04519590               -0.04351459                0.14691441                0.00959157                0.12712745                0.00284726
               5.10384069                8.00282391                8.99022354                0.72147248                0.03657210                0.03819157               -0.12525691                0.00994327                0.13084324               -0.00200835
               6.10461622                8.00520945                8.96719710                0.72357723                0.11855267                0.11981654               -0.39751480                0.00919475                0.12414484               -0.00679631
               7.10621175                8.00757086                8.94406029                0.72958680                0.20043217                0.20124030               -0.66932955                0.00750740                0.10713830               -0.01115052
               8.10862486                8.00990538                8.92072374                0.73955307                0.28200077                0.28244778               -0.94051380                0.00525520                0.08019528               -0.01486708
               9.11185176                8.01221416                8.89709830                0.75358333                0.36328195                0.36383768               -1.21148373                0.00275617                0.04353997               -0.01812556
              10.11589050                8.01449674                8.87309227                0.88248886                0.40387378                0.44592837               -1.48308174                0.00122745                0.02073418               -0.02159819
               0.10935474                8.98702488                9.10670505                0.88286275               -0.32618909               -0.36965651                1.22528197               -0.00092026                0.01532629                0.01232169
               1.10609285                8.99028405                9.08263595                0.75319533               -0.28569152               -0.28446756                0.95016173                0.00222291                0.04592454                0.00955270
               2.10364091                8.99353235                9.05912985                0.73849124               -0.20473397               -0.20351752                0.67936458                0.00434492                0.08921549                0.00787429
               3.10199817                8.99676712                9.03588512                0.72888255               -0.12399708               -0.12244186                0.40980517                0.00582638                0.11255651                0.00521503
               4.10116096                8.99999532                9.01280174                0.72323538               -0.04315800               -0.04147075                0.14016777                0.00686669                0.12615841                0.00199421
               5.10113501                9.00321204                8.98978965                0.72146886                0.03818709                0.03943573               -0.12988095                0.00710969                0.12985599               -0.00147135
               6.10192471                9.00641018                8.96675765                0.72355555                0.11973530                0.12028966               -0.40005557                0.00655579                0.12324261               -0.00486900
               7.10352971                9.00958304                8.94361482                0.72950961                0.20108864                0.20111957               -0.66998775                0.00527310                0.10646850               -0.00792220
               8.10594648                9.01272772                8.92027163                0.73939537                0.28222016                0.28201222               -0.93972396                0.00361833                0.07991866               -0.01046153
               9.10917412                9.01585121                8.89663716                0.75334720                0.36315389                0.36320174               -1.21006405                0.00194500                0.04348990               -0.01264873
              10.11320956                9.01896203                8.87261283                0.88235450                0.40354413                0.44695399               -1.48232883                0.00077708                0.02114155               -0.01611783
               0.10565653                9.98333543                9.10619638                0.94137513               -0.32216060               -0.36894549                1.21407187                0.04268619                0.01826810                0.00952646
               1.10243492                9.98746050                9.08212614                0.87650555               -0.28182312               -0.28235468                0.93869442                0.04303842                0.04930273                0.00600170
               2.10002006                9.99151204                9.05864423                0.86918973               -0.20183784               -0.20203029                0.66949971                0.04272958                0.09343406                0.00502329
               3.09839816                9.99555677                9.03541961                0.86441560               -0.12214347               -0.12103493                0.40163334                0.04394948                0.11679272                0.00322616
               4.09757719                9.99959104                9.01235850                0.86161152               -0.04150699               -0.04042831                0.13366930                0.04441561                0.13075566                0.00114528
               5.09756802               10.00361262                8.98937027                0.86073545                0.03995674                0.04005882               -0.13476642                0.04451216                0.13456147               -0.00105764
               6.09837633               10.00761524                8.96636164                0.86177348                0.12158214                0.12050620               -0.40333909                0.04419373                0.12766834               -0.00321224
               7.09999967               10.01159325                8.94323951                0.86473315                0.20263607                0.20102129               -0.67163893                0.04351473                0.11039158               -0.00517072
               8.10242905               10.01554563                8.91991357                0.86964848                0.28283455                0.28179060               -0.93977371                0.04250465                0.08353052               -0.00685305
               9.10565636               10.01947820                8.89629425                0.87659329                0.36276819                0.36269859               -1.20878942                0.04273401                0.04659785               -0.00834303
              10.10968442               10.02343582                8.87226843                0.94112886                0.40280569                0.44737977               -1.48088507                0.04324829                0.02437265               -0.01189048
               0.13135861                0.02129866               10.12359329                0.94151503               -0.33700958               -0.38093939                1.26106114               -0.04378063                0.01565181               -0.00596052
               1.12798852                0.01720828               10.09696260                0.87693938               -0.29693709               -0.29605934                0.99018631               -0.04223504                0.03636728               -0.00688133
               2.12541987                0.01313686               10.07070249                0.86962516               -0.21690934               -0.21603204                0.72181778               -0.04163653                0.06757744               -0.00433731
               3.12365033                0.00903696               10.04465762                0.86463804               -0.13687649               -0.13559923                0.45452560               -0.04230960                0.08648087               -0.00282596
               4.12268234                0.00491226               10.01874210                0.86168794               -0.05653569               -0.05544027                0.18758275               -0.04256065                0.09700423               -0.00117919
               5.12251962                0.00076715                9.99288329                0.86074855                0.02406314                0.02464532               -0.07935050               -0.04260393                0.09956006                0.00047598
               6.12316360               -0.00339103                9.96700967                0.86181105                0.10463728                0.10472060               -0.34627616               -0.04240902                0.09411694                0.00205217
               7.12461236               -0.00755583                9.94105126                0.86488102                0.18487461                0.18485166               -0.61314658               -0.04202445                0.08095356                0.00345004
               8.12686110               -0.01172521                9.91494035                0.86998060                0.26469141                0.26520290               -0.88015076               -0.04139710                0.06053596                0.00457330
               9.12990619               -0.01590187                9.88861055                0.87715392                0.34428367                0.34543771               -1.14787358               -0.04191897                0.03307310                0.00534210
              10.13374677               -0.02012523                9.86199248                0.94149332                0.38405792                0.42960189               -1.41733993               -0.04140324                0.01629006                0.00579364
               0.13501119                1.01748927               10.12308534                0.88279347               -0.33641280               -0.37988955                1.25820320               -0.00133253                0.01417974               -0.00764527
               1.13164707                1.01424768               10.09644061                0.75334299               -0.29610148               -0.29592484                0.98718427               -0.00227768                0.03680314               -0.01070520
               2.12908916                1.01097654               10.07019877                0.73878447               -0.21537644               -0.21554351                0.71810632               -0.00418338                0.06868041               -0.00844393
               3.12733954                1.00768096               10.04415657                0.72904881               -0.13487647               -0.13510271                0.45014413               -0.00556999                0.08637625               -0.00570819
               4.12639163                1.00435785               10.01824080                0.72330075               -0.05471582               -0.05471462                0.18256006               -0.00654613                0.09645739               -0.00244603
               5.12624522                1.00101361                9.99237989                0.72147623                0.02546842                0.02565258               -0.08498351               -0.00676490                0.09892524                0.00101424
               6.12690100                0.99765617                9.96650463                0.72355215                0.10569911                0.10600053               -0.35254481               -0.00622018                0.09381579                0.00430011
               7.12835920                0.99429269                9.94054700                0.72954089                0.18595707                0.18633783               -0.62012633               -0.00500770                0.08123473                0.00704873
               8.13062014                0.99092682                9.91443978                0.73949369                0.26639051                0.26673314               -0.88789923               -0.00354712                0.06127421                0.00893066
               9.13368701                0.98755251                9.88811466                0.75350787                0.34679776                0.34738065               -1.15633271               -0.00188245                0.03363347                0.00968983
              10.13755610                0.98417079                9.86149746                0.88244915                0.38690870                0.43047743               -1.42598815                0.00064233                0.01621773                0.00912370
               0.13781514                2.01370087               10.12248847                0.88258509               -0.33594474               -0.37785811                1.25576208               -0.00175972                0.01204099               -0.00891915
               1.13445569                2.01128978               10.09580861                0.75286055               -0.29561082               -0.29571211                0.98535007               -0.00386177                0.03818822               -0.01296749
               2.13190292                2.00882599               10.06959073                0.73835757               -0.21490351               -0.21481093                0.71596269               -0.00721602                0.07429392               -0.01151640
               3.13015762                2.00633490               10.04358536                0.72884290               -0.13420730               -0.13411205                0.44696434               -0.00926186                0.09327850               -0.00794902
               4.12921877                2.00381796               10.01771006                0.72323340               -0.05358108               -0.05325047                0.17795972               -0.01063828                0.10389481               -0.00334692
               5.12908600                2.00128021                9.99189111                0.72145931                0.02706714                0.02768792               -0.09118347               -0.01096186                0.10646187                0.00165309
               6.12976012                1.99872898                9.96605644                0.72349368                0.10777794                0.10859185               -0.36033313               -0.01012734                0.10096665                0.00639812
               7.13124156                1.99617093                9.94013516                0.72934825                0.18851081                0.18936945               -0.62930448               -0.00833974                0.08746452                0.01027525
               8.13353033                1.99360946                9.91405656                0.73907559                0.26915104                0.27003132               -0.89806319               -0.00596683                0.06596270                0.01273434
               9.13662458                1.99104574                9.88774780                0.75277337                0.34963629                0.35103650               -1.16683918               -0.00322398                0.03609547                0.01330211
              10.14052306                1.98848432                9.86112850                0.88194644                0.38984821                0.43253043               -1.43602771               -0.00015284                0.01708513                0.01149962
               0.13979819                3.00993211               10.12189537                0.88265412               -0.33534776               -0.37595980                1.25299987               -0.00173821                0.01297601               -0.00422480
               1.13644471                3.00833344               10.09520190                0.75298339               -0.29492338               -0.29531685                0.98320027               -0.00371507                0.04085513               -0.00796998
               2.13389972                3.00668032               10.06899588                0.73843975               -0.21411903               -0.21424633                0.71343416               -0.00695509                0.07962510               -0.00782736
               3.13216233                3.00499872               10.04302128                0.72888266               -0.13330771               -0.13310412                0.44351952               -0.00864084                0.10037082               -0.00563277
               4.13123357                3.00329284               10.01718491                0.72324363               -0.05236801               -0.05176859                0.17324682               -0.00970120                0.11178664               -0.00228909
               5.13111497                3.00156737                9.99140744                0.72146216                0.02870834                0.02969295               -0.09731795               -0.00991422                0.11449201                0.00147532
               6.13180773                2.99982801                9.96561290                0.72351399                0.10984794                0.11110670               -0.36786761               -0.00920603                0.10855290                0.00501986
               7.13331193                2.99808008                9.93972676                0.72940775                0.19091301                0.19232109               -0.63804686               -0.00770224                0.09402155                0.00775656
               8.13562599                2.99632745                9.91367419                0.73918654                0.27178731                0.27331606               -0.90764403               -0.00561788                0.07088242                0.00914476
               9.13874767                2.99457324                9.88737736                0.75293103                0.35249533                0.35415933               -1.17671459               -0.00298988                0.03880665                0.00867118
              10.14267590                2.99282140                9.86075083                0.88203479                0.39282252                0.43475556               -1.44552346               -0.00009752                0.01826429                0.00583374
               0.14097771                4.00618168               10.12133772                0.88269622               -0.33445369               -0.37417428                1.24936993               -0.00150840                0.01371410                0.00186494
               1.13763317                4.00538344               10.09462599                0.75305999               -0.29395865               -0.29444330                0.97998425               -0.00260031                0.04321850               -0.00221161
               2.13509854                4.00454107               10.06842827                0.73849201               -0.21304442               -0.21338690                0.70994330               -0.00488052                0.08424801               -0.00307567
               3.13337228                4.00367282               10.04247523                0.72890822               -0.13212138               -0.13195720                0.43940495               -0.00599162                0.10631853               -0.00248413
               4.13245611                4.00278259               10.01666882                0.72325057               -0.05098680               -0.05025824                0.16827795               -0.00662416                0.11848072               -0.00097720
               5.13235255                4.00187406                9.99092445                0.72146538                0.03035879                0.03157380               -0.10324619               -0.00671440                0.12133821                0.00087986
               6.13306328                4.00095111                9.96516196                0.72353052                0.11177622                0.11334273               -0.37473556               -0.00623173                0.11501412                0.00257112
               7.13458807                4.00001735                9.93930306                0.72945219                0.19307660                0.19486290               -0.64571325               -0.00523616                0.09958264                0.00362423
               8.13692482                3.99907578                9.91326896                0.73926653                0.27413813                0.27600807               -0.91584706               -0.00381521                0.07504000                0.00359377
               9.14007083                3.99812893                9.88697748                0.75304222                0.35499901                0.35667561               -1.18508071               -0.00201579                0.04108030                0.00205387
              10.14402480                3.99717943                9.86033869                0.88209645                0.39539617                0.43669845               -1.45358724                0.00014836                0.01929467               -0.00140533
               0.14136449                5.00244862               10.12081887                0.88270592               -0.33311755               -0.37252894                1.24470682               -0.00116700                0.01428097                0.00765311
               1.13803331                5.00244457               10.09408896                0.75307825               -0.29258790               -0.29311840                0.97542062               -0.00098330                0.04487845                0.00378573
               2.13551273                5.00241259               10.06789290                0.73850392               -0.21161711               -0.21206848                0.70523639               -0.00182133                0.08748146                0.00184660
               3.13380097                5.00235958               10.04195157                0.72891292               -0.13064468               -0.13052637                0.43444123               -0.00219975                0.11044114                0.00082357
               4.13289984                5.00228768               10.01616321                0.72325106               -0.04944053               -0.04867693                0.16298362               -0.00237284                0.12310619                0.00034920
               5.13281216                5.00219884                9.99043959                0.72146712                0.03199867                0.03330394               -0.10890273               -0.00235348                0.12607583                0.00008202
               6.13353981                5.00209486                9.96469710                0.72353975                0.11351882                0.11520921               -0.38074328               -0.00215364                0.11948271               -0.00029532
               7.13508254                5.00197734                9.93885421                0.72947428                0.19491487                0.19683643               -0.65201837               -0.00178978                0.10341398               -0.00108270
               8.13743811                5.00184761                9.91282886                0.73930430                0.27605858                0.27802090               -0.92235269               -0.00128272                0.07787754               -0.00257925
               9.14060371                5.00170675                9.88653559                0.75309415                0.35698825                0.35861494               -1.19164820               -0.00066608                0.04260486               -0.00507717
              10.14457787                5.00155536                9.85988162                0.88212558                0.39741645                0.43842020               -1.46004931                0.00053018                0.02002630               -0.00880845
               0.14096246                5.99873110               10.12033448                0.88268182               -0.33129233               -0.37105987                1.23898677               -0.00081880                0.01463527                0.01261314
               1.13764954                5.99952107               10.09358763                0.75303483               -0.29076804               -0.29136696                0.96944275                0.00066499                0.04577532                0.00898210
               2.13514710                6.00029970               10.06738747                0.73847248               -0.20981728               -0.21026027                0.69925268                0.00128968                0.08924107                0.00613485
               3.13345320                6.00106229               10.04144863                0.72889481               -0.12888577               -0.12875438                0.42858206                0.00162763                0.11264610                0.00369612
               4.13256939                6.00180905               10.01566704                0.72324413               -0.04774519               -0.04699205                0.15734421                0.00188541                0.12555636                0.00146231
               5.13249829                6.00254014                9.98995206                0.72146678                0.03361638                0.03488344               -0.11427419                0.00199613                0.12857814               -0.00071633
               6.13324172                6.00325530                9.96421765                0.72354059                0.11506186                0.11668268               -0.38584843                0.00190863                0.12184353               -0.00295295
               7.13479953                6.00395408                9.93837984                0.72947180                0.19640153                0.19822135               -0.65690712                0.00164273                0.10543262               -0.00537006
               8.13716975                6.00463620                9.91235414                0.73929654                0.27751153                0.27936947               -0.92711875                0.00123920                0.07935182               -0.00813231
               9.14034976                6.00530123                9.88605290                0.75308332                0.35842131                0.36002438               -1.19641783                0.00067798                0.04336502               -0.01142930
              10.14433817                6.00594783                9.85938197                0.88212077                0.39884132                0.44002393               -1.46496511                0.00091223                0.02045131               -0.01537846
               0.13976816                6.99502743               10.11987221                0.88262493               -0.32901470               -0.36968334                1.23217736               -0.00056722                0.01488022                0.01610901
               1.13647802                6.99661724               10.09310905                0.75293251               -0.28854278               -0.28914018                0.96206898                0.00189608                0.04617614                0.01235639
               2.13399731                6.99820738               10.06690148                0.73840043               -0.20769234               -0.20793955                0.69203135                0.00353811                0.09001017                0.00891478
               3.13232417                6.99978449               10.04095940                0.72885579               -0.12688055               -0.12664727                0.42186655                0.00437923                0.11351508                0.00556546
               4.13145970                7.00134784               10.01517725                0.72323082               -0.04591636               -0.04520500                0.15137319                0.00497997                0.12646562                0.00215800
               5.13140584                7.00289651                9.98946288                0.72146501                0.03521759                0.03633072               -0.11939123                0.00516459                0.12949200               -0.00130926
               6.13216405                7.00442852                9.96372865                0.72353414                0.11643251                0.11779931               -0.39012723                0.00484918                0.12271779               -0.00478725
               7.13373449                7.00594176                9.93788878                0.72944685                0.19758478                0.19905932               -0.66048614                0.00409720                0.10619423               -0.00826415
               8.13611574                7.00743500                9.91185680                0.73924628                0.27855713                0.28007243               -0.93025914                0.00304277                0.07990152               -0.01183250
               9.13930563                7.00890724                9.88554337                0.75301280                0.35935862                0.36089668               -1.19948770                0.00166236                0.04361570               -0.01571278
              10.14330292                7.01035584                9.85885358                0.88208317                0.39972813                0.44146835               -1.46838987                0.00117501                0.02070068               -0.02008936
               0.13777150                7.99133743               10.11940977                0.88253998               -0.32639932               -0.36829015                1.22428524               -0.00045671                0.01526571                0.01701206
               1.13450751                7.99373827               10.09262913                0.75278224               -0.28604453               -0.28629769                0.95344138                0.00228792                0.04669353                0.01253227
               2.13205061                7.99614091               10.06641567                0.73829774               -0.20535917               -0.20517451                0.68375455                0.00407357                0.09087200                0.00922333
               3.13040032                7.99852935               10.04047146                0.72880248               -0.12468203               -0.12432255                0.41445814                0.00515233                0.11432297                0.00583913
               4.12955697                8.00090495               10.01468890                0.72321432               -0.04397100               -0.04333707                0.14513386                0.00593790                0.12721220                0.00222977
               5.12952090                8.00326676                9.98897494                0.72146376                0.03682390                0.03768787               -0.12433885                0.00616846                0.13022394               -0.00148559
               6.13029345                8.00561128                9.96324079                0.72352395                0.11770434                0.11866030               -0.39380956                0.00574515                0.12345277               -0.00517590
               7.13187499                8.00793527                9.93739908                0.72940666                0.19858401                0.19950584               -0.66307613                0.00478026                0.10690322               -0.00876267
               8.13426513                8.01023765                9.91136127                0.73916435                0.27935872                0.28022642               -0.93209811                0.00349862                0.08047659               -0.01230814
               9.13746216                8.01251916                9.88503519                0.75289435                0.35996690                0.36116980               -1.20110464                0.00199524                0.04390691               -0.01621738
              10.14146446                8.01477720                9.85832412                0.88201790                0.40023001                0.44268611               -1.47044048                0.00127282                0.02106750               -0.02128410
               0.13495735                8.98766162               10.11891051                0.88243873               -0.32370511               -0.36698048                1.21558012               -0.00076437                0.01609587                0.01270462
               1.13172030                8.99089128               10.09210874                0.75260903               -0.28348246               -0.28285177                0.94399927                0.00142648                0.04837820                0.00804588
               2.12928770                8.99410389               10.06590201                0.73818564               -0.20285656               -0.20249523                0.67494106                0.00263272                0.09363628                0.00621477
               3.12766317                8.99729804               10.03996734                0.72874815               -0.12233290               -0.12192847                0.40676959                0.00352074                0.11701450                0.00395891
               4.12684104                9.00048110               10.01419536                0.72320076               -0.04201431               -0.04142403                0.13878465                0.00420296                0.12987962                0.00149474
               5.12682288                9.00365027                9.98849289                0.72146652                0.03846994                0.03903902               -0.12927844                0.00437138                0.13289786               -0.00105262
               6.12761044                9.00680172                9.96276991                0.72351675                0.11904259                0.11946338               -0.39736520                0.00405132                0.12607556               -0.00356732
               7.12920373                9.00993188                9.93693737                0.72936563                0.19956883                0.19986584               -0.66536885                0.00328828                0.10941197               -0.00597143
               8.13160182                9.01303953                9.91090480                0.73907351                0.28011259                0.28030764               -0.93339378                0.00235089                0.08270165               -0.00828886
               9.13480599                9.01613063                9.88457525                0.75275431                0.36052416                0.36096000               -1.20191582                0.00141950                0.04524605               -0.01086359
              10.13881230                9.01920956                9.85784126                0.88193737                0.40063162                0.44389943               -1.47159938                0.00100386                0.02203452               -0.01561392
               0.13129689                9.98399782               10.11830337                0.94118544               -0.32031264               -0.36638001                1.20660111                0.04229567                0.01996972                0.01001699
               1.12809377                9.98808124               10.09149845                0.87624917               -0.28001946               -0.28100464                0.93485483                0.04200581                0.05369989                0.00511355
               2.12569650                9.99209100               10.06532777                0.86905967               -0.20001173               -0.20128897                0.66673469                0.04135750                0.10061906                0.00411122
               3.12409353                9.99609078               10.03942601                0.86435968               -0.12038520               -0.12072628                0.39958335                0.04231006                0.12399557                0.00253260
               4.12328880               10.00007647               10.01368902                0.86159836               -0.04029147               -0.04046238                0.13261502                0.04261377                0.13710684                0.00087866
               5.12328770               10.00404754                9.98802269                0.86073617                0.04020301                0.03972701               -0.13446585                0.04268602                0.14016802               -0.00080549
               6.12409286               10.00800055                9.96233527                0.86175865                0.12076239                0.11988254               -0.40157442                0.04249415                0.13310870               -0.00246294
               7.12570295               10.01193258                9.93653590                0.86467319                0.20102648                0.20007027               -0.66857674                0.04208418                0.11601181               -0.00406036
               8.12811339               10.01584380                9.91053280                0.86951116                0.28087839                0.28042689               -0.93561732                0.04144624                0.08887904               -0.00563108
               9.13132052               10.01973836                9.88422849                0.87633354                0.36066457                0.36077288               -1.20333008                0.04202282                0.05020278               -0.00736086
              10.13532668               10.02365519                9.85749437                0.94094215                0.40061629                0.44456223               -1.47289851                0.04312039                0.02629799               -0.01183789
               0.15950605                0.02176271               11.13616211                0.94130369               -0.33465199               -0.37802369                1.25215591               -0.04334834                0.01657892               -0.00580755
               1.15615953                0.01768036               11.10683741                0.87664268               -0.29478857               -0.29417612                0.98416494               -0.04149133                0.03850887               -0.00633982
               2.15361028                0.01361928               11.07790177                0.86946842               -0.21517101               -0.21476175                0.71763329               -0.04072203                0.07114771               -0.00383834
               3.15185611                0.00953417               11.04919026                0.86457005               -0.13559834               -0.13486839                0.45183827               -0.04124281                0.09050151               -0.00246120
               4.15089831                0.00542771               11.02061192                0.86167092               -0.05587271               -0.05519019                0.18639870               -0.04141376                0.10096823               -0.00105938
               5.15073866                0.00130234               10.99209125                0.86074779                0.02395946                0.02443805               -0.07892016               -0.04144868                0.10335500                0.00030336
               6.15137750               -0.00283719               10.96355615                0.86179216                0.10374357                0.10405520               -0.34418831               -0.04132176                0.09785019                0.00159834
               7.15281353               -0.00698673               10.93493643                0.86480897                0.18332048                0.18370477               -0.60945042               -0.04107728                0.08463110                0.00278441
               8.15504391               -0.01114546               10.90616254                0.86981731                0.26267315                0.26352255               -0.87487285               -0.04064563                0.06381391                0.00382129
               9.15806699               -0.01531530               10.87716363                0.87685252                0.34189079                0.34313580               -1.14081902               -0.04134972                0.03518619                0.00466176
              10.16188173               -0.01953169               10.84786297                0.94128205                0.38147363                0.42645401               -1.40786775               -0.04113365                0.01735996                0.00549794
               0.16315492                1.01798247               11.13561834                0.88234881               -0.33385858               -0.37686966                1.24816000               -0.00127068                0.01452532               -0.00695829
               1.15981633                1.01473860               11.10627853                0.75271559               -0.29393810               -0.29391380                0.98008362               -0.00157059                0.03800927               -0.00924290
               2.15727615                1.01147167               11.07735602                0.73845180               -0.21384298               -0.21411580                0.71315435               -0.00272796                0.07114801               -0.00695899
               3.15553947                1.00818549               11.04864254                0.72890305               -0.13380313               -0.13425387                0.44701035               -0.00359482                0.08940020               -0.00463433
               4.15460009                1.00487581               11.02005955                0.72326274               -0.05414260               -0.05442997                0.18124478               -0.00425998                0.09950924               -0.00206913
               5.15445662                1.00154672               10.99153261                0.72147249                0.02543648                0.02537876               -0.08438146               -0.00441814                0.10181592                0.00056451
               6.15510882                0.99820337               10.96299147                0.72350987                0.10501385                0.10517276               -0.34997811               -0.00407400                0.09654441                0.00305435
               7.15655690                0.99485032               10.93436751                0.72938613                0.18464605                0.18495983               -0.61562437               -0.00329607                0.08375592                0.00519268
               8.15880174                0.99148976               10.90559176                0.73914725                0.26448559                0.26479702               -0.88147889               -0.00242534                0.06332175                0.00678841
               9.16184661                0.98811606               10.87659232                0.75287590                0.34425187                0.34483476               -1.14783675               -0.00136893                0.03477794                0.00768600
              10.16568678                0.98473285               10.84729113                0.88201050                0.38401720                0.42709753               -1.41499492                0.00063528                0.01672078                0.00778546
               0.16596838                2.01422531               11.13499127                0.88210941               -0.33294582               -0.37479973                1.24474455               -0.00156176                0.01217919               -0.00780915
               1.16263892                2.01180208               11.10562111                0.75218111               -0.29297752               -0.29345317                0.97705986               -0.00271862                0.03861918               -0.01073668
               2.16010883                2.00933697               11.07672014                0.73799171               -0.21294251               -0.21312848                0.70993951               -0.00488050                0.07510426               -0.00927072
               3.15838007                2.00684909               11.04803515                0.72867915               -0.13284757               -0.13307173                0.44310464               -0.00617064                0.09402631               -0.00633583
               4.15745188                2.00433911               11.01948126                0.72318801               -0.05286687               -0.05291536                0.17639599               -0.00707079                0.10434089               -0.00278305
               5.15732274                2.00180992               10.99098351                0.72145159                0.02702734                0.02728953               -0.09028916               -0.00730056                0.10664143                0.00098043
               6.15799243                1.99926627               10.96247027                0.72344306                0.10692381                0.10747312               -0.35693740               -0.00677648                0.10110133                0.00453921
               7.15946121                1.99671247               10.93387152                0.72917390                0.18686199                0.18758158               -0.62350870               -0.00564953                0.08774340                0.00750707
               8.16172967                1.99415048               10.90511641                0.73869427                0.26676555                0.26764071               -0.89003137               -0.00415829                0.06637371                0.00952996
               9.16479652                1.99158139               10.87613036                0.75209354                0.34655888                0.34806454               -1.15664658               -0.00236281                0.03642548                0.01028347
              10.16866085                1.98901026               10.84683049                0.88148244                0.38643210                0.42885228               -1.42353485               -0.00000405                0.01733647                0.00937075
               0.16797014                3.01048648               11.13436645                0.88215109               -0.33198379               -0.37307212                1.24125339               -0.00149779                0.01289130               -0.00313520
               1.16465030                3.00886954               11.10498746                0.75225446               -0.29193044               -0.29286854                0.97396150               -0.00262419                0.04050238               -0.00594695
               2.16213153                3.00720910               11.07609510                0.73803899               -0.21181944               -0.21239384                0.70656186               -0.00483688                0.07887571               -0.00590458
               3.16041392                3.00552405               11.04743322                0.72869974               -0.13168396               -0.13194484                0.43907758               -0.00593221                0.09905430               -0.00428014
               4.15949785                3.00381750               11.01890776                0.72319058               -0.05152334               -0.05140955                0.17148447               -0.00662774                0.10986980               -0.00181993
               5.15938345                3.00209251               10.99043981                0.72145064                0.02864439                0.02919876               -0.09618304               -0.00677883                0.11222398                0.00092693
               6.16007074                3.00035283               10.96195522                0.72345478                0.10881250                0.10977829               -0.36379941               -0.00633330                0.10636225                0.00350371
               7.16155970                2.99860195               10.93338160                0.72921251                0.18894538                0.19024299               -0.63121882               -0.00536911                0.09230314                0.00549678
               8.16384965                2.99684257               10.90464537                0.73876807                0.26899337                0.27060708               -0.89835600               -0.00400328                0.06981833                0.00651699
               9.16693957                2.99507735               10.87566840                0.75220005                0.34896568                0.35092084               -1.16522974               -0.00218077                0.03833539                0.00617205
              10.17082896                2.99330990               10.84636400                0.88154285                0.38893967                0.43104238               -1.43191062                0.00009655                0.01817505                0.00406138
               0.16917231                4.00676387               11.13377030                0.88217670               -0.33084886               -0.37146773                1.23721208               -0.00131948                0.01345770                0.00278696
               1.16586382                4.00594471               11.10437633                0.75230051               -0.29073659               -0.29190312                0.97019047               -0.00186557                0.04230981               -0.00081716
               2.16335758                4.00508909               11.07548980                0.73806913               -0.21053967               -0.21142798                0.70257306               -0.00349094                0.08242053               -0.00182776
               3.16165303                4.00421020               11.04684407                0.72871290               -0.13033546               -0.13073097                0.43462168               -0.00426869                0.10360166               -0.00163835
               4.16075087                4.00331092               11.01834133                0.72319243               -0.05005969               -0.04988952                0.16640668               -0.00470972                0.11496719               -0.00069021
               5.16065183                4.00239389               10.98989841                0.72145125                0.03027289                0.03102203               -0.10194919               -0.00478203                0.11741765                0.00054843
               6.16135633                4.00146183               10.96143796                0.72346554                0.11061260                0.11189436               -0.37024116               -0.00446488                0.11125872                0.00166034
               7.16286408                4.00051733               10.93288474                0.72924327                0.19089395                0.19262319               -0.63824942               -0.00379213                0.09652586                0.00226655
               8.16517420                3.99956262               10.90416218                0.73882425                0.27107517                0.27313301               -0.90581052               -0.00280125                0.07298760                0.00200463
               9.16828559                3.99859981               10.87518875                0.75227928                0.35117366                0.35333574               -1.17285875               -0.00149893                0.04007239                0.00052057
              10.17219768                3.99763111               10.84587422                0.88158741                0.39120894                0.43307122               -1.43937668                0.00029633                0.01896844               -0.00252624
               0.16958207                5.00305712               11.13320410                0.88218071               -0.32942969               -0.36989423                1.23240842               -0.00107549                0.01395864                0.00842335
               1.16628777                5.00303147               11.10379277                0.75230822               -0.28929204               -0.29055149                0.96545641               -0.00075907                0.04376578                0.00442061
               2.16379623                5.00298054               11.07490660                0.73807338               -0.20905301               -0.21007247                0.69772590               -0.00143466                0.08526821                0.00228642
               3.16210671                5.00290943               11.04627028                0.72871330               -0.12881320               -0.12927879                0.42957158               -0.00177055                0.10723231                0.00106699
               4.16121997                5.00281971               11.01778269                0.72319114               -0.04849104               -0.04831013                0.16110191               -0.00194292                0.11903634                0.00041732
               5.16113689                5.00271295               10.98935738                0.72145203                0.03190219                0.03272713               -0.10752836               -0.00194875                0.12158000                0.00000055
               6.16185801                5.00259072               10.96091388                0.72347264                0.11230907                0.11371686               -0.37608790               -0.00179338                0.11518114               -0.00050459
               7.16338307                5.00245441               10.93237401                0.72926038                0.19265654                0.19454314               -0.64433200               -0.00149089                0.09988776               -0.00140361
               8.16571114                5.00230524               10.90365828                0.73885343                0.27290112                0.27509943               -0.91206853               -0.00106355                0.07547705               -0.00299714
               9.16884110                5.00214406               10.87468228                0.75231973                0.35305760                0.35526264               -1.17919618               -0.00054776                0.04140765               -0.00556899
              10.17277229                5.00197132               10.84535327                0.88161040                0.39311959                0.43485309               -1.44566046                0.00058583                0.01961097               -0.00933509
               0.16920210                5.99936599               11.13266290                0.88216144               -0.32768735               -0.36833683                1.22677444               -0.00082246                0.01436929                0.01319951
               1.16592522                6.00013368               11.10323265                0.75227412               -0.28755869               -0.28880669                0.95966309                0.00038175                0.04484851                0.00882995
               2.16345092                6.00088764               11.07434242                0.73804897               -0.20733899               -0.20828697                0.69193862                0.00067745                0.08739686                0.00575015
               3.16177844                6.00162462               11.04570963                0.72869927               -0.12712160               -0.12753099                0.42387105                0.00077521                0.10992182                0.00332965
               4.16090849                6.00234472               11.01723058                0.72318595               -0.04682951               -0.04664000                0.15554726                0.00085591                0.12204218                0.00130718
               5.16084185                6.00304843               10.98881606                0.72145255                0.03352539                0.03430953               -0.11290722                0.00090708                0.12465451               -0.00055568
               6.16157900                6.00373617               10.96038277                0.72347522                0.11389473                0.11521280               -0.38129255                0.00089805                0.11807504               -0.00247569
               7.16311975                6.00440819               10.93184973                0.72926198                0.19421433                0.19596492               -0.64939445                0.00082948                0.10234960               -0.00467768
               8.16546328                6.00506461               10.90313465                0.73885261                0.27444003                0.27648761               -0.91704784                0.00069250                0.07726539               -0.00741266
               9.16860855                6.00570506               10.87415072                0.75231778                0.35457958                0.35669245               -1.18417098                0.00041750                0.04233128               -0.01092627
              10.17255488                6.00632817               10.84480368                0.88161006                0.39463283                0.43641018               -1.45071933                0.00088381                0.02009881               -0.01536047
               0.16803023                6.99569038               11.13213428                0.88212018               -0.32564753               -0.36677433                1.22031099               -0.00061711                0.01478020                0.01639210
               1.16477375                6.99725534               11.10268337                0.75220109               -0.28556947               -0.28664397                0.95284706                0.00125429                0.04579518                0.01145519
               2.16231884                6.99881480               11.07378720                0.73799837               -0.20543057               -0.20606513                0.68525592                0.00219544                0.08923295                0.00778656
               3.16066514                7.00035881               11.04515548                0.72867243               -0.12527841               -0.12550799                0.41755648                0.00257517                0.11216804                0.00466826
               4.15981327                7.00188691               11.01668205                0.72317768               -0.04507819               -0.04488899                0.14975280                0.00286880                0.12450964                0.00180906
               5.15976358                7.00339914               10.98827516                0.72145331                0.03514721                0.03578760               -0.11811448                0.00297489                0.12716720               -0.00095573
               6.16051622                7.00489497               10.95984895                0.72347419                0.11538256                0.11642517               -0.38592318                0.00283510                0.12044956               -0.00375043
               7.16207123                7.00637371               10.93131968                0.72924985                0.19559504                0.19694113               -0.65353335                0.00247994                0.10437802               -0.00673261
               8.16442812                7.00783499               10.90260215                0.73882452                0.27573261                0.27733086               -0.92085670                0.00195941                0.07872915               -0.01014549
               9.16758588                7.00927791               10.87360696                0.75227653                0.35578182                0.35764365               -1.18788531                0.00115184                0.04306252               -0.01432316
              10.17154375                7.01069952               10.84423853                0.88158782                0.39578711                0.43776051               -1.45462827                0.00111775                0.02054411               -0.01950262
               0.16605985                7.99203050               11.13159671                0.88206190               -0.32339503               -0.36525069                1.21311360               -0.00047229                0.01540530                0.01695829
               1.16282590                7.99440080               11.10212267                0.75209933               -0.28342449               -0.28398498                0.94519553                0.00154968                0.04713201                0.01110869
               2.16039136                7.99676634               11.07322368                0.73793004               -0.20340309               -0.20351302                0.67786999                0.00249284                0.09169166                0.00764879
               3.15875783                7.99911446               11.04459704                0.72863809               -0.12329094               -0.12335352                0.41077743                0.00302770                0.11500128                0.00465804
               4.15792554                8.00144694               11.01613276                0.72316883               -0.04322722               -0.04309062                0.14377154                0.00347279                0.12750315                0.00178104
               5.15789329                8.00376419               10.98773677                0.72145581                0.03677977                0.03720453               -0.12322367                0.00362882                0.13018832               -0.00104820
               6.15866113                8.00606468               10.95932090                0.72347229                0.11680204                0.11746884               -0.39017713                0.00341709                0.12334968               -0.00388329
               7.16022933                8.00834701               10.93079876                0.72922973                0.19685705                0.19765384               -0.65703573                0.00291881                0.10695365               -0.00682603
               8.16259827                8.01061122               10.90208178                0.73877822                0.27688591                0.27777100               -0.92381537                0.00227199                0.08068507               -0.01010733
               9.16576705                8.01285794               10.87307621                0.75220675                0.35678651                0.35813702               -1.19063451                0.00144232                0.04409039               -0.01428443
              10.16973400                8.01508338               10.84368346                0.88154889                0.39669555                0.43899827               -1.45760751                0.00126783                0.02120928               -0.02025772
               0.16328018                8.98838537               11.13101665                0.88199676               -0.32112682               -0.36402303                1.20548730               -0.00067779                0.01649020                0.01256679
               1.16006891                8.99157564               11.10151593                0.75198909               -0.28125695               -0.28087265                0.93712492                0.00088920                0.04978705                0.00678218
               2.15765504                8.99474454               11.07262867                0.73786011               -0.20119052               -0.20118044                0.67021218                0.00148169                0.09630468                0.00492834
               3.15604510                8.99789174               11.04402051                0.72860601               -0.12110175               -0.12121956                0.40385513                0.00197770                0.11990532                0.00302628
               4.15523300                9.00102510               11.01557743                0.72316389               -0.04133412               -0.04128241                0.13772147                0.00243056                0.13252617                0.00114380
               5.15521842                9.00414323               10.98720408                0.72146266                0.03843645                0.03863658               -0.12835922                0.00255472                0.13523302               -0.00072258
               6.15600173                9.00724435               10.95881035                0.72347443                0.11823211                0.11852890               -0.39441333                0.00238565                0.12825616               -0.00258154
               7.15758306                9.01032679               10.93030744                0.72921219                0.19804499                0.19839902               -0.66044248                0.00195511                0.11152634               -0.00447767
               8.15996263                9.01339041               10.90160376                0.73873088                0.27797563                0.27828878               -0.92655152                0.00148173                0.08454254               -0.00655548
               9.16314257                9.01644065               10.87259884                0.75212952                0.35777939                0.35832892               -1.19301704                0.00104385                0.04634410               -0.00927874
              10.16711822                9.01947949               10.84318084                0.88150383                0.39756488                0.44047322               -1.46016601                0.00111346                0.02254556               -0.01474686
               0.15966575                9.98475004               11.13032840                0.94097806               -0.31812405               -0.36353312                1.19792187                0.04188862                0.02088456                0.01009385
               1.15648451                9.98878335               11.10082324                0.87596166               -0.27804340               -0.27922887                0.92945447                0.04119486                0.05623752                0.00440455
               2.15410489                9.99274273               11.07197892                0.86891091               -0.19838430               -0.20018071                0.66308284                0.04032066                0.10491396                0.00342866
               3.15251683                9.99669007               11.04341127                0.86429562               -0.11911136               -0.12016730                0.39732743                0.04110070                0.12851906                0.00204125
               4.15172266               10.00062129               11.01501080                0.86158251               -0.03958468               -0.04038091                0.13179731                0.04130776                0.14132648                0.00070376
               5.15172513               10.00453692               10.98668096                0.86073541                0.04013169                0.03936836               -0.13369811                0.04136987                0.14404294               -0.00061165
               6.15252529               10.00843525               10.95833015                0.86174028                0.11986199                0.11909051               -0.39916626                0.04125958                0.13685968               -0.00191594
               7.15412237               10.01231499               10.92986797                0.86460382                0.19943767                0.19882040               -0.66459136                0.04101865                0.11974010               -0.00324277
               8.15651405               10.01617700               10.90120122                0.86935421                0.27882351                0.27865912               -0.93010334                0.04061735                0.09226087               -0.00469352
               9.15969884               10.02002451               10.87222765                0.87604335                0.35822751                0.35838632               -1.19607812                0.04141947                0.05240176               -0.00651918
              10.16367860               10.02389284               10.84281045                0.94073859                0.39797521                0.44133554               -1.46314981                0.04287059                0.02740932               -0.01150575
               0.19033960                0.02227006               12.14863640                0.94108105               -0.33205648               -0.37491125                1.24234045               -0.04291032                0.01708121               -0.00558199
               1.18701904                0.01819923               12.11664590                0.87632510               -0.29248169               -0.29201083                0.97711365               -0.04086966                0.03974791               -0.00591069
               2.18448997                0.01415159               12.08505516                0.86929780               -0.21344130               -0.21326061                0.71273349               -0.03998747                0.07329459               -0.00346550
               3.18275021                0.01008319               12.05369439                0.86449532               -0.13446250               -0.13397970                0.44882679               -0.04040904                0.09305243               -0.00220011
               4.18180072                0.00599581               12.02247007                0.86165147               -0.05538641               -0.05486835                0.18520791               -0.04053123                0.10362703               -0.00097768
               5.18164248                0.00189050               11.99130489                0.86074577                0.02373524                0.02421352               -0.07827056               -0.04056396                0.10599749                0.00017893
               6.18227542               -0.00222972               11.96012590                0.86177039                0.10280520                0.10328575               -0.34168532               -0.04048299                0.10045987                0.00127674
               7.18369859               -0.00636229               11.92886226                0.86472951                0.18173745                0.18237425               -0.60510539               -0.04032995                0.08713906                0.00231003
               8.18591017               -0.01050722               11.89744289                0.86963963                0.26054477                0.26159409               -0.86866314               -0.04002610                0.06597372                0.00327272
               9.18890948               -0.01466601               11.86579417                0.87653030                0.33925561                0.34055046               -1.13258745               -0.04084763                0.03654106                0.00413857
              10.19269529               -0.01887160               11.83383513                0.94105964                0.37858017                0.42305709               -1.39721599               -0.04079949                0.01802071                0.00519769
               0.19398132                1.01852094               12.14804854                0.88189297               -0.33117503               -0.37367361                1.23770648               -0.00120932                0.01469679               -0.00627046
               1.19066957                1.01527913               12.11604229                0.75206547               -0.29166023               -0.29165591                0.97242808               -0.00108959                0.03872491               -0.00809284
               2.18814812                1.01201899               12.08446186                0.73810344               -0.21227790               -0.21250467                0.70783291               -0.00173730                0.07271074               -0.00583528
               3.18642402                1.00874339               12.05309678                0.72874982               -0.13281852               -0.13328407                0.44375575               -0.00225244                0.09145435               -0.00384024
               4.18549175                1.00544712               12.02186570                0.72322208               -0.05372026               -0.05408603                0.17998507               -0.00271169                0.10172834               -0.00179557
               5.18534961                1.00213264               11.99069226                0.72146726                0.02526216                0.02510529               -0.08363377               -0.00283286                0.10401834                0.00023450
               6.18599699                0.99880314               11.95950506                0.72346425                0.10422129                0.10428692               -0.34720622               -0.00262417                0.09863926                0.00214350
               7.18743404                0.99546145               11.92823451                0.72922302                0.18323889                0.18346365               -0.61082577               -0.00213560                0.08563662                0.00382451
               8.18966177                0.99210872               11.89681021                0.73878470                0.26245813                0.26268311               -0.87462285               -0.00165782                0.06478469                0.00517631
               9.19268320                0.98873950               11.86515793                0.75222186                0.34155563                0.34206668               -1.13878637               -0.00101170                0.03557018                0.00611126
              10.19649288                0.98535897               11.83319756                0.88156116                0.38096838                0.42352324               -1.40347867                0.00065930                0.01704653                0.00660053
               0.19679906                2.01479659               12.14738336                0.88163589               -0.32998524               -0.37152842                1.23363424               -0.00141374                0.01223241               -0.00670017
               1.19349920                2.01236612               12.11534981                0.75150252               -0.29040475               -0.29099237                0.96860543               -0.00192750                0.03885407               -0.00892796
               2.19099096                2.00990150               12.08378952                0.73762618               -0.21110877               -0.21132067                0.70390407               -0.00326266                0.07560740               -0.00752446
               3.18927703                2.00741750               12.05244745                0.72851641               -0.13168621               -0.13195952                0.43937575               -0.00403380                0.09460531               -0.00510990
               4.18835724                2.00491409               12.02123798                0.72314326               -0.05236055               -0.05253727                0.17498728               -0.00461389                0.10487065               -0.00236188
               5.18822982                2.00239261               11.99008533                0.72144397                0.02684460                0.02691819               -0.08932506               -0.00478463                0.10708722                0.00047428
               6.18889413                1.99985602               11.95891769                0.72339275                0.10602352                0.10636309               -0.35358755               -0.00447126                0.10151502                0.00314204
               7.19035029                1.99730698               11.92766499                0.72900031                0.18524205                0.18576712               -0.61781825               -0.00378828                0.08816770                0.00540346
               8.19259897                1.99474645               11.89625593                0.73831373                0.26443573                0.26516484               -0.88206470               -0.00289355                0.06676819                0.00703434
               9.19563900                1.99217533               11.86461487                0.75141585                0.34352763                0.34493954               -1.14641513               -0.00175114                0.03668140                0.00781606
              10.19946952                1.98959887               11.83265780                0.88102127                0.38305204                0.42499647               -1.41094953                0.00012043                0.01749303                0.00742527
               0.19881399                3.01109038               12.14672044                0.88165876               -0.32878806               -0.36984089                1.22959387               -0.00132230                0.01279656               -0.00203509
               1.19552611                3.00945928               12.11468113                0.75154226               -0.28912552               -0.29021612                0.96481488               -0.00185683                0.04021076               -0.00425272
               2.19303148                3.00779258               12.08312712                0.73765004               -0.20976772               -0.21042473                0.69991816               -0.00334194                0.07832803               -0.00435493
               3.19133075                3.00610420               12.05180284                0.72852427               -0.13035554               -0.13072583                0.43494403               -0.00402165                0.09824149               -0.00321328
               4.19042437                3.00439638               12.02061460                0.72314083               -0.05093818               -0.05101132                0.16995225               -0.00446586                0.10881115               -0.00145387
               5.19031199                3.00267100               11.98948378                0.72144058                0.02844138                0.02874276               -0.09502725               -0.00457649                0.11102797                0.00050333
               6.19099319                3.00093040               11.95833691                0.72339879                0.10779257                0.10848239               -0.35994884               -0.00431066                0.10521337                0.00232547
               7.19246784                2.99917679               11.92710238                0.72902497                0.18711792                0.18816449               -0.62476461               -0.00371463                0.09137573                0.00371289
               8.19473555                2.99741202               11.89570707                0.73836250                0.26639572                0.26782597               -0.88944870               -0.00284569                0.06920212                0.00437888
               9.19779575                2.99563829               11.86407277                0.75148744                0.34563295                0.34750703               -1.15400395               -0.00159383                0.03803517                0.00402324
              10.20164821                2.99385890               11.83211262                0.88106234                0.38524568                0.42703806               -1.41842517                0.00024715                0.01809404                0.00233706
               0.20003481                4.00739977               12.14608196                0.88167232               -0.32749384               -0.36829418                1.22521085               -0.00118061                0.01324522                0.00366473
               1.19675987                4.00656179               12.11402979                0.75156646               -0.28778023               -0.28913042                0.96060661               -0.00133720                0.04163032                0.00036890
               2.19427920                4.00569301               12.08247973                0.73766470               -0.20835387               -0.20934379                0.69554830               -0.00248520                0.08111872               -0.00079080
               3.19259279                4.00480299               12.05116767                0.72852889               -0.12890430               -0.12944169                0.43023867               -0.00301822                0.10181207               -0.00094409
               4.19170112                4.00389386               12.01999696                0.72313928               -0.04942606               -0.04948024                0.16480736               -0.00332127                0.11280189               -0.00045159
               5.19160427                4.00296746               11.98888547                0.72143949                0.03005042                0.03050991               -0.10065496               -0.00338065                0.11507988                0.00029096
               6.19230212                4.00202566               11.95775714                0.72340562                0.10950504                0.11047810               -0.36605215               -0.00317891                0.10902466                0.00093380
               7.19379437                4.00107027               11.92653807                0.72904622                0.18892178                0.19037440               -0.63129072               -0.00273241                0.09465887                0.00115930
               8.19608056                4.00010297               11.89515275                0.73840188                0.26829371                0.27015850               -0.89629346               -0.00204882                0.07166388                0.00066286
               9.19916024                3.99912547               11.86352030                0.75154366                0.34763394                0.34975568               -1.16100100               -0.00111129                0.03938054               -0.00085116
              10.20303324                3.99813963               11.83155116                0.88109432                0.38729941                0.42901494               -1.42533501                0.00041068                0.01871338               -0.00365704
               0.20046632                5.00372449               12.14546704                0.88167207               -0.32601999               -0.36674320                1.22028636               -0.00100491                0.01369924                0.00900589
               1.19720612                5.00367667               12.11339809                0.75156642               -0.28628723               -0.28773599                0.95573066               -0.00058344                0.04293717                0.00492664
               2.19474058                5.00360570               12.08184741                0.73766346               -0.20682949               -0.20794507                0.69058802               -0.00112242                0.08368117                0.00265610
               3.19306953                5.00351536               12.05054300                0.72852629               -0.12735569               -0.12796515                0.42512581               -0.00141220                0.10507916                0.00128491
               4.19219347                5.00340677               12.01938525                0.72313679               -0.04784801               -0.04790138                0.15950489               -0.00157411                0.11646378                0.00049033
               5.19211257                5.00328120               11.98828903                0.72143964                0.03166718                0.03218925               -0.10616058               -0.00159485                0.11882294               -0.00005648
               6.19282681                5.00313996               11.95717534                0.72341123                0.11116587                0.11225212               -0.37175731               -0.00147455                0.11254599               -0.00067690
               7.19433589                5.00298428               11.92596757                0.72905975                0.19062854                0.19222931               -0.63717651               -0.00122494                0.09766854               -0.00167868
               8.19663938                5.00281519               11.89458749                0.73842477                0.27004876                0.27205512               -0.90232130               -0.00086884                0.07388353               -0.00336064
               9.19973687                5.00263340               11.86295167                0.75157547                0.34943626                0.35162783               -1.16710375               -0.00044357                0.04056454               -0.00599569
              10.20362810                5.00243920               11.83096841                0.88111258                0.38912383                0.43078676               -1.43141084                0.00062983                0.01928407               -0.00978135
               0.20011035                6.00006490               12.14486997                0.88165648               -0.32433617               -0.36515180                1.21474476               -0.00081923                0.01414641                0.01345017
               1.19686699                6.00080707               12.11278089                0.75153922               -0.28461477               -0.28601795                0.95009307                0.00020408                0.04414180                0.00862382
               2.19441806                6.00153411               12.08122624                0.73764411               -0.20517607               -0.20619257                0.68495962                0.00029398                0.08604942                0.00543039
               3.19276347                6.00224368               12.04992605                0.72851515               -0.12571304               -0.12624585                0.41955406                0.00024355                0.10808066                0.00305868
               4.19190380                6.00293583               12.01877799                0.72313279               -0.04621416               -0.04624699                0.15402440                0.00021537                0.11982614                0.00120713
               5.19183919                6.00361125               11.98769392                0.72144071                0.03328772                0.03377464               -0.11153256                0.00022922                0.12226371               -0.00041973
               6.19256955                6.00427071               11.95659180                0.72341496                0.11277255                0.11377097               -0.37702225                0.00026624                0.11578029               -0.00210346
               7.19409464                6.00491486               11.92539195                0.72906412                0.19222545                0.19368978               -0.64235391                0.00031598                0.10041278               -0.00413217
               8.19641406                6.00554407               11.89401318                0.73842878                0.27163623                0.27348888               -0.90744650                0.00034161                0.07587188               -0.00681094
               9.19952736                6.00615802               11.86236948                0.75157988                0.35100883                0.35309448               -1.17222348                0.00024672                0.04159260               -0.01042378
              10.20343424                6.00675536               11.83036758                0.88111555                0.39068746                0.43234013               -1.43657786                0.00086124                0.01981092               -0.01513705
               0.19896560                6.99642146               12.14427843                0.88162673               -0.32245955               -0.36353377                1.20859899               -0.00064863                0.01466714                0.01629343
               1.19574100                6.99795631               12.11216599                0.75148726               -0.28278756               -0.28395982                0.94373109                0.00082863                0.04545626                0.01062732
               2.19330985                6.99948185               12.08060660                0.73760862               -0.20341632               -0.20408469                0.67870252                0.00130784                0.08860281                0.00688192
               3.19167268                7.00099045               12.04931053                0.72849675               -0.12398194               -0.12431013                0.41355301                0.00138921                0.11124793                0.00399101
               4.19083021                7.00248183               12.01817231                0.72312794               -0.04451957               -0.04453215                0.14837333                0.00148758                0.12332992                0.00156293
               5.19078229                7.00395669               11.98710059                0.72144311                0.03491582                0.03528134               -0.11679380                0.00154421                0.12583700               -0.00067488
               6.19152852                7.00541538               11.95601019                0.72341753                0.11432822                0.11507566               -0.38190042                0.00151376                0.11915214               -0.00295582
               7.19306885                7.00685808               11.92481811                0.72906072                0.19372597                0.19480621               -0.64689945                0.00140712                0.10329034               -0.00554199
               8.19540304                7.00828497               11.89343967                0.73841608                0.27308278                0.27449133               -0.91175701                0.00122704                0.07795765               -0.00877198
               9.19853051                7.00969529               11.86178566                0.75155942                0.35238036                0.35417837               -1.17644665                0.00079784                0.04265694               -0.01305975
              10.20245065                7.01108600               11.82976102                0.88110448                0.39201464                0.43371864               -1.44090556                0.00106591                0.02039258               -0.01869670
               0.19702767                7.99279423               12.14367204                0.88158695               -0.32044999               -0.36200965                1.20196434               -0.00048546                0.01544654                0.01660446
               1.19382317                7.99512788               12.11153304                0.75141869               -0.28087975               -0.28149763                0.93682035                0.00106021                0.04733314                0.00992726
               2.19141008                7.99745241               12.07997307                0.73756349               -0.20159528               -0.20173141                0.67198309                0.00144875                0.09211532                0.00644436
               3.18979127                7.99975748               12.04868700                0.72847511               -0.12213874               -0.12230586                0.40724402                0.00163056                0.11541545                0.00378969
               4.18896730                8.00204519               12.01756434                0.72312413               -0.04273698               -0.04279482                0.14259316                0.00185895                0.12779863                0.00146591
               5.18893653                8.00431688               11.98651046                0.72144801                0.03655699                0.03674670               -0.12200109                0.00196861                0.13035862               -0.00071574
               6.18969844                8.00657222               11.95543724                0.72342101                0.11583309                0.11627336               -0.38654488                0.00188932                0.12347485               -0.00292427
               7.19125319                8.00881098               11.92425836                0.72905386                0.19514712                0.19575213               -0.65104141                0.00168377                0.10710199               -0.00537156
               8.19360139                8.01103389               11.89288496                0.73839355                0.27445477                0.27520045               -0.91552063                0.00144174                0.08084071               -0.00839455
               9.19674229                8.01324159               11.86122250                0.75152261                0.35363732                0.35491605               -1.18004018                0.00105602                0.04418790               -0.01265400
              10.20067413                8.01542974               11.82917197                0.88108366                0.39318471                0.43508167               -1.44461837                0.00124269                0.02126300               -0.01913709
               0.19428859                8.98918126               12.14302025                0.88154492               -0.31845674               -0.36090157                1.19511220               -0.00062889                0.01668547                0.01225714
               1.19110402                8.99232636               12.11085124                0.75134854               -0.27896869               -0.27865841                0.92970322                0.00053915                0.05059632                0.00580896
               2.18870922                8.99544722               12.07930625                0.73752038               -0.19957576               -0.19966702                0.66513259                0.00073219                0.09789568                0.00398456
               3.18711251                8.99854433               12.04804444                0.72845721               -0.12006115               -0.12037036                0.40086436                0.00097437                0.12172348                0.00236142
               4.18630799                9.00162594               12.01694979                0.72312466               -0.04089400               -0.04106843                0.13676932                0.00128205                0.13431781                0.00090243
               5.18629463                9.00469163               11.98592570                0.72145739                0.03821057                0.03823417               -0.12724399                0.00137927                0.13690961               -0.00048073
               6.18707221                9.00774085               11.95488164                0.72342896                0.11731110                0.11752013               -0.39121499                0.00130439                0.12983519               -0.00187362
               7.18864085                9.01077312               11.92372852                0.72905105                0.19645316                0.19678447               -0.65517750                0.00108144                0.11299417               -0.00339475
               8.19100127                9.01378898               11.89237377                0.73837354                0.27574668                0.27605558               -0.91921557                0.00090173                0.08574838               -0.00526375
               9.19415578                9.01679361               11.86071491                0.75148497                0.35489740                0.35543852               -1.18348778                0.00078456                0.04703506               -0.00802401
              10.19809922                9.01978764               11.82863794                0.88106109                0.39434330                0.43680546               -1.44815294                0.00115892                0.02283936               -0.01389185
               0.19072491                9.98557620               12.14226181                0.94076020               -0.31569064               -0.36050673                1.18843293                0.04148284                0.02136703                0.01000933
               1.18756800                9.98955471               12.11008754                0.87565472               -0.27590783               -0.27716494                0.92295803                0.04054144                0.05769444                0.00387386
               2.18520675                9.99345907               12.07858943                0.86874942               -0.19679819               -0.19881488                0.65869655                0.03952164                0.10744624                0.00293828
               3.18363204                9.99735007               12.04737256                0.86422543               -0.11805511               -0.11942554                0.39477658                0.04019041                0.13128821                0.00170164
               4.18284565               10.00122382               12.01632497                0.86156446               -0.03914150               -0.04021163                0.13103212                0.04033964                0.14403870                0.00058957
               5.18284921               10.00508156               11.98534872                0.86073346                0.03986956                0.03899320               -0.13263987                0.04039787                0.14662548               -0.00047157
               6.18364304               10.00892262               11.95435195                0.86171919                0.11887398                0.11817767               -0.39626647                0.04033901                0.13936829               -0.00153247
               7.18522669               10.01274667               11.92324407                0.86452757                0.19779436                0.19735518               -0.65987009                0.04020281                0.12216793               -0.00266541
               8.18759893               10.01655501               11.89193074                0.86918396                0.27663157                0.27660276               -0.92354985                0.03995038                0.09438436               -0.00401268
               9.19075932               10.02035036               11.86030692                0.87573405                0.35551681                0.35567490               -1.18752575                0.04089538                0.05374646               -0.00586823
              10.19470926               10.02416584               11.82823138                0.94052493                0.39499452                0.43782081               -1.45213972                0.04255295                0.02805470               -0.01113593
               0.22382869                0.02282680               13.16100892                0.94085223               -0.32929527               -0.37166930                1.23191913               -0.04247706                0.01735436               -0.00536225
               1.22053574                0.01876937               13.12637968                0.87599541               -0.29005045               -0.28965379                0.96935612               -0.04033410                0.04047385               -0.00558731
               2.21802768                0.01473657               13.09215644                0.86911851               -0.21167481               -0.21159760                0.70729278               -0.03937951                0.07459201               -0.00319129
               3.21630224                0.01068539               13.05816680                0.86441608               -0.13336649               -0.13297661                0.44551783               -0.03973577                0.09466299               -0.00201244
               4.21536035                0.00661691               13.02431607                0.86163027               -0.05497310               -0.05449221                0.18394945               -0.03982740                0.10538817               -0.00091888
               5.21520278                0.00253118               12.99052584                0.86074286                0.02344913                0.02397874               -0.07749790               -0.03986004                0.10780831                0.00009370
               6.21582934               -0.00156997               12.95672244                0.86174661                0.10182697                0.10244245               -0.33888616               -0.03980971                0.10226356                0.00105433
               7.21723932               -0.00568505               12.92283432                0.86464516                0.18010699                0.18091207               -0.60028011               -0.03971613                0.08884846                0.00197891
               8.21943147               -0.00981463               12.88878928                0.86945301                0.25831303                0.25948815               -0.86177912               -0.03949552                0.06741246                0.00288257
               9.22240558               -0.01396005               12.85451188                0.87619594                0.33643747                0.33776290               -1.12352970               -0.04039067                0.03742744                0.00375288
              10.22616022               -0.01815260               12.81991865                0.94083104                0.37546443                0.41947860               -1.38573650               -0.04043263                0.01844030                0.00494552
               0.22746135                1.01911011               13.16037247                0.88143174               -0.32838440               -0.37036948                1.22694874               -0.00115614                0.01478185               -0.00567887
               1.22417751                1.01587283               13.12572709                0.75140284               -0.28927388               -0.28923427                0.96435334               -0.00077014                0.03916411               -0.00722924
               2.22167588                1.01262060               13.09151268                0.73774522               -0.21063971               -0.21076765                0.70217919               -0.00107748                0.07371369               -0.00500667
               3.21996472                1.00935562               13.05751765                0.72859132               -0.13183485               -0.13222723                0.44032816               -0.00135679                0.09283941               -0.00326058
               4.21903918                1.00607199               13.02365925                0.72317934               -0.05335478               -0.05369665                0.17869870               -0.00167941                0.10330372               -0.00159350
               5.21889762                1.00277097               12.98985993                0.72146085                0.02500859                0.02483513               -0.08280244               -0.00177686                0.10563966                0.00000493
               6.21953935                0.99945445               12.95604735                0.72341618                0.10334333                0.10336194               -0.34425828               -0.00165787                0.10019728                0.00149822
               7.22096449                0.99612408               12.92215099                0.72905416                0.18173351                0.18188546               -0.60575140               -0.00135989                0.08701574                0.00284499
               8.22317402                0.99278025               12.88809930                0.73841208                0.26030848                0.26044626               -0.86738217               -0.00114110                0.06583082                0.00400285
               9.22617066                0.98941758               12.85381659                0.75155552                0.33872128                0.33914631               -1.12927384               -0.00076806                0.03612697                0.00493084
              10.22994845                0.98604219               12.81922156                0.88110652                0.37777905                0.41981520               -1.39151848                0.00069164                0.01726256                0.00565140
               0.23028013                2.01541941               13.15966396                0.88116595               -0.32702816               -0.36814665                1.22245004               -0.00130629                0.01225172               -0.00574639
               1.22700985                2.01298468               13.12499321                0.75082717               -0.28783931               -0.28841651                0.96001142               -0.00139284                0.03900411               -0.00754231
               2.22452334                2.01052122               13.09079823                0.73726145               -0.20930644               -0.20944060                0.69778829               -0.00216624                0.07594752               -0.00621598
               3.22282372                2.00804084               13.05682267                0.72835405               -0.13059633               -0.13080238                0.43564780               -0.00258471                0.09504753               -0.00420024
               4.22191141                2.00554298               13.02298101                0.72309863               -0.05194688               -0.05212677                0.17361736               -0.00294991                0.10536320               -0.00204609
               5.22178478                2.00302789               12.98919701                0.72143624                0.02658292                0.02657372               -0.08833523               -0.00308179                0.10758143                0.00011455
               6.22244307                2.00049727               12.95539852                0.72334238                0.10507724                0.10527194               -0.35024206               -0.00290864                0.10199220                0.00213149
               7.22388632                1.99795266               12.92151516                0.72882702                0.18360385                0.18395232               -0.61213792               -0.00252058                0.08860671                0.00386419
               8.22611515                1.99539429               12.88747511                0.73793430                0.26209792                0.26265437               -0.87407008               -0.00202492                0.06712027                0.00517522
               9.22912828                1.99282288               12.85320206                0.75074193                0.34048465                0.34174004               -1.13609473               -0.00132612                0.03688760                0.00592135
              10.23292484                1.99024370               12.81861150                0.88056384                0.37965603                0.42105458               -1.39824486                0.00021716                0.01759663                0.00583904
               0.23230469                3.01174717               13.15895832                0.88117643               -0.32568452               -0.36644222                1.21801991               -0.00119682                0.01272074               -0.00108223
               1.22904784                3.01010450               13.12428376                0.75084497               -0.28641489               -0.28747732                0.95573918               -0.00132902                0.04001572               -0.00292584
               2.22657639                3.00843178               13.09009346                0.73727018               -0.20782889               -0.20841222                0.69338527               -0.00230933                0.07797535               -0.00316700
               3.22489127                3.00673957               13.05613210                0.72835374               -0.12916268               -0.12948438                0.43094677               -0.00270023                0.09776232               -0.00240270
               4.22399314                3.00502945               13.02230681                0.72309302               -0.05047852               -0.05058711                0.16851177               -0.00297174                0.10825200               -0.00117244
               5.22388170                3.00330244               12.98853927                0.72143132                0.02816313                0.02832868               -0.09388841               -0.00305442                0.11043524                0.00019524
               6.22455640                3.00155989               12.95475624                0.72334478                0.10676762                0.10724044               -0.35623931               -0.00290913                0.10465311                0.00145113
               7.22601705                2.99980312               12.92088630                0.72884263                0.18534555                0.18613308               -0.61853387               -0.00256133                0.09091110                0.00237090
               8.22826331                2.99803334               12.88685640                0.73796675                0.26388376                0.26505835               -0.88077121               -0.00203190                0.06887167                0.00273778
               9.23129472                2.99625238               12.85258832                0.75079058                0.34239114                0.34405053               -1.14294826               -0.00117778                0.03786228                0.00232017
              10.23511113                2.99446328               12.81799550                0.88059208                0.38164106                0.42292346               -1.40503577                0.00035902                0.01803514                0.00088298
               0.23354154                4.00809057               13.15827452                0.88118173               -0.32428899               -0.36489720                1.21337999               -0.00107976                0.01309065                0.00440858
               1.23029865                4.00723513               13.12358846                0.75085437               -0.28497320               -0.28627943                0.95121121               -0.00096455                0.04117149                0.00131206
               2.22784208                4.00635298               13.08940077                0.73727449               -0.20633040               -0.20723170                0.68874308               -0.00177129                0.08025117                0.00002406
               3.22617205                4.00545115               13.05544885                0.72835272               -0.12764861               -0.12814117                0.42607114               -0.00212723                0.10066594               -0.00039993
               4.22528911                4.00453123               13.02163747                0.72308927               -0.04893967               -0.04904828                0.16333224               -0.00233099                0.11148921               -0.00025975
               5.22519325                4.00359446               12.98788531                0.72142915                0.02975527                0.03004639               -0.09940133               -0.00237997                0.11371026                0.00010163
               6.22588421                4.00264207               12.95411692                0.72334901                0.10841992                0.10913115               -0.36208234               -0.00225736                0.10772280                0.00038097
               7.22736165                4.00167533               12.92025893                0.72885751                0.18705205                0.18819202               -0.62467477               -0.00196799                0.09354544                0.00030205
               8.22962525                4.00069546               12.88623631                0.73799477                0.26565675                0.26721268               -0.88714346               -0.00150164                0.07083761               -0.00039885
               9.23267479                3.99970389               12.85196873                0.75083100                0.34424866                0.34612940               -1.14944059               -0.00082739                0.03892958               -0.00197183
              10.23651023                3.99870217               12.81736752                0.88061531                0.38354412                0.42479967               -1.41148106                0.00049581                0.01853053               -0.00463604
               0.23399396                5.00444923               13.15760982                0.88117849               -0.32278151               -0.36334810                1.20836652               -0.00095023                0.01351206                0.00944330
               1.23076614                5.00437891               13.12290738                0.75084899               -0.28345062               -0.28484390                0.94623143               -0.00044723                0.04237218                0.00532346
               2.22832495                5.00428715               13.08871836                0.73726955               -0.20478398               -0.20579558                0.68370304               -0.00087437                0.08260844                0.00295846
               3.22667046                5.00417675               13.05477280                0.72834812               -0.12608665               -0.12664475                0.42092034               -0.00111999                0.10367061                0.00147195
               4.22580321                5.00404849               13.02097278                0.72308601               -0.04736037               -0.04747158                0.15804348               -0.00126679                0.11485800                0.00056000
               5.22572326                5.00390337               12.98723417                0.72142889                0.03135868                0.03170101               -0.10483834               -0.00129549                0.11715165               -0.00009731
               6.22643039                5.00374251               12.95347873                0.72335359                0.11005231                0.11085938               -0.36766623               -0.00120252                0.11095352               -0.00081870
               7.22792430                5.00356696               12.91963048                0.72886856                0.18871655                0.18998401               -0.63039394               -0.00099749                0.09629601               -0.00191108
               8.23020472                5.00337759               12.88561185                0.73801323                0.26735798                0.26903740               -0.89297225               -0.00070284                0.07285469               -0.00366935
               9.23327146                5.00317497               12.85134020                0.75085665                0.34598796                0.34793508               -1.15533145               -0.00035540                0.03999807               -0.00635557
              10.23712448                5.00295927               12.81672506                0.88063013                0.38530146                0.42653260               -1.41735821                0.00066359                0.01904640               -0.01015071
               0.23366318                6.00082360               13.15695779                0.88116555               -0.32113933               -0.36175219                1.20291210               -0.00081064                0.01398201                0.01354759
               1.23045179                6.00153826               13.12223451                0.75082664               -0.28182141               -0.28315855                0.94072069                0.00010121                0.04365401                0.00844422
               2.22802675                6.00223706               13.08804161                0.73725369               -0.20317381               -0.20407709                0.67820091                0.00007064                0.08512676                0.00519860
               3.22638831                6.00291826               13.05410071                0.72833897               -0.12448022               -0.12495339                0.41545289               -0.00006643                0.10686529                0.00287577
               4.22553715                6.00358180               13.02031107                0.72308282               -0.04574979               -0.04583326                0.15262940               -0.00015869                0.11843976                0.00114722
               5.22547331                6.00422848               12.98658541                0.72143029                0.03297122                0.03328634               -0.11019013               -0.00016786                0.12081694               -0.00031779
               6.22619657                6.00485926               12.95284233                0.72335804                0.11166542                0.11239489               -0.37295714               -0.00010615                0.11439593               -0.00183959
               7.22770662                6.00547501               12.91900265                0.72887470                0.19033093                0.19147482               -0.63563523                0.00001005                0.09921262               -0.00374381
               8.23000319                6.00607621               12.88498572                0.73802041                0.26896865                0.27050891               -0.89818379                0.00012913                0.07496521               -0.00636837
               9.23308600                6.00666259               12.85070625                0.75086529                0.34758503                0.34943621               -1.16053934                0.00014134                0.04109028               -0.01002291
              10.23695489                6.00723283               12.81607212                0.88063535                0.38688949                0.42809675               -1.42259218                0.00084481                0.01959659               -0.01489461
               0.23254844                6.99721419               13.15630626                0.88114380               -0.31937345               -0.36014191                1.19703191               -0.00066517                0.01457343                0.01607562
               1.22935471                6.99871574               13.12155799                0.75078911               -0.28010429               -0.28120777                0.93471018                0.00055823                0.04520987                0.00996768
               2.22694636                7.00020561               13.08736125                0.73722840               -0.20151552               -0.20207428                0.67226767                0.00074445                0.08814991                0.00621300
               3.22532440                7.00167768               13.05342654                0.72832622               -0.12282687               -0.12309532                0.40969122                0.00063885                0.11063236                0.00350905
               4.22448982                7.00313182               13.01964952                0.72308022               -0.04409786               -0.04415160                0.14709557                0.00061609                0.12261481                0.00139544
               5.22444244                7.00456910               12.98593929                0.72143372                0.03459592                0.03481378               -0.11547331                0.00064146                0.12507575               -0.00046977
               6.22518174                7.00599041               12.95221094                0.72336290                0.11325587                0.11377367               -0.37799391                0.00067598                0.11841412               -0.00238679
               7.22670756                7.00739646               12.91838169                0.72887699                0.19189904                0.19270809               -0.64045476                0.00071947                0.10264514               -0.00468064
               8.22901972                7.00878777               12.88436701                0.73801786                0.27050571                0.27165104               -0.90284363                0.00074944                0.07746326               -0.00774946
               9.23211767                7.01016369               12.85007803                0.75085880                0.34905903                0.35065100               -1.16513026                0.00056199                0.04237894               -0.01206249
              10.23600090                7.01152121               12.81542042                0.88063190                0.38832268                0.42954430               -1.42723851                0.00102382                0.02027040               -0.01795799
               0.23064677                7.99362077               13.15563600                0.88111631               -0.31752451               -0.35867202                1.19083036               -0.00049326                0.01544993                0.01620107
               1.22747153                7.99591410               13.12085908                0.75074237               -0.27835375               -0.27892108                0.92834303                0.00074726                0.04743527                0.00903006
               2.22507970                7.99819558               13.08666334                0.73719841               -0.19983258               -0.19988717                0.66603351                0.00078262                0.09234333                0.00557460
               3.22347488                8.00045635               13.05274192                0.72831283               -0.12108234               -0.12121327                0.40372712                0.00074110                0.11566000                0.00317865
               4.22265805                8.00269877               13.01898463                0.72307966               -0.04236612               -0.04246538                0.14147313                0.00083399                0.12803146                0.00125007
               5.22262755                8.00492475               12.98529674                0.72144011                0.03623404                0.03631299               -0.12072857                0.00091424                0.13056057               -0.00047943
               6.22338273                8.00713473               12.95159001                0.72336975                0.11480507                0.11508798               -0.38288777                0.00091473                0.12365291               -0.00224951
               7.22492365                8.00932917               12.91777793                0.72887856                0.19341070                0.19383624               -0.64502143                0.00088759                0.10725925               -0.00433815
               8.22725095                8.01150923               12.88377136                0.73801058                0.27200716                0.27257924               -0.90715600                0.00089684                0.08095610               -0.00714852
               9.23036380                8.01367561               12.84947540                0.75084335                0.35046968                0.35160298               -1.16931646                0.00079552                0.04424567               -0.01141140
              10.23426034                8.01582371               12.81479110                0.88062294                0.38965409                0.43105170               -1.43148589                0.00121248                0.02127867               -0.01818041
               0.22795191                8.99004074               13.15491890                0.88108864               -0.31570675               -0.35768244                1.18452259               -0.00060042                0.01678017                0.01193805
               1.22479484                8.99313732               13.12011000                0.75069704               -0.27660753               -0.27629367                0.92187833                0.00031853                0.05107422                0.00510177
               2.22241976                8.99620787               13.08593132                0.73717190               -0.19794064               -0.19802239                0.65973941                0.00025964                0.09884982                0.00332105
               3.22083603                8.99925342               13.05203780                0.72830371               -0.11908306               -0.11942474                0.39772916                0.00034125                0.12284390                0.00190284
               4.22003809                9.00228251               13.01831282                0.72308357               -0.04056336               -0.04080229                0.13582259                0.00055812                0.13548447                0.00073917
               5.22002476                9.00529536               12.98465920                0.72145101                0.03787616                0.03783453               -0.12601707                0.00063834                0.13805259               -0.00031320
               6.22079562                9.00829217               12.95098605                0.72338120                0.11630277                0.11646268               -0.38781818                0.00062019                0.13092445               -0.00138648
               7.22235081                9.01127318               12.91720389                0.72888464                0.19477974                0.19507095               -0.64961433                0.00052357                0.11398319               -0.00264326
               8.22469121                9.01423935               12.88321945                0.73800713                0.27341420                0.27367900               -0.91146454                0.00052520                0.08653084               -0.00434980
               9.22781910                9.01719575               12.84892909                0.75082979                0.35188639                0.35237580               -1.17345800                0.00061102                0.04747307               -0.00710243
              10.23172894                9.02014224               12.81421778                0.88061409                0.39098421                0.43297726               -1.43567034                0.00117078                0.02300957               -0.01319405
               0.22444162                9.98646712               13.15409706                0.94053668               -0.31308454               -0.35736285                1.17839534                0.04108260                0.02161935                0.00988510
               1.22131078                9.99038823               13.11928240                0.87533665               -0.27364157               -0.27490892                0.91570998                0.03999449                0.05854131                0.00349594
               2.21896879                9.99423513               13.08515285                0.86858004               -0.19518617               -0.19727355                0.65374797                0.03888502                0.10893868                0.00259888
               3.21740705                9.99806786               13.05130681                0.86415115               -0.11707607               -0.11855582                0.39193682                0.03948243                0.13295301                0.00147268
               4.21662727               10.00188272               13.01763144                0.86154483               -0.03881953               -0.03997887                0.13023053                0.03959688                0.14573390                0.00051537
               5.21663066               10.00568145               12.98402816                0.86073067                0.03950207                0.03860864               -0.13141351                0.03965361                0.14829210               -0.00037543
               6.21741731               10.00946399               12.95040482                0.86169623                0.11781401                0.11718182               -0.39301513                0.03962636                0.14100009               -0.00127347
               7.21898694               10.01323059               12.91667057                0.86444680                0.19607851                0.19574033               -0.65460020                0.03955391                0.12372267               -0.00227303
               8.22133888               10.01698281               12.88273022                0.86900551                0.27430942                0.27434557               -0.91623647                0.03939371                0.09571138               -0.00354117
               9.22447313               10.02072312               12.84847714                0.87541376                0.35259484                0.35273727               -1.17805065                0.04042570                0.05457408               -0.00540023
              10.22839078               10.02448326               12.81376766                0.94030576                0.39176462                0.43410168               -1.44022941                0.04219697                0.02843476               -0.01082669
               0.25994518                0.02343572               14.17327479                0.94062056               -0.32641759               -0.36833836                1.22108386               -0.04205073                0.01750820               -0.00517874
               1.25668100                0.01939266               14.13603302                0.87565957               -0.28752418               -0.28716586                0.96111434               -0.03985643                0.04091558               -0.00535259
               2.25419469                0.01537529               14.09920101                0.86893438               -0.20985814               -0.20982210                0.70145470               -0.03885752                0.07539575               -0.00299209
               3.25248384                0.01134123               14.06260474                0.86433411               -0.13226239               -0.13189227                0.44196124               -0.03917052                0.09568956               -0.00187711
               4.25154944                0.00729108               14.02614906                0.86160796               -0.05457766               -0.05407628                0.18260357               -0.03924245                0.10655395               -0.00087459
               5.25139228                0.00322419               13.98975493                0.86073934                0.02313825                0.02373802               -0.07666415               -0.03927540                0.10904209                0.00003814
               6.25201221               -0.00085846               13.95334818                0.86172160                0.10082175                0.10154754               -0.33588567               -0.03924513                0.10350543                0.00090390
               7.25340872               -0.00495605               13.91685665                0.86455794                0.17843272                0.17935667               -0.59511255               -0.03918997                0.09001791                0.00175194
               8.25558086               -0.00906961               13.88020731                0.86926144                0.25599706                0.25725589               -0.85441656               -0.03902331                0.06838337                0.00261067
               9.25852866               -0.01320037               13.84332357                0.87585540                0.33348434                0.33483035               -1.11389247               -0.03996257                0.03801975                0.00347693
              10.26225055               -0.01737851               13.80612040                0.94059955                0.37218904                0.41576539               -1.37366867               -0.04004981                0.01871486                0.00475326
               0.26356772                1.01975233               14.17258751                0.88096898               -0.32550709               -0.36699557                1.21595573               -0.00111254                0.01482707               -0.00520957
               1.26031265                1.01652101               14.13532935                0.75073488               -0.28679428               -0.28670306                0.95596458               -0.00056223                0.03945153               -0.00660176
               2.25783183                1.01327707               14.09850544                0.73738181               -0.20892070               -0.20894454                0.69625163               -0.00064654                0.07437815               -0.00440651
               3.25613423                1.01002231               14.06190334                0.72842965               -0.13081458               -0.13110895                0.43672836               -0.00076942                0.09377857               -0.00284082
               4.25521554                1.00675032               14.02543967                0.72313521               -0.05299673               -0.05327384                0.17735260               -0.00100127                0.10441034               -0.00144179
               5.25507430                1.00346157               13.98903621                0.72145364                0.02471675                0.02456883               -0.08192837               -0.00108269                0.10680976               -0.00014739
               6.25570988                1.00015702               13.95261990                0.72336654                0.10240490                0.10241042               -0.34117383               -0.00102204                0.10133337                0.00105240
               7.25712240                0.99683751               13.91611949                0.72888193                0.18014552                0.18025017               -0.60044843               -0.00084832                0.08801556                0.00215910
               8.25931279                0.99350295               13.87946256                0.73803415                0.25805413                0.25812348               -0.85982616               -0.00079835                0.06657895                0.00316918
               9.26228348                0.99014794               13.84257245                0.75088384                0.33577020                0.33611923               -1.11938832               -0.00060463                0.03652198                0.00407424
              10.26602819                0.98677915               13.80536719                0.88065023                0.37447112                0.41601090               -1.37918787                0.00072177                0.01740809                0.00493541
               0.26638558                2.01609580               14.17183236                0.88070026               -0.32405582               -0.36470800                1.21119295               -0.00122927                0.01226065               -0.00498877
               1.26314502                2.01365860               14.13455004                0.75015656               -0.28525588               -0.28577457                0.95129881               -0.00103844                0.03912356               -0.00652060
               2.26068046                2.01119640               14.09774529                0.73689835               -0.20749114               -0.20751878                0.69157333               -0.00143707                0.07620640               -0.00526010
               3.25899520                2.00871905               14.06116041                0.72819214               -0.12951492               -0.12961724                0.43186663               -0.00161859                0.09539051               -0.00353576
               4.25809016                2.00622561               14.02471033                0.72305401               -0.05156320               -0.05169291                0.17223131               -0.00183974                0.10578097               -0.00180784
               5.25796393                2.00371556               13.98831863                0.72142835                0.02628299                0.02625176               -0.08734376               -0.00194494                0.10803236               -0.00012920
               6.25861582                2.00118975               13.95191285                0.72329198                0.10409473                0.10420025               -0.34688482               -0.00186346                0.10243600                0.00142157
               7.26004583                1.99864895               13.91542223                0.72865423                0.18193268                0.18214621               -0.60642605               -0.00166926                0.08900081                0.00276856
               8.26225447                1.99609286               13.87877453                0.73755668                0.25972691                0.26013189               -0.86600698               -0.00143777                0.06741780                0.00383298
               9.26524036                1.99352202               13.84189298                0.75007293                0.33740448                0.33850405               -1.12566327               -0.00103612                0.03705393                0.00452552
              10.26900256                1.99094171               13.80469291                0.88011057                0.37621991                0.41707008               -1.38540434                0.00028848                0.01766773                0.00462872
               0.26841754                3.01245817               14.17108084                0.88070292               -0.32262506               -0.36296822                1.20650140               -0.00110795                0.01267042               -0.00032012
               1.26519128                3.01080551               14.13379592                0.75016060               -0.28374459               -0.28470951                0.94670694               -0.00097246                0.03991405               -0.00193031
               2.26274264                3.00912669               14.09699482                0.73689763               -0.20593153               -0.20639066                0.68689733               -0.00160857                0.07778606               -0.00228595
               3.26107265                3.00742996               14.06042177                0.72818676               -0.12802037               -0.12823821                0.42699575               -0.00180120                0.09750447               -0.00180164
               4.26018224                3.00571646               14.02398483                0.72304645               -0.05006993               -0.05014602                0.16709231               -0.00195433                0.10798131               -0.00095758
               5.26007126                3.00398660               13.98760601                0.72142250                0.02784915                0.02795150               -0.09278103               -0.00201685                0.11017309               -0.00001849
               6.26073922                3.00224102               13.95121212                0.72329210                0.10573267                0.10605227               -0.35261982               -0.00195111                0.10441365                0.00082343
               7.26218591                3.00048044               13.91473171                0.72866413                0.18358729                0.18415933               -0.61243103               -0.00176908                0.09070621                0.00139454
               8.26441097                2.99870558               13.87809165                0.73757881                0.26139964                0.26233389               -0.87222201               -0.00146926                0.06871320                0.00152646
               9.26741390                2.99691802               13.84121380                0.75010698                0.33918041                0.34060666               -1.13198724               -0.00088845                0.03777385                0.00103774
              10.27119457                2.99512055               13.80401191                0.88013059                0.37806715                0.41878166               -1.39169251                0.00043913                0.01799665               -0.00025145
               0.26966873                4.00883644               14.17034956                0.88070281               -0.32116841               -0.36140440                1.20168345               -0.00100676                0.01298879                0.00500024
               1.26645705                4.00796441               14.13305402                0.75016040               -0.28224468               -0.28342109                0.94196020               -0.00070558                0.04089434                0.00203149
               2.26402384                4.00706859               14.09625459                0.73689530               -0.20438234               -0.20513333                0.68207291               -0.00127210                0.07971748                0.00064237
               3.26236940                4.00615429               14.05968909                0.72818217               -0.12647016               -0.12685112                0.42201281               -0.00150145                0.09996031                0.00001456
               4.26149444                4.00522269               14.02326360                0.72304133               -0.04851841               -0.04860400                0.16190247               -0.00163392                0.11071207               -0.00010840
               5.26139903                4.00427459               13.98689744                0.72141964                0.02942625                0.02962756               -0.09819884               -0.00167412                0.11292498               -0.00003187
               6.26208296                4.00331080               13.95051549                0.72329465                0.10734262                0.10785743               -0.35826490               -0.00160512                0.10698157               -0.00002642
               7.26354589                4.00233214               13.91404458                0.72867486                0.18522742                0.18609504               -0.61828353               -0.00142422                0.09289791               -0.00033937
               8.26578751                4.00133953               13.87740988                0.73759938                0.26308716                0.26434023               -0.87823861               -0.00111024                0.07033735               -0.00120503
               9.26880763                4.00033415               13.84053149                0.75013692                0.34093867                0.34253765               -1.13809301               -0.00062343                0.03864792               -0.00283920
              10.27260628                3.99931735               13.80332154                0.88014798                0.37986537                0.42055160               -1.39777216                0.00055707                0.01840583               -0.00541876
               0.27014145                5.00523008               14.16963437                0.88069761               -0.31964260               -0.35985114                1.19661369               -0.00090749                0.01338792                0.00977172
               1.26694503                5.00513709               14.13232272                0.75015154               -0.28070630               -0.28195319                0.93691367               -0.00034250                0.04202110                0.00563208
               2.26452733                5.00502403               14.09552148                0.73688797               -0.20282517               -0.20366967                0.67698475               -0.00067998                0.08193032                0.00320179
               3.26288852                5.00489294               14.05896140                0.72817631               -0.12490372               -0.12534166                0.41684620               -0.00088624                0.10277880                0.00162838
               4.26202925                5.00474438               14.02254612                0.72303759               -0.04694308               -0.04703206                0.15663694               -0.00101666                0.11387228                0.00062259
               5.26194966                5.00457915               13.98619226                0.72141912                0.03101594                0.03125914               -0.10357178               -0.00104891                0.11615094               -0.00012704
               6.26264957                5.00439817               13.94982202                0.72329853                0.10895133                0.10954514               -0.36374534               -0.00097706                0.11000342               -0.00093491
               7.26412869                5.00420234               13.91335969                0.72868419                0.18685876                0.18783160               -0.62386402               -0.00080886                0.09546044               -0.00210496
               8.26638675                5.00399239               13.87672804                0.73761481                0.26474665                0.26610021               -0.88390127               -0.00056572                0.07220579               -0.00392705
               9.26942362                5.00376877               13.83984504                0.75015833                0.34262900                0.34427959               -1.14380370               -0.00028304                0.03963099               -0.00665359
              10.27323933                5.00353158               13.80262125                0.88016040                0.38157052                0.42223803               -1.40347552                0.00068862                0.01888137               -0.01045223
               0.26983657                6.00163942               14.16892821                0.88068650               -0.31803092               -0.35826584                1.19123811               -0.00079866                0.01387156                0.01358518
               1.26665626                6.00232535               14.13159531                0.75013248               -0.27910868               -0.28030013                0.93150585                0.00004810                0.04335019                0.00831669
               2.26425439                6.00299519               14.09479026                0.73687447               -0.20124680               -0.20198261                0.67158374               -0.00004669                0.08453929                0.00504846
               3.26263132                6.00364745               14.05823511                0.72816848               -0.12332503               -0.12367607                0.41146486               -0.00023078                0.10608812                0.00276311
               4.26178789                6.00428205               14.02183058                0.72303495               -0.04535274               -0.04540994                0.15128401               -0.00035857                0.11758286                0.00111499
               5.26172427                6.00489978               13.98549011                0.72142074                0.03261710                0.03284059               -0.10889267               -0.00038165                0.11994714               -0.00024756
               6.26244023                6.00550170               13.94913266                0.72330339                0.11056142                0.11108952               -0.36903558               -0.00030856                0.11356664               -0.00166700
               7.26393549                6.00608877               13.91267924                0.72869141                0.18847651                0.18934194               -0.62912970               -0.00015849                0.09847695               -0.00349011
               8.26620976                6.00666154               13.87604950                0.73762392                0.26636402                0.26759762               -0.88915258                0.00000990                0.07438724               -0.00607402
               9.26926277                6.00721974               13.83915869                0.75016960                0.34423352                0.34580604               -1.14905389                0.00008105                0.04076076               -0.00974495
              10.27309443                6.00776211               13.80191574                0.88016703                0.38316595                0.42381424               -1.40873994                0.00083340                0.01944486               -0.01470612
               0.26875362                6.99806477               14.16821907                0.88067009               -0.31634013               -0.35669006                1.18556986               -0.00067097                0.01450739                0.01585939
               1.26559021                6.99953109               14.13086020                0.75010449               -0.27746635               -0.27844405                0.92576010                0.00039410                0.04506095                0.00948710
               2.26320429                7.00098437               14.09405195                0.73685585               -0.19965796               -0.20006803                0.66589249                0.00040227                0.08786306                0.00574804
               3.26159705                7.00241942               14.05750436                0.72815941               -0.12172638               -0.12188266                0.40588499                0.00018380                0.11023648                0.00318266
               4.26076976                7.00383618               14.02111422                0.72303379               -0.04373402               -0.04375786                0.14584790                0.00008808                0.12218227                0.00128535
               5.26072237                7.00523596               13.98479112                0.72142480                0.03423229                0.03437981               -0.11417268                0.00009366                0.12463842               -0.00032923
               6.26145441                7.00661996               13.94845031                0.72330966                0.11216536                0.11252115               -0.37416227                0.00016464                0.11799377               -0.00200115
               7.26296568                7.00798918               13.91200902                0.72869724                0.19007827                0.19066223               -0.63411946                0.00029502                0.10226352               -0.00409251
               8.26525597                7.00934434               13.87538279                0.73762779                0.26794967                0.26884761               -0.89403851                0.00044961                0.07715179               -0.00703808
               9.26832468                7.01068489               13.83848306                0.75017204                0.34576490                0.34712798               -1.15389059                0.00041096                0.04219651               -0.01134451
              10.27217127                7.01200787               13.80121625                0.88016850                0.38465946                0.42533304               -1.41360618                0.00099159                0.02017938               -0.01738660
               0.26689050                7.99450562               14.16748864                0.88065051               -0.31459685               -0.35529041                1.17969204               -0.00049598                0.01544386                0.01585396
               1.26374453                7.99675647               14.13009990                0.75007168               -0.27581957               -0.27630087                0.91978373                0.00055429                0.04750747                0.00839042
               2.26137411                7.99899383               14.09329374                0.73683547               -0.19806724               -0.19801202                0.66000644                0.00037289                0.09248876                0.00497523
               3.25978319                8.00120980               14.05676155                0.72815125               -0.12005003               -0.12009600                0.40017267                0.00019440                0.11580816                0.00276482
               4.25897311                8.00340689               14.02039380                0.72303528               -0.04204134               -0.04211380                0.14035130                0.00020438                0.12819653                0.00110580
               5.25894236                8.00558737               13.98409589                0.72143208                0.03586023                0.03589920               -0.11943936                0.00026565                0.13073010               -0.00032035
               6.25969031                8.00775212               13.94777949                0.72331854                0.11373291                0.11391680               -0.37920233                0.00031207                0.12381183               -0.00179577
               7.26121702                8.00990201               13.91135793                0.72870396                0.19163648                0.19192204               -0.63895182                0.00039003                0.10738930               -0.00363758
               8.26352304                8.01203849               13.87474184                0.73762992                0.26952248                0.26993922               -0.89870523                0.00055036                0.08103825               -0.00629000
               9.26660747                8.01416230               13.83783617                0.75016989                0.34726372                0.34824682               -1.15846963                0.00062551                0.04428284               -0.01053071
              10.27046832                8.01626877               13.80054225                0.88016697                0.38608493                0.42696626               -1.41821718                0.00118382                0.02127850               -0.01746225
               0.26424199                8.99095896               14.16671070                0.88063150               -0.31289066               -0.35440246                1.17376295               -0.00058296                0.01682757                0.01167445
               1.26111308                8.99400507               14.12928881                0.75004130               -0.27417885               -0.27383253                0.91376150                0.00018409                0.05137667                0.00461108
               2.25875841                8.99702413               14.09250104                0.73681897               -0.19625989               -0.19629224                0.65409354               -0.00002807                0.09944229                0.00287183
               3.25718789                9.00001750               14.05599902                0.72814745               -0.11810676               -0.11841451                0.39444376               -0.00004516                0.12353106                0.00159622
               4.25639628                9.00299391               14.01966624                0.72304124               -0.04027167               -0.04049987                0.13483618                0.00011577                0.13622400                0.00063071
               5.25638245                9.00595395               13.98340536                0.72144387                0.03748636                0.03743835               -0.12473254                0.00018489                0.13880176               -0.00020266
               6.25714601                9.00889830               13.94712528                0.72333199                0.11523317                0.11537396               -0.38427526                0.00019947                0.13164713               -0.00106407
               7.25868712                9.01182762               13.91073624                0.72871522                0.19303427                0.19329209               -0.64381486                0.00017744                0.11463163               -0.00214207
               8.26100669                9.01474312               13.87414448                0.73763614                0.27098966                0.27120704               -0.90338817                0.00028773                0.08703258               -0.00373180
               9.26410691                9.01764983               13.83724575                0.75017043                0.34876639                0.34919775               -1.16304303                0.00049807                0.04775172               -0.00646458
              10.26798202                9.02054719               13.79992454                0.88016619                0.38751094                0.42903942               -1.42281293                0.00116614                0.02310853               -0.01268480
               0.26078661                9.98741757               14.16582971                0.94031069               -0.31035745               -0.35413924                1.16797998                0.04068734                0.02175430                0.00977402
               1.25768304                9.99127982               14.12840174                0.87501308               -0.27127460               -0.27252550                0.90795286                0.03951643                0.05905502                0.00323831
               2.25536112                9.99506799               14.09166439                0.86840632               -0.19352646               -0.19561468                0.64838868                0.03835538                0.10983872                0.00237268
               3.25381251                9.99884151               14.05521130                0.86407443               -0.11610732               -0.11759881                0.38885293                0.03890749                0.13394928                0.00132269
               4.25303897               10.00259689               14.01892958                0.86152420               -0.03854214               -0.03970168                0.12935936                0.03900096                0.14677380                0.00046772
               5.25304167               10.00633614               13.98272045                0.86072731                0.03908286                0.03821902               -0.13009778                0.03905691                0.14934127               -0.00031252
               6.25382063               10.01005960               13.94649165                0.86167211                0.11670376                0.11613036               -0.38952524                0.03904845                0.14203778               -0.00110504
               7.25537574               10.01376786               13.91015207                0.86436340                0.19429779                0.19402372               -0.64894053                0.03901392                0.12470439               -0.00201663
               8.25770659               10.01746263               13.87360601                0.86882258                0.27188100                0.27195065               -0.90838533                0.03890968                0.09653827               -0.00322935
               9.26081336               10.02114626               13.83674591                0.87508802                0.34951627                0.34964293               -1.16793025                0.03999139                0.05508842               -0.00508423
              10.26469691               10.02484956               13.79942679                0.94008414                0.38835512                0.43023631               -1.42767813                0.04181909                0.02866370               -0.01060488
               0.29866239                0.02409777               15.18543060                0.94038820               -0.32345652               -0.36494303                1.20995631               -0.04163040                0.01760293               -0.00503831
               1.29542782                0.02006964               15.14560197                0.87532148               -0.28492589               -0.28458725                0.95253735               -0.03941604                0.04120467               -0.00518723
               2.29296387                0.01606787               15.10618553                0.86874805               -0.20799219               -0.20796812                0.69532868               -0.03839203                0.07592067               -0.00284845
               3.29126798                0.01205065               15.06700602                0.86425075               -0.13113144               -0.13075059                0.43820925               -0.03867623                0.09636385               -0.00177907
               4.29034124                0.00801820               15.02796815                0.86158502               -0.05417374               -0.05363167                0.18117176               -0.03873516                0.10733772               -0.00084006
               5.29018451                0.00396939               14.98899255                0.86073546                0.02282392                0.02349374               -0.07580605               -0.03876821                0.10988908                0.00000383
               6.29079772               -0.00009533               14.95000473                0.86169591                0.09980195                0.10061652               -0.33275285               -0.03875084                0.10436564                0.00080420
               7.29218055               -0.00417567               14.91093207                0.86446927                0.17672497                0.17773518               -0.58970651               -0.03872027                0.09082567                0.00159864
               8.29433222               -0.00827292               14.87170095                0.86906763                0.25361717                0.25493327               -0.84671739               -0.03858834                0.06904882                0.00242400
               9.29725289               -0.01238826               14.83223403                0.87551259                0.33043266                0.33179272               -1.10384677               -0.03955205                0.03842429                0.00328337
              10.30094087               -0.01655112               14.79244528                0.94036731                0.36879858                0.41195058               -1.36117702               -0.03965961                0.01890000                0.00461515
               0.30227421                1.02044834               15.18469159                0.88050723               -0.32256006               -0.36357310                1.20477378               -0.00107753                0.01485616               -0.00485602
               1.29904861                1.01722377               15.14484638                0.75006639               -0.28423815               -0.28409688                0.94733912               -0.00042917                0.03965790               -0.00615679
               2.29658945                1.01398819               15.10543771                0.73701654               -0.20712789               -0.20706182                0.69010747               -0.00037014                0.07484206               -0.00397654
               3.29490606                1.01074314               15.06625222                0.72826650               -0.12974656               -0.12994739                0.43297807               -0.00039050                0.09442880               -0.00253775
               4.29399452                1.00748188               15.02720630                0.72309030               -0.05262326               -0.05282695                0.17593942               -0.00056213                0.10519024               -0.00132617
               5.29385359                1.00420433               14.98822136                0.72144590                0.02441118                0.02430571               -0.08103626               -0.00063228                0.10764875               -0.00024379
               6.29448274                1.00091083               14.94922387                0.72331607                0.10142724                0.10144028               -0.33798898               -0.00060889                0.10215432                0.00075052
               7.29588214                0.99760168               14.91014202                0.72870818                0.17849458                0.17857418               -0.59496629               -0.00051538                0.08873621                0.00168655
               8.29805264                0.99427641               14.87090278                0.73765438                0.25571665                0.25573912               -0.85202104               -0.00057409                0.06711391                0.00258678
               9.30099647                0.99092966               14.83142882                0.75021158                0.33272484                0.33301510               -1.10920664               -0.00049651                0.03680346                0.00346591
              10.30470713                0.98756839               14.79163780                0.88019479                0.37106636                0.41213408               -1.36655237                0.00074568                0.01750662                0.00441578
               0.30508998                2.01682631               15.18388782                0.88023917               -0.32105897               -0.36123852                1.19985867               -0.00117399                0.01226900               -0.00441656
               1.30187939                2.01438771               15.14401919                0.74949172               -0.28264395               -0.28309299                0.94248314               -0.00080722                0.03923642               -0.00578758
               2.29943710                2.01192664               15.10462969                0.73653763               -0.20564549               -0.20557180                0.68526090               -0.00096011                0.07642752               -0.00457361
               3.29776648                2.00945170               15.06546000                0.72803100               -0.12841438               -0.12841417                0.42801567               -0.00098435                0.09566578               -0.00305482
               4.29686881                2.00696166               15.02642563                0.72300946               -0.05117845               -0.05124263                0.17080771               -0.00110931                0.10612332               -0.00162680
               5.29674291                2.00445550               14.98745013                0.72142035                0.02596881                0.02594675               -0.08636166               -0.00119562                0.10841217               -0.00028717
               6.29738819                2.00193347               14.94846082                0.72324169                0.10308722                0.10314420               -0.34351068               -0.00117307                0.10281233                0.00093405
               7.29880466                1.99939581               14.90938664                0.72848228                0.18022845                0.18034915               -0.60066723               -0.00110500                0.08932927                0.00200440
               8.30099276                1.99684186               14.87015498                0.73718159                0.25731649                0.25760518               -0.85786136               -0.00104647                0.06765819                0.00288524
               9.30395099                1.99427204               14.83068879                0.74940968                0.33427897                0.33524791               -1.11511450               -0.00084122                0.03718533                0.00352606
              10.30767834                1.99169156               14.79090342                0.87966174                0.37273526                0.41306132               -1.37242252                0.00033886                0.01771658                0.00374410
               0.30712794                3.01322357               15.18308835                0.88023710               -0.31958001               -0.35946363                1.19500317               -0.00104497                0.01264307                0.00026019
               1.30393214                3.01156191               15.14321790                0.74948743               -0.28108422               -0.28193727                0.93769102               -0.00073501                0.03988814               -0.00120494
               2.30150626                3.00987676               15.10383141                0.73653122               -0.20403980               -0.20437348                0.68041674               -0.00113992                0.07772188               -0.00164701
               3.29985135                3.00817486               15.06467201                0.72802258               -0.12688648               -0.12699435                0.42304622               -0.00119808                0.09739228               -0.00136285
               4.29896853                3.00645703               15.02564865                0.72300076               -0.04967396               -0.04969414                0.16566146               -0.00127046                0.10787613               -0.00079398
               5.29885787                3.00472326               14.98668365                0.72141394                0.02752225                0.02760320               -0.09170674               -0.00131808                0.11008715               -0.00016077
               6.29951897                3.00297372               14.94770385                0.72324040                0.10468890                0.10490871               -0.34905588               -0.00130408                0.10434145                0.00038382
               7.30095164                3.00120866               14.90863768                0.72848866                0.18182546                0.18223700               -0.60639553               -0.00123178                0.09063906                0.00070104
               8.30315548                2.99942852               14.86941196                0.73719734                0.25891503                0.25965511               -0.86373366               -0.00108576                0.06865067                0.00065646
               9.30612994                2.99763462               14.82994858                0.74943466                0.33596876                0.33719147               -1.12106296               -0.00069041                0.03773550                0.00010485
              10.30987486                2.99582961               14.79016164                0.87967663                0.37449122                0.41464452               -1.37834940                0.00049455                0.01797216               -0.00109423
               0.30839240                4.00963704               15.18230819                0.88023361               -0.31808954               -0.35787796                1.19007240               -0.00095363                0.01292828                0.00545316
               1.30521150                4.00874896               15.14242767                0.74948125               -0.27955211               -0.28058240                0.93280542               -0.00052758                0.04075384                0.00256576
               2.30280136                4.00783917               15.10304223                0.73652479               -0.20246297               -0.20306174                0.67548002               -0.00092708                0.07942672                0.00110118
               3.30116225                4.00691181               15.06388910                0.72801580               -0.12531795               -0.12557796                0.41800374               -0.00106693                0.09955128                0.00032482
               4.30029500                4.00596778               15.02487552                0.72299480               -0.04811906               -0.04815335                0.16047936               -0.00114843                0.11026943                0.00000981
               5.30019986                4.00500757               14.98592133                0.72141067                0.02908534                0.02924471               -0.09704426               -0.00118121                0.11248887               -0.00012273
               6.30087671                4.00403165               14.94695162                0.72324188                0.10626774                0.10664651               -0.35454970               -0.00114822                0.10657171               -0.00031999
               7.30232522                4.00304055               14.90789326                0.72849673                0.18341909                0.18407654               -0.61203320               -0.00104184                0.09253096               -0.00080845
               8.30454509                4.00203497               14.86867154                0.73721312                0.26054314                0.26154530               -0.86948630               -0.00083400                0.07004182               -0.00180091
               9.30753608                4.00101587               14.82920687                0.74945787                0.33765775                0.33900355               -1.12687946               -0.00047914                0.03847735               -0.00348790
              10.31129824                3.99998445               14.78941207                0.87969023                0.37621610                0.41632067               -1.38415061                0.00059966                0.01832233               -0.00601562
               0.30888502                5.00606601               15.18154210                0.88022720               -0.31655626               -0.35632126                1.18497498               -0.00087370                0.01331241                0.01002006
               1.30571946                5.00595026               15.14164565                0.74947026               -0.27800782               -0.27909253                0.92772385               -0.00026262                0.04183007                0.00587178
               2.30332487                5.00581552               15.10225806                0.73651600               -0.20090314               -0.20158064                0.67037047               -0.00052946                0.08153966                0.00339612
               3.30170140                5.00566330               15.06310972                0.72800920               -0.12375317               -0.12406226                0.41283953               -0.00070230                0.10223930                0.00175737
               4.30084980                5.00549396               15.02410552                0.72299080               -0.04655119               -0.04658876                0.15524469               -0.00081704                0.11328216                0.00067705
               5.30077037                5.00530816               14.98516274                0.72140999                0.03066103                0.03085494               -0.10235675               -0.00085024                0.11556144               -0.00014887
               6.30146302                5.00510665               14.94620382                0.72324529                0.10785578                0.10829934               -0.35994098               -0.00079461                0.10944394               -0.00102975
               7.30292749                5.00489020               14.90715320                0.72850492                0.18502329                0.18576635               -0.61749826               -0.00065630                0.09495809               -0.00226528
               8.30516349                5.00465942               14.86793383                0.73722653                0.26216931                0.26325052               -0.87501212               -0.00045529                0.07180280               -0.00413996
               9.30817087                5.00441469               14.82846413                0.74947639                0.33930939                0.34069003               -1.13244113               -0.00022513                0.03939863               -0.00689804
              10.31194968                5.00415603               14.78865555                0.87970102                0.37788015                0.41796262               -1.38970806                0.00070637                0.01876891               -0.01069715
               0.30860642                6.00251061               15.18078256                0.88021732               -0.31496806               -0.35475359                1.17967025               -0.00078498                0.01380394                0.01360756
               1.30545674                6.00316711               15.14086462                0.74945341               -0.27643442               -0.27746893                0.92240094                0.00002603                0.04318720                0.00824165
               2.30307773                6.00380755               15.10147328                0.73650407               -0.19934924               -0.19992153                0.66505254               -0.00009778                0.08420138                0.00496365
               3.30146976                6.00443057               15.06233001                0.72800226               -0.12219678               -0.12242009                0.40753160               -0.00030432                0.10561334                0.00270222
               4.30063380                6.00503600               15.02333675                0.72298852               -0.04497907               -0.04498293                0.14994948               -0.00045000                0.11706399                0.00110130
               5.30057018                6.00562467               14.98440756                0.72141173                0.03224876                0.03242900               -0.10763880               -0.00048124                0.11942904               -0.00020256
               6.30127877                6.00619763               14.94546162                0.72325036                0.10945697                0.10984549               -0.36521131               -0.00040457                0.11307250               -0.00156356
               7.30275932                6.00675588               14.90642006                0.72851271                0.18663557                0.18728621               -0.62275985               -0.00024024                0.09802847               -0.00333965
               8.30501149                6.00729998               14.86720267                0.73723672                0.26378300                0.26476240               -0.88026935               -0.00004959                0.07402266               -0.00589854
               9.30803498                6.00782967               14.82772517                0.74948916                0.34091063                0.34223149               -1.13769958                0.00005016                0.04054904               -0.00957677
              10.31182970                6.00834371               14.78789732                0.87970846                0.37947228                0.41954688               -1.39497450                0.00082546                0.01933951               -0.01458912
               0.30755633                6.99897094               15.18001766                0.88020437               -0.31332890               -0.35322027                1.17416800               -0.00066974                0.01446713                0.01569135
               1.30442304                7.00040088               15.14007319                0.74943154               -0.27484358               -0.27569068                0.91685278                0.00029958                0.04499562                0.00916160
               2.30205945                7.00181709               15.10067910                0.73648972               -0.19780874               -0.19807776                0.65954176                0.00020510                0.08771397                0.00544293
               3.30046686                7.00321490               15.06154424                0.72799554               -0.12063768               -0.12067901                0.40209115               -0.00007819                0.10999893                0.00297255
               4.29964670                7.00459430               15.02256647                0.72298829               -0.04338726               -0.04335712                0.14459697               -0.00021609                0.12192562                0.00121610
               5.29959912                7.00595674               14.98365583                0.72141616                0.03385083                0.03397199               -0.11289743               -0.00022297                0.12438684               -0.00023811
               6.30032372                7.00730356               14.94472770                0.72325744                0.11106119                0.11131080               -0.37037805               -0.00013317                0.11775235               -0.00175324
               7.30182034                7.00863592               14.90569930                0.72852067                0.18824960                0.18866574               -0.62784365                0.00004454                0.10203571               -0.00371259
               8.30408871                7.00995467               14.86648624                0.73724447                0.26539036                0.26608840               -0.88528866                0.00026925                0.07695544               -0.00657306
               9.30712815                7.01125932               14.82700021                0.74949706                0.34246990                0.34363174               -1.14268650                0.00031813                0.04207893               -0.01086611
              10.31093811                7.01254697               14.78714830                0.87971295                0.38099594                0.42112353               -1.39997791                0.00096753                0.02011315               -0.01699339
               0.30573314                7.99544621               15.17922984                0.88018972               -0.31165559               -0.35188872                1.16852908               -0.00049490                0.01544027                0.01559582
               1.30261658                7.99765330               15.13925476                0.74940739               -0.27326564               -0.27365945                0.91115497                0.00043976                0.04758098                0.00795829
               2.30026783                7.99984600               15.09986347                0.73647530               -0.19628015               -0.19612203                0.65390462                0.00013114                0.09261075                0.00458003
               3.29869098                8.00201699               15.06074537                0.72799062               -0.11900949               -0.11896534                0.39656393               -0.00012801                0.11590954                0.00249525
               4.29788764                8.00416886               15.02179165                0.72299105               -0.04172573               -0.04174797                0.13920323               -0.00016730                0.12831057                0.00101220
               5.29785647                8.00630411               14.98290796                0.72142398                0.03546456                0.03550038               -0.11815035               -0.00011838                0.13085466               -0.00021843
               6.29859693                8.00842385               14.94400596                0.72326750                0.11263126                0.11275872               -0.37549213               -0.00004710                0.12393092               -0.00150380
               7.30010909                8.01052920               14.90499890                0.72853041                0.18982708                0.19001441               -0.63282912                0.00008998                0.10748272               -0.00318381
               8.30239347                8.01262174               14.86579726                0.73725216                0.26699771                0.26729380               -0.89016939                0.00033740                0.08109208               -0.00572788
               9.30544904                8.01470230               14.82630601                0.74950284                0.34401463                0.34487020               -1.14750951                0.00051792                0.04430659               -0.00994487
              10.30927376                8.01676618               14.78642675                0.87971588                0.38247166                0.42285188               -1.40481899                0.00115896                0.02127140               -0.01697257
               0.30313225                8.99193317               15.17839415                0.88017581               -0.31002087               -0.35108149                1.16286332               -0.00057136                0.01685534                0.01148315
               1.30003204                8.99492770               15.13838523                0.74938581               -0.27169296               -0.27130856                0.90543281                0.00010510                0.05159153                0.00428457
               2.29769839                8.99789465               15.09901319                0.73646472               -0.19452988               -0.19450619                0.64825380               -0.00019620                0.09983895                0.00257886
               3.29614144                9.00083559               15.05992667                0.72798998               -0.11710772               -0.11736139                0.39102708               -0.00027173                0.12396172                0.00139789
               4.29535623                9.00375935               15.02100954                0.72299823               -0.03998409               -0.04017276                0.13379673               -0.00014458                0.13668823                0.00056038
               5.29534176                9.00666674               14.98216455                0.72143627                0.03707264                0.03704524               -0.12342233               -0.00008291                0.13928016               -0.00013303
               6.29609769                9.00955873               14.94330054                0.72328205                0.11412431                0.11426501               -0.38063024               -0.00005048                0.13211224               -0.00085894
               7.29762425                9.01243621               14.90432760                0.72854453                0.19123316                0.19146985               -0.63783823               -0.00003021                0.11504610               -0.00182103
               8.29992235                9.01530055               14.86515168                0.73726382                0.26849142                0.26867093               -0.89506589                0.00014261                0.08734926               -0.00333219
               9.30299407                9.01815673               14.82566823                0.74951130                0.34555936                0.34594095               -1.15233580                0.00042639                0.04792851               -0.00604687
              10.30683354                9.02100400               14.78576152                0.87971964                0.38394631                0.42502381               -1.40965878                0.00115419                0.02316553               -0.01234533
               0.29973265                9.98842458               15.17745666                0.94008424               -0.30754511               -0.35085887                1.15729817                0.04029521                0.02183320                0.00969439
               1.29665720                9.99222713               15.13744146                0.87468768               -0.26883209               -0.27005703                0.89985135                0.03908106                0.05939450                0.00307014
               2.29435601                9.99595588               15.09812062                0.86823070               -0.19181749               -0.19387745                0.64273724                0.03789370                0.11041507                0.00222824
               3.29282085                9.99966976               15.05908386                0.86399648               -0.11512100               -0.11658307                0.38557790                0.03841735                0.13455772                0.00122796
               4.29205359               10.00336541               15.02021863                0.86150299               -0.03827142               -0.03939403                0.12841406                0.03849819                0.14741058                0.00043788
               5.29205542               10.00704501               14.98142620                0.86072362                0.03864321                0.03782673               -0.12873988                0.03855347                0.14999353               -0.00027326
               6.29282645               10.01070915               14.94261432                0.86164737                0.11556238                0.11504196               -0.38587965                0.03855571                0.14268837               -0.00100007
               7.29436667               10.01435859               14.90369176                0.86427870                0.19246751                0.19223841               -0.64301268                0.03854299                0.12531867               -0.00185637
               8.29667580               10.01799516               14.86456252                0.86863771                0.26937242                0.26946155               -0.90016115                0.03847182                0.09705360               -0.00303334
               9.29975412               10.02162112               14.82511853                0.87476044                0.34632434                0.34643960               -1.15736145                0.03957883                0.05541250               -0.00488430
              10.30360229               10.02526665               14.78521410                0.93986204                0.38481728                0.42626505               -1.41466979                0.04142850                0.02880613               -0.01046557
               0.33995450                0.02481298               16.19747391                0.94015651               -0.32043395               -0.36149833                1.19861379               -0.04121427                0.01767058               -0.00493742
               1.33675016                0.02080009               16.15508377                0.87498361               -0.28227252               -0.28194414                0.94372345               -0.03899860                0.04141502               -0.00507353
               2.33430905                0.01681396               16.11310759                0.86856122               -0.20608298               -0.20605854                0.68899400               -0.03796240                0.07629326               -0.00274496
               3.33262850                0.01281326               16.07136893                0.86416691               -0.12996910               -0.12956821                0.43430724               -0.03822736                0.09683187               -0.00170746
               4.33170967                0.00879797               16.02977250                0.86156176               -0.05375088               -0.05316651                0.17966454               -0.03827755                0.10788368               -0.00081246
               5.33155348                0.00476664               15.98823881                0.86073137                0.02251681                0.02324716               -0.07494334               -0.03831039                0.11048435               -0.00001597
               6.33216000                0.00071933               15.94669312                0.86166993                0.09877639                0.09965984               -0.32953442               -0.03830114                0.10497228                0.00073931
               7.33352901               -0.00334398               15.90506252                0.86438014                0.17499378                0.17606626               -0.58413536               -0.03828613                0.09139336                0.00149617
               8.33565988               -0.00742480               15.86327296                0.86887337                0.25119021                0.25254511               -0.83878067               -0.03817642                0.06951394                0.00229690
               9.33855282               -0.01152428               15.82124664                0.87516998                0.32730887                0.32867762               -1.09350935               -0.03915163                0.03870724                0.00314887
              10.34220606               -0.01567125               15.77889686                0.94013568                0.36532417                0.40805772               -1.34837469               -0.03926624                0.01902866                0.00451972
               0.34355525                1.02119799               16.19668299                0.88004811               -0.31955661               -0.36011357                1.19343479               -0.00104936                0.01488049               -0.00459919
               1.34035968                1.01798065               16.15427614                0.74940057               -0.28162037               -0.28143745                0.93853194               -0.00034519                0.03982242               -0.00584677
               2.33792284                1.01475338               16.11230759                0.73665170               -0.20527297               -0.20513669                0.68379444               -0.00019590                0.07518939               -0.00366964
               3.33625422                1.01151758               16.07056290                0.72810308               -0.12863196               -0.12875491                0.42910384               -0.00015002                0.09489615               -0.00231828
               4.33535020                1.00826631               16.02895846                0.72304505               -0.05222611               -0.05236281                0.17446363               -0.00028180                0.10574990               -0.00123673
               5.33520970                1.00499911               15.98741548                0.72143788                0.02410518                0.02404471               -0.08013953               -0.00034382                0.10825434               -0.00030162
               6.33583230                1.00171593               15.94586012                0.72326528                0.10042580                0.10045629               -0.33473182               -0.00034381                0.10274839                0.00054917
               7.33721822                0.99841668               15.90422016                0.72853424                0.17679804                0.17686804               -0.58934700               -0.00030151                0.08925591                0.00136423
               8.33936827                0.99510065               15.86242214                0.73727510                0.25331553                0.25330907               -0.84402189               -0.00042922                0.06749697                0.00218364
               9.34228453                0.99176249               15.82038832                0.74954190                0.32960497                0.32985325               -1.09879083               -0.00042573                0.03700440                0.00303890
              10.34596036                0.98840932               15.77803614                0.87974183                0.36758381                0.40820021               -1.35366750                0.00076261                0.01757299                0.00404753
               0.34636821                2.01761071               16.19582953                0.87978292               -0.31803367               -0.35774942                1.18844261               -0.00113372                0.01228011               -0.00399932
               1.34318787                2.01517134               16.15339970                0.74883329               -0.28000039               -0.28038524                0.93357529               -0.00065824                0.03935175               -0.00527189
               2.34076820                2.01271123               16.11145050                0.73617987               -0.20376515               -0.20360798                0.67885957               -0.00065267                0.07663253               -0.00408536
               3.33911257                2.01023816               16.06972072                0.72787090               -0.12728531               -0.12719873                0.42409502               -0.00057392                0.09589638               -0.00270774
               4.33822250                2.00775072               16.02812649                0.72296509               -0.05077927               -0.05078085                0.16934179               -0.00063506                0.10640279               -0.00148798
               5.33809698                2.00524754               15.98659139                0.72141230                0.02565328                0.02565348               -0.08539221               -0.00070777                0.10872154               -0.00038486
               6.33873556                2.00272846               15.94504263                0.72319165                0.10206381                0.10209873               -0.34011845               -0.00072250                0.10311724                0.00060497
               7.34013826                2.00019338               15.90340888                0.72831155                0.17849603                0.17855785               -0.59485775               -0.00073558                0.08959115                0.00147866
               8.34230548                1.99764138               15.86161730                0.73680959                0.25486846                0.25507491               -0.84963142               -0.00078894                0.06784516                0.00222549
               9.34523563                1.99507278               15.81959069                0.74875273                0.33110828                0.33197711               -1.10445054               -0.00071174                0.03728597                0.00282327
              10.34892765                1.99249275               15.77724445                0.87921751                0.36920177                0.40903427               -1.35930180                0.00037302                0.01774902                0.00311543
               0.34841131                3.01404301               16.19498090                0.87977807               -0.31653158               -0.35594740                1.18349417               -0.00099984                0.01263345                0.00068774
               1.34524599                3.01237294               16.15254974                0.74882418               -0.27841718               -0.27916829                0.92866795               -0.00057863                0.03991797               -0.00068688
               2.34284297                3.01068122               16.11060316                0.73617017               -0.20213688               -0.20236357                0.67392141               -0.00083027                0.07774743               -0.00119024
               3.34120326                3.00897360               16.06888269                0.72786076               -0.12574203               -0.12575433                0.41907714               -0.00079837                0.09737449               -0.00104526
               4.34032812                3.00725069               16.02729806                0.72295574               -0.04927261               -0.04923537                0.16420680               -0.00081606                0.10786492               -0.00066920
               5.34021780                3.00551218               15.98577187                0.72140556                0.02719438                0.02727571               -0.09066110               -0.00085261                0.11009173               -0.00025178
               6.34087201                3.00375791               15.94423100                0.72318950                0.10363888                0.10379817               -0.34552356               -0.00087182                0.10435097                0.00008152
               7.34229058                3.00198784               15.90260380                0.72831578                0.18005352                0.18035383               -0.60038856               -0.00087151                0.09063884                0.00021648
               8.34447308                3.00020215               15.86081698                0.73682147                0.25641715                0.25701316               -0.85526182               -0.00082748                0.06863612                0.00004291
               9.34741892                2.99840204               15.81879254                0.74877221                0.33274021                0.33380304               -1.11013390               -0.00055655                0.03772318               -0.00055839
              10.35112789                2.99659001               15.77644492                0.87922929                0.37089628                0.41051899               -1.36497128                0.00053151                0.01795541               -0.00170057
               0.34968834                4.01049176               16.19415101                0.87977257               -0.31502546               -0.35434443                1.17850103               -0.00091444                0.01289765                0.00579192
               1.34653809                4.00958797               16.15171013                0.74881445               -0.27687030               -0.27776860                0.92370352               -0.00040622                0.04071001                0.00295609
               2.34415094                4.00866396               16.10976420                0.73616131               -0.20054792               -0.20101645                0.66892429               -0.00069072                0.07930508                0.00143733
               3.34252713                4.00772307               16.06804916                0.72785272               -0.12416711               -0.12432087                0.41401022               -0.00076794                0.09933824                0.00055502
               4.34166759                4.00676601               16.02647319                0.72294933               -0.04772055               -0.04769955                0.15904571               -0.00081324                0.11003412                0.00010186
               5.34157272                4.00579305               15.98495655                0.72140204                0.02874384                0.02888841               -0.09592874               -0.00083991                0.11225917               -0.00018257
               6.34224247                4.00480442               15.94342449                0.72319030                0.10519344                0.10548360               -0.35089952               -0.00083094                0.10635396               -0.00052843
               7.34367659                4.00380045               15.90180391                0.72832217                0.18161313                0.18212002               -0.60586488               -0.00077552                0.09232795               -0.00114672
               8.34587473                4.00278165               15.86002015                0.73683424                0.25800270                0.25881500               -0.86081860               -0.00064116                0.06986918               -0.00223422
               9.34883664                4.00174884               15.81799390                0.74879117                0.33437981                0.33552363               -1.11573565               -0.00037827                0.03837533               -0.00396309
              10.35256233                4.00070313               15.77563853                0.87924048                0.37256890                0.41211900               -1.37056345                0.00062811                0.01826554               -0.00645809
               0.35020059                5.00695612               16.19333387                0.87976548               -0.31349233               -0.35278759                1.17339897               -0.00084661                0.01327179                0.01021046
               1.34706567                5.00681757               16.15087719                0.74880222               -0.27532707               -0.27626636                0.91861213               -0.00020217                0.04175225                0.00605885
               2.34469405                5.00666089               16.10892889                0.73615172               -0.19899119               -0.19952667                0.66381452               -0.00041420                0.08134984                0.00355128
               3.34308584                5.00648718               16.06721819                0.72784570               -0.12260830               -0.12280479                0.40886267               -0.00055960                0.10193553                0.00186320
               4.34224188                5.00629670               16.02565101                0.72294519               -0.04616256               -0.04614454                0.15384789               -0.00066041                0.11294277                0.00072374
               5.34216259                5.00608995               15.98414513                0.72140127                0.03030524                0.03047877               -0.10118340               -0.00069316                0.11522233               -0.00016491
               6.34284799                5.00586758               15.94262320                0.72319338                0.10676272                0.10710655               -0.35621251               -0.00064989                0.10911881               -0.00110693
               7.34429785                5.00563024               15.90100973                0.72832958                0.18319413                0.18377101               -0.61123266               -0.00053543                0.09465775               -0.00239728
               8.34651187                5.00537845               15.85922780                0.73684626                0.25960134                0.26047516               -0.86623133               -0.00036819                0.07155307               -0.00431516
               9.34948987                5.00511251               15.81719621                0.74880776                0.33600009                0.33716397               -1.12117479               -0.00017971                0.03925249               -0.00709822
              10.35323187                5.00483239               15.77482709                0.87925016                0.37419989                0.41372201               -1.37600001                0.00071820                0.01869160               -0.01089684
               0.34994851                6.00343601               16.19252162                0.87975643               -0.31192342               -0.35124019                1.16815871               -0.00077085                0.01376770                0.01363364
               1.34682927                6.00406265               16.15004332                0.74878685               -0.27377343               -0.27466893                0.91336150                0.00002191                0.04312565                0.00820993
               2.34447304                6.00467343               16.10809131                0.73614084               -0.19745731               -0.19789225                0.65856741               -0.00011021                0.08404122                0.00492671
               3.34288012                6.00526698               16.06638574                0.72783938               -0.12107087               -0.12118397                0.40361966               -0.00032464                0.10534390                0.00267735
               4.34205162                6.00584312               16.02482956                0.72294315               -0.04460741               -0.04455504                0.14860827               -0.00047770                0.11676076                0.00109972
               5.34198798                6.00640263               15.98333734                0.72140307                0.03187834                0.03204262               -0.10642107               -0.00051348                0.11912503               -0.00017577
               6.34268919                6.00694655               15.94182843                0.72319854                0.10835146                0.10864876               -0.36144973               -0.00043751                0.11277888               -0.00150887
               7.34415501                6.00747587               15.90022405                0.72833764                0.18479561                0.18529232               -0.61647067               -0.00027007                0.09775394               -0.00326265
               8.34638510                6.00799115               15.85844412                0.73685700                0.26120508                0.26199206               -0.87147118               -0.00007289                0.07379148               -0.00581018
               9.34937911                6.00849212               15.81640470                0.74882129                0.33759160                0.33871131               -1.12641771                0.00003731                0.04041316               -0.00949412
              10.35313693                6.00897757               15.77401625                0.87925801                0.37578227                0.41530884               -1.38124789                0.00081957                0.01926559               -0.01453721
               0.34893190                6.99993131               16.19170243                0.87974567               -0.31032091               -0.34974849                1.16278668               -0.00066430                0.01444758                0.01558189
               1.34582869                7.00132419               16.14919725                0.74876884               -0.27221917               -0.27295246                0.90796183                0.00024873                0.04499508                0.00895725
               2.34348751                7.00270304               16.10724279                0.73612917               -0.19595156               -0.19610429                0.65319303                0.00009924                0.08767099                0.00525545
               3.34190966                7.00406351               16.06554618                0.72783414               -0.11954153               -0.11948502                0.39828869               -0.00021856                0.10987452                0.00284554
               4.34109668                7.00540560               16.02400616                0.72294352               -0.04303835               -0.04295282                0.14332935               -0.00037937                0.12178109                0.00117538
               5.34104889                7.00673080               15.98253317                0.72140773                0.03346531                0.03358301               -0.11164583               -0.00039395                0.12424342               -0.00018217
               6.34176599                7.00804055               15.94104275                0.72320607                0.10994805                0.11013239               -0.36662192               -0.00029582                0.11761139               -0.00160302
               7.34324785                7.00933608               15.89945214                0.72834678                0.18640885                0.18670838               -0.62159505               -0.00009478                0.10189569               -0.00348217
               8.34549417                7.01061829               15.85767702                0.73686696                0.26281742                0.26336713               -0.87655763                0.00016628                0.07682823               -0.00628953
               9.34850420                7.01188673               15.81562933                0.74883232                0.33916006                0.34016353               -1.13148465                0.00026361                0.04200209               -0.01057278
              10.35227737                7.01313857               15.77321669                0.87926424                0.37731681                0.41692589               -1.38632520                0.00094952                0.02006408               -0.01675256
               0.34714946                7.99644104               16.19085923                0.87973405               -0.30869502               -0.34847582                1.15732447               -0.00049134                0.01544318                0.01542560
               1.34406251                7.99860360               16.14832300                0.74874999               -0.27068788               -0.27100648                0.90246349                0.00037467                0.04766760                0.00768189
               2.34173571                8.00075134               16.10637183                0.73611838               -0.19446583               -0.19422428                0.64773560               -0.00000427                0.09273718                0.00433177
               3.34017320                8.00287728               16.06469283                0.72783121               -0.11794866               -0.11782704                0.39290023               -0.00030824                0.11599443                0.00232750
               4.33937673                8.00498406               16.02317786                0.72294705               -0.04140267               -0.04137301                0.13802221               -0.00037557                0.12839338                0.00095402
               5.33934514                8.00707429               15.98173289                0.72141585                0.03506279                0.03511194               -0.11686844               -0.00033471                0.13094158               -0.00015628
               6.34007799                8.00914920               15.94026965                0.72321677                0.11151140                0.11161041               -0.37176139               -0.00025123                0.12401165               -0.00132479
               7.34157537                8.01121004               15.89870135                0.72835821                0.18798917                0.18811272               -0.62665679               -0.00008311                0.10754215               -0.00290437
               8.34383777                8.01325849               15.85693845                0.73687782                0.26443667                0.26464665               -0.88155501                0.00021148                0.08112222               -0.00537974
               9.34686411                8.01529539               15.81488598                0.74884261                0.34072418                0.34148166               -1.13644598                0.00045181                0.04431982               -0.00958045
              10.35065226                8.01731609               15.77244587                0.87926973                0.37881507                0.41871869               -1.39129851                0.00113803                0.02126074               -0.01666965
               0.34459695                8.99296180               16.18996797                0.87972308               -0.30710728               -0.34772979                1.15184415               -0.00056285                0.01687715                0.01135943
               1.34152588                8.99590406               16.14739746                0.74873349               -0.26916021               -0.26874199                0.89694724                0.00006063                0.05176661                0.00407648
               2.33921375                8.99881856               16.10546611                0.73611123               -0.19275554               -0.19268276                0.64226785               -0.00028938                0.10013637                0.00239569
               3.33767077                9.00170696               16.06381956                0.72783243               -0.11607916               -0.11627956                0.38750400               -0.00039776                0.12424860                0.00127463
               4.33689216                9.00457814               16.02234218                0.72295497               -0.03968551               -0.03982901                0.13270566               -0.00029044                0.13698474                0.00051635
               5.33687706                9.00743304               15.98093692                0.72142841                0.03665218                0.03665430               -0.12210358               -0.00023387                0.13958313               -0.00009121
               6.33762521                9.01027276               15.93951267                0.72323187                0.11299204                0.11314244               -0.37691543               -0.00019254                0.13240556               -0.00073407
               7.33913690                9.01309834               15.89797947                0.72837384                0.18939188                0.18961797               -0.63173184               -0.00014961                0.11530496               -0.00162456
               8.34141304                9.01591123               15.85624316                0.73689233                0.26593703                0.26609036               -0.88655997                0.00005713                0.08754504               -0.00308641
               9.34445564                9.01871637               15.81419903                0.74885528                0.34228454                0.34262840               -1.14140665                0.00038189                0.04803961               -0.00578938
              10.34825874                9.02151294               15.77173136                0.87927589                0.38030970                0.42095033               -1.39626940                0.00113963                0.02319727               -0.01214015
               0.34125368                9.98948644               16.18897568                0.93985861               -0.30467146               -0.34753559                1.14642169                0.03990438                0.02188829                0.00964824
               1.33820696                9.99322876               16.14639877                0.87436274               -0.26633315               -0.26753046                0.89151400                0.03867083                0.05964850                0.00296568
               2.33592702                9.99689768               16.10451914                0.86805477               -0.19006518               -0.19208748                0.63687997                0.03747344                0.11082419                0.00214097
               3.33440566               10.00055169               16.06292286                0.86391812               -0.11410844               -0.11552781                0.38215916                0.03797935                0.13495237                0.00117117
               4.33364485               10.00418748               16.02149786                0.86148152               -0.03799079               -0.03906571                0.12740256                0.03805264                0.14781142                0.00042012
               5.33364584               10.00780737               15.98014566                0.86071974                0.03819979                0.03743293               -0.12736588                0.03810718                0.15040247               -0.00025003
               6.33440884               10.01141205               15.93877405                0.86162237                0.11440361                0.11392883               -0.38213469                0.03811513                0.14309632               -0.00093808
               7.33593392               10.01500240               15.89729181                0.86419365                0.19060213                0.19040639               -0.63690315                0.03811438                0.12570301               -0.00176179
               8.33822089               10.01858030               15.85560279                0.86845255                0.26680556                0.26690743               -0.89167976                0.03806207                0.09737680               -0.00291787
               9.34127003               10.02214796               15.81359868                0.87443335                0.34305092                0.34315934               -1.14647980                0.03917881                0.05562102               -0.00476775
              10.34508190               10.02573510               15.77113339                0.93964071                0.38118754                0.42221554               -1.40133245                0.04103031                0.02889871               -0.01039247
               0.38379610                0.02558087               17.20940288                0.93992631               -0.31736422               -0.35801349                1.18710543               -0.04080055                0.01772753               -0.00486880
               1.38062245                0.02158343               17.16447644                0.87464750               -0.27957602               -0.27925337                0.93473651               -0.03859454                0.04158701               -0.00499696
               2.37820457                0.01761297               17.11996541                0.86837500               -0.20413740               -0.20410841                0.68250596               -0.03755469                0.07658596               -0.00266985
               3.37653970                0.01362855               17.07569217                0.86408315               -0.12877697               -0.12835637                0.43029100               -0.03780665                0.09718281               -0.00165442
               4.37562904                0.00963003               17.03156144                0.86153843               -0.05330674               -0.05268650                0.17809487               -0.03785090                0.10828568               -0.00078993
               5.37547357                0.00561572               16.98749369                0.86072719                0.02222099                0.02299887               -0.07408509               -0.03788329                0.11091992               -0.00002624
               6.37607346                0.00158546               16.94341404                0.86164390                0.09775005                0.09868442               -0.32626004               -0.03787904                0.10541366                0.00069769
               7.37742857               -0.00246102               16.89924936                0.86429116                0.17324647                0.17436243               -0.57844840               -0.03787373                0.09180317                0.00142794
               8.37953838               -0.00652533               16.85492533                0.86867978                0.24872843                0.25010822               -0.83067332               -0.03777817                0.06984752                0.00221032
               9.38240314               -0.01060865               16.81036384                0.87482916                0.32413132                0.32550396               -1.08295873               -0.03875650                0.03891067                0.00305522
              10.38602101               -0.01473929               16.76547778                0.93990552                0.36178711                0.40410349               -1.33533894               -0.03887154                0.01912089                0.00445539
               0.38738553                1.02200074               17.20856028                0.87959268               -0.31650678               -0.35662305                1.18196103               -0.00102634                0.01490499               -0.00441760
               1.38422046                1.01879090               17.16361702                0.74873941               -0.27895287               -0.27873820                0.92958126               -0.00029268                0.03996619               -0.00563326
               2.38180647                1.01557188               17.11911360                0.73628879               -0.20336765               -0.20318005                0.67734922               -0.00008790                0.07547020               -0.00344954
               3.38015311                1.01234498               17.07483429                0.72794023               -0.12747667               -0.12753969                0.42513004                0.00000008                0.09525001               -0.00215770
               4.37925694                1.00910316               17.03069557                0.72299979               -0.05180439               -0.05188621                0.17293396               -0.00010546                0.10616486               -0.00116636
               5.37911702                1.00584571               16.98661857                0.72142971                0.02380493                0.02378479               -0.07924446               -0.00016154                0.10870028               -0.00033392
               6.37973304                1.00257231               16.94252924                0.72321456                0.09941058                0.09946125               -0.33142214               -0.00017595                0.10318363                0.00041607
               7.38110523                0.99928260               16.89835508                0.72836096                0.17506899                0.17513845               -0.58362270               -0.00016599                0.08963376                0.00114484
               8.38323442                0.99597575               16.85402234                0.73689787                0.25086616                0.25084361               -0.83587119               -0.00033672                0.06777267                0.00190459
               9.38612255                0.99264639               16.80945301                0.74887681                0.32642638                0.32664628               -1.08818868               -0.00037968                0.03714824                0.00273939
              10.38976294                0.98930174               16.76456445                0.87929240                0.36403888                0.40421954               -1.34057815                0.00077323                0.01761710                0.00378931
               0.39019524                2.01844841               17.20765667                0.87933161               -0.31497888               -0.35424428                1.17694142               -0.00110357                0.01229453               -0.00370277
               1.38704545                2.01600867               17.16269070                0.74818170               -0.27732552               -0.27765752                0.92458272               -0.00056306                0.03947181               -0.00491375
               2.38464873                2.01354936               17.11820688                0.73582548               -0.20185144               -0.20163105                0.67237884               -0.00045705                0.07683133               -0.00373879
               3.38300843                2.01107775               17.07394190                0.72771217               -0.12612685               -0.12597377                0.42011086               -0.00031194                0.09609795               -0.00245615
               4.38212620                2.00859230               17.02981247                0.72292101               -0.05036153               -0.05031087                0.16783606               -0.00033110                0.10663422               -0.00138023
               5.38200120                2.00609142               16.98574229                0.72140424                0.02534235                0.02536769               -0.08443463               -0.00039400                0.10897164               -0.00044194
               6.38263304                2.00357469               16.94165846                0.72314197                0.10103065                0.10105899               -0.33670787               -0.00043191                0.10335933                0.00038530
               7.38402181                2.00104175               16.89748948                0.72814228                0.17674088                0.17676804               -0.58899844               -0.00049654                0.08979444                0.00111918
               8.38616786                1.99849154               16.85316235                0.73644108                0.25238723                0.25253895               -0.84132047               -0.00062129                0.06798593                0.00176878
               9.38906955                1.99592428               16.80859978                0.74810250                0.32789599                0.32869221               -1.09367732               -0.00062641                0.03736039                0.00233301
              10.39272578                1.99334510               16.76371738                0.87877804                0.36562275                0.40498941               -1.34604895                0.00039516                0.01776897                0.00267556
               0.39224294                3.01491585               17.20675824                0.87932525               -0.31346949               -0.35242523                1.17195016               -0.00096678                0.01263641                0.00099588
               1.38910825                3.01323775               17.16179126                0.74816992               -0.27573472               -0.27640227                0.91961915               -0.00047645                0.03998614               -0.00032139
               2.38672825                3.01153926               17.11730984                0.73581401               -0.20021576               -0.20035898                0.66739794               -0.00062766                0.07783400               -0.00086593
               3.38510393                3.00982551               17.07305356                0.72770107               -0.12457988               -0.12451706                0.41507926               -0.00053626                0.09741643               -0.00081568
               4.38423665                3.00809694               17.02893279                0.72291132               -0.04885874               -0.04877199                0.16272547               -0.00051729                0.10790600               -0.00057346
               5.38412676                3.00635307               16.98487043                0.72139731                0.02687093                0.02696221               -0.08963757               -0.00054567                0.11014012               -0.00030754
               6.38477407                3.00459349               16.94079338                0.72313929                0.10258463                0.10270980               -0.34200595               -0.00058590                0.10439606               -0.00012389
               7.38617845                3.00281797               16.89662991                0.72814521                0.17826961                0.17849697               -0.59438509               -0.00063234                0.09066622               -0.00011908
               8.38833946                3.00102653               16.85230672                0.73645063                0.25390094                0.25439599               -0.84677763               -0.00065524                0.06864125               -0.00038565
               9.39125647                2.99922024               16.80774590                0.74811869                0.32948765                0.33043262               -1.09917188               -0.00046693                0.03772170               -0.00102392
              10.39492921                2.99740153               16.76286222                0.87878793                0.36727450                0.40640119               -1.35153399                0.00055504                0.01794182               -0.00212851
               0.39353211                4.01139991               17.20587821                0.87931861               -0.31195963               -0.35081197                1.16693190               -0.00088492                0.01288735                0.00604233
               1.39041252                4.01048062               17.16090174                0.74815821               -0.27418457               -0.27497528                0.91461930               -0.00032392                0.04073135                0.00323914
               2.38804842                4.00954218               17.11642071                0.73580380               -0.19862500               -0.19899142                0.66237772               -0.00052984                0.07929677                0.00168255
               3.38644002                4.00858741               17.07216931                0.72769235               -0.12300652               -0.12307609                0.41001303               -0.00056367                0.09925197                0.00072570
               4.38558829                4.00761686               17.02805644                0.72290465               -0.04731380               -0.04724413                0.15759510               -0.00058350                0.10992586                0.00017379
               5.38549374                4.00663066               16.98400276                0.72139366                0.02840669                0.02855040               -0.09484221               -0.00060528                0.11214977               -0.00022071
               6.38615643                4.00562888               16.93993363                0.72313968                0.10411894                0.10435433               -0.34728710               -0.00061222                0.10624488               -0.00067533
               7.38757612                4.00461169               16.89577596                0.72815054                0.17980290                0.18020748               -0.59973751               -0.00059150                0.09221728               -0.00138928
               8.38975248                4.00357946               16.85145516                0.73646153                0.25545461                0.25613146               -0.85218712               -0.00050768                0.06976670               -0.00254723
               9.39268521                4.00253293               16.80689216                0.74813498                0.33109075                0.33208435               -1.10461310               -0.00030843                0.03831303               -0.00430800
              10.39637430                4.00147312               16.76200080                0.87879761                0.36890864                0.40794198               -1.35696879                0.00064610                0.01822476               -0.00678165
               0.39406381                5.00789961               17.20501008                0.87931117               -0.31043191               -0.34925886                1.16184282               -0.00082452                0.01325493                0.01035944
               1.39095949                5.00773824               17.16001789                0.74814538               -0.27264731               -0.27346862                0.90953719               -0.00015680                0.04175111                0.00620642
               2.38861086                5.00755943               17.11553435                0.73579380               -0.19707546               -0.19749998                0.65728379               -0.00032686                0.08129552                0.00367594
               3.38701798                5.00736399               17.07128698                0.72768515               -0.12145676               -0.12156429                0.40489296               -0.00045032                0.10178634                0.00195025
               4.38618173                5.00715206               17.02718248                0.72290048               -0.04576745               -0.04570049                0.15243873               -0.00053934                0.11276080                0.00076367
               5.38610263                5.00692407               16.98313907                0.72139281                0.02995351                0.03012204               -0.10004081               -0.00057099                0.11503436               -0.00017657
               6.38678080                5.00668057               16.93907957                0.72314252                0.10567061                0.10595140               -0.35252972               -0.00053708                0.10893214               -0.00116974
               7.38821604                5.00642212               16.89492854                0.72815740                0.18136327                0.18182614               -0.60502154               -0.00044136                0.09447678               -0.00250601
               8.39040806                5.00614916               16.85060920                0.73647262                0.25702964                0.25775474               -0.85750487               -0.00030071                0.07139525               -0.00445966
               9.39335664                5.00586193               16.80604063                0.74815025                0.33268476                0.33368690               -1.10995048               -0.00014472                0.03915883               -0.00726304
              10.39706176                5.00556037               16.76113555                0.87880655                0.37051218                0.40951206               -1.36230467                0.00072528                0.01863640               -0.01106141
               0.39383836                6.00441473               17.20414573                0.87930269               -0.30887997               -0.34773220                1.15666249               -0.00075704                0.01375326                0.01366950
               1.39074956                6.00501125               17.15913185                0.74813100               -0.27111091               -0.27189443                0.90435052                0.00002710                0.04313394                0.00821024
               2.38841614                6.00559219               17.11464463                0.73578364               -0.19555901               -0.19588763                0.65209960               -0.00010215                0.08400319                0.00492264
               3.38683838                6.00615613               17.07040240                0.72767924               -0.11993632               -0.11996321                0.39970949               -0.00031638                0.10521144                0.00267638
               4.38601742                6.00670285               17.02630891                0.72289862               -0.04422851               -0.04412734                0.14725346               -0.00047082                0.11659462                0.00110592
               5.38595381                6.00723310               16.98227914                0.72139466                0.03151130                0.03167360               -0.10523040               -0.00050892                0.11895108               -0.00016113
               6.38664764                6.00774791               16.93823262                0.72314768                0.10724486                0.10748545               -0.35772517               -0.00043569                0.11260405               -0.00148647
               7.38809871                6.00824821               16.89409064                0.72816555                0.18295087                0.18334289               -0.61022318               -0.00027102                0.09758248               -0.00323484
               8.39030666                6.00873455               16.84977325                0.73648355                0.25861985                0.25926953               -0.86271201               -0.00007582                0.07364070               -0.00578147
               9.39327111                6.00920667               16.80519682                0.74816409                0.33426282                0.33523294               -1.11516201                0.00003474                0.04032374               -0.00947247
              10.39699192                6.00966336               16.76027236                0.87881453                0.37208111                0.41109627               -1.36751991                0.00081465                0.01921170               -0.01453600
               0.39285562                7.00094497               17.20327339                0.87929331               -0.30730488               -0.34627775                1.15139449               -0.00065664                0.01444335                0.01552560
               1.38978258                7.00230035               17.15823243                0.74811543               -0.26958396               -0.27022644                0.89906499                0.00022399                0.04504168                0.00884141
               2.38746394                7.00364168               17.11374296                0.73577365               -0.19407951               -0.19414369                0.64683122                0.00004836                0.08770569                0.00515051
               3.38590098                7.00496472               17.06951002                0.72767495               -0.11843062               -0.11829857                0.39446751               -0.00028543                0.10982989                0.00277579
               4.38509533                7.00626951               17.02543306                0.72289936               -0.04267949               -0.04254663                0.14204119               -0.00045737                0.12170944                0.00115429
               5.38504740                7.00755755               16.98142292                0.72139944                0.03308217                0.03320668               -0.11041305               -0.00047656                0.12416430               -0.00014976
               6.38575698                7.00883028               16.93739526                0.72315542                0.10882927                0.10897591               -0.36287969               -0.00037602                0.11752685               -0.00151889
               7.38722398                7.01008897               16.89326740                0.72817530                0.18455561                0.18477832               -0.61535204               -0.00016569                0.10180463               -0.00335405
               8.38944809                7.01133455               16.84895509                0.73649468                0.26022706                0.26067287               -0.86782021                0.00011151                0.07674062               -0.00613261
               9.39242852                7.01256658               16.80437052                0.74817680                0.33582900                0.33671586               -1.12025988                0.00023326                0.04194915               -0.01041270
              10.39616467                7.01378229               16.75942179                0.87882173                0.37361461                0.41273748               -1.37262556                0.00093563                0.02002588               -0.01662831
               0.39111446                7.99748917               17.20237633                0.87928353               -0.30571256               -0.34505322                1.14606529               -0.00048635                0.01545307                0.01532901
               1.38805733                7.99960672               17.15730403                0.74809975               -0.26808560               -0.26834492                0.89371223                0.00033952                0.04776985                0.00751658
               2.38575274                8.00170931               17.11281818                0.73576505               -0.19262463               -0.19232097                0.64150668               -0.00007478                0.09287896                0.00418531
               3.38420484                8.00379015               17.06860338                0.72767323               -0.11686497               -0.11668352                0.38918649               -0.00040139                0.11607936                0.00222950
               4.38341544                8.00585192               17.02455210                0.72290338               -0.04106617               -0.04099203                0.13680936               -0.00048362                0.12846086                0.00092028
               5.38338351                8.00789724               16.98057059                0.72140773                0.03466253                0.03473013               -0.11559495               -0.00044798                0.13100291               -0.00012034
               6.38410869                8.00992743               16.93657073                0.72316644                0.11038073                0.11046803               -0.36801283               -0.00035962                0.12406286               -0.00122149
               7.38559113                8.01194378               16.89246576                0.72818760                0.18612923                0.18621404               -0.62043928               -0.00017712                0.10757454               -0.00274312
               8.38783128                8.01394801               16.84816616                0.73650719                0.26184473                0.26199690               -0.87286901                0.00014048                0.08113344               -0.00517910
               9.39082802                8.01594099               16.80357709                0.74818950                0.33739641                0.33808288               -1.12528746                0.00041228                0.04432430               -0.00937282
              10.39457921                8.01791811               16.75860078                0.87882854                0.37511847                0.41456896               -1.37766283                0.00112041                0.02124775               -0.01650606
               0.38861080                8.99404390               17.20143104                0.87927423               -0.30415728               -0.34435234                1.14071923               -0.00055592                0.01689922                0.01129084
               1.38556923                8.99693346               17.15632417                0.74808612               -0.26658920               -0.26614460                0.88834122                0.00003687                0.05192685                0.00395049
               2.38327902                8.99979526               17.11185855                0.73575989               -0.19094399               -0.19083310                0.63617089               -0.00033715                0.10038857                0.00228724
               3.38175035                9.00263105               17.06767675                0.72767554               -0.11502204               -0.11517795                0.38389725               -0.00046254                0.12446044                0.00120212
               4.38097858                9.00544967               17.02366366                0.72291173               -0.03937107               -0.03947397                0.13156994               -0.00036646                0.13718506                0.00049034
               5.38096293                9.00825215               16.97972248                0.72142043                0.03623331                0.03626456               -0.12078430               -0.00031338                0.13977863               -0.00006736
               6.38170324                9.01103964               16.93576223                0.72318179                0.11184649                0.11200995               -0.37315241               -0.00026831                0.13258963               -0.00066216
               7.38319986                9.01381325               16.89169296                0.72820394                0.18752228                0.18774468               -0.62552997               -0.00021437                0.11546357               -0.00151120
               8.38545369                9.01657448               16.84742048                0.73652310                0.26334045                0.26347736               -0.87791568                0.00000903                0.08766295               -0.00294477
               9.38846667                9.01932824               16.80284009                0.74820422                0.33895701                0.33927429               -1.13030633                0.00035473                0.04810831               -0.00564294
              10.39223283                9.02207367               16.75783614                0.87883588                0.37661624                0.41683131               -1.38269106                0.00112468                0.02321353               -0.01203305
               0.38532423                9.99060213               17.20038509                0.93963456               -0.30175212               -0.34417762                1.13539612                0.03951339                0.02193566                0.00963104
               1.38230671                9.99428383               17.15527174                0.87403970               -0.26379132               -0.26496260                0.88301050                0.03827439                0.05986485                0.00290499
               2.38004841                9.99789265               17.11085822                0.86787953               -0.18827694               -0.19026104                0.63087653                0.03707714                0.11115402                0.00209253
               3.37854117               10.00148660               17.06672705                0.86383991               -0.11306944               -0.11444555                0.37863409                0.03757195                0.13523689                0.00113989
               4.37778702               10.00506244               17.02276668                0.86145999               -0.03769468               -0.03872333                0.12633656                0.03764077                0.14808198                0.00041056
               5.37778728               10.00862253               16.97887889                0.86071578                0.03776029                0.03703803               -0.12598866                0.03769451                0.15066959               -0.00023712
               6.37854222               10.01216763               16.93497162                0.86159737                0.11323594                0.11279861               -0.37832624                0.03770521                0.14335816               -0.00090421
               7.38005200               10.01569867               16.89095370                0.86410878                0.18871247                0.18854180               -0.63066992                0.03771056                0.12594726               -0.00171061
               8.38231647               10.01921756               16.84672892                0.86826815                0.26419655                0.26430723               -0.88301911                0.03766852                0.09758307               -0.00285639
               9.38533593               10.02272647               16.80218894                0.87410816                0.33971821                0.33982318               -1.13537590                0.03878529                0.05575955               -0.00470841
              10.38911084               10.02625474               16.75718745                0.93942090                0.37749081                0.41810638               -1.38775324                0.04062727                0.02896238               -0.01036788
               0.43016193                0.02640079               18.22121602                0.93969811               -0.31425659               -0.35449416                1.17546230               -0.04038774                0.01778155               -0.00482486
               1.42701936                0.02241898               18.17377850                0.87431406               -0.27684461               -0.27652562                0.92561742               -0.03819758                0.04174184               -0.00494630
               2.42462504                0.01846419               18.12675770                0.86819005               -0.20216154               -0.20212752                0.67590207               -0.03715967                0.07683895               -0.00261440
               3.42297613                0.01449592               18.07997475                0.86399986               -0.12755878               -0.12712252                0.42618712               -0.03740272                0.09746948               -0.00161428
               4.42207386                0.01051390               18.03333440                0.86151517               -0.05284271               -0.05219554                0.17647489               -0.03744287                0.10860276               -0.00077119
               5.42191928                0.00651634               17.98675711                0.86072297                0.02193687                0.02274912               -0.07323430               -0.03747469                0.11125633               -0.00003051
               6.42251260                0.00250289               17.94016792                0.86161798                0.09672498                0.09769472               -0.32294750               -0.03747344                0.10574909                0.00067127
               7.42385378               -0.00152686               17.89349356                0.86420273                0.17148750                0.17263203               -0.57267746               -0.03747408                0.09211013                0.00138226
               8.42594235               -0.00557461               17.84665950                0.86848753                0.24624000                0.24763390               -0.82243937               -0.03738752                0.07009491                0.00215063
               9.42877858               -0.00964150               17.79958746                0.87449104                0.32091230                0.32228459               -1.07224696               -0.03836363                0.03906197                0.00298892
              10.43236060               -0.01375548               17.75219008                0.93967733                0.35820167                0.40009960               -1.32212190               -0.03847614                0.01918939                0.00441240
               0.43373987                1.02285585               18.22032221                0.87914157               -0.31341792               -0.35310466                1.17036813               -0.00100704                0.01493139               -0.00429180
               1.43060569                1.01965372               18.17286776                0.74808412               -0.27624474               -0.27600732                0.92051326               -0.00025999                0.04010017               -0.00548691
               2.42821497                1.01644292               18.12585457                0.73592875               -0.20142185               -0.20119870                0.67079861               -0.00002212                0.07571365               -0.00328939
               3.42657725                1.01322469               18.07906551                0.72777845               -0.12628760               -0.12630696                0.42107645                0.00009205                0.09553451               -0.00203798
               4.42568922                1.00999195               18.03241714                0.72295471               -0.05136052               -0.05140035                0.17135965                0.00000372                0.10648662               -0.00110987
               5.42555004                1.00674383               17.98583060                0.72142151                0.02351239                0.02352507               -0.07835314               -0.00004802                0.10903945               -0.00034995
               6.42615947                1.00347984               17.93923168                0.72316411                0.09838734                0.09845684               -0.32807300               -0.00007113                0.10351004                0.00032816
               7.42751779                1.00019946               17.89254771                0.72818892                0.17331637                0.17338966               -0.57781643               -0.00008134                0.08991315                0.00099431
               8.42962580                0.99690173               17.84570472                0.73652363                0.24837970                0.24834937               -0.82760006               -0.00027827                0.06797336                0.00170920
               9.43248538                0.99358134               17.79862454                0.74821762                0.32320096                0.32340246               -1.07743576               -0.00034971                0.03725189                0.00252671
              10.43608981                0.99024551               17.75122458                0.87884721                0.36044336                0.40019892               -1.32731903                0.00077870                0.01764576                0.00360745
               0.43654605                2.01933870               18.21936836                0.87888530               -0.31189502               -0.35072314                1.16535324               -0.00108013                0.01231176               -0.00349580
               1.43342710                2.01689883               18.17189136                0.74753719               -0.27462101               -0.27491229                0.91551070               -0.00050248                0.03959610               -0.00466651
               2.43105363                2.01444022               18.12489808                0.73547474               -0.19990766               -0.19964227                0.66582704               -0.00033401                0.07702793               -0.00349111
               3.42942894                2.01196978               18.07812294                0.72755491               -0.12494165               -0.12474051                0.41607067               -0.00014696                0.09628055               -0.00227145
               4.42855479                2.00948590               18.03148321                0.72287729               -0.04992557               -0.04983476                0.16629549               -0.00013883                0.10683060               -0.00129520
               5.42843043                2.00698684               17.98490270                0.72139620                0.02503800                0.02508622               -0.08348646               -0.00019466                0.10917568               -0.00047269
               6.42905555                2.00447203               17.93830848                0.72309275                0.09999131                0.10002100               -0.33327868               -0.00024671                0.10355094                0.00023917
               7.43043026                2.00194093               17.89162892                0.72797466                0.17496736                0.17497581               -0.58309145               -0.00034362                0.08995001                0.00087262
               8.43255490                1.99939238               17.84479089                0.73607635                0.24987731                0.24999444               -0.83293332               -0.00051311                0.06808900                0.00145108
               9.43542780                1.99682655               17.79771714                0.74745929                0.32464648                0.32539185               -1.08280194               -0.00057031                0.03741341                0.00198973
              10.43904783                1.99424850               17.75032348                0.87834342                0.36200257                0.40092518               -1.33267221                0.00040866                0.01777932                0.00236866
               0.43859800                3.01584139               18.21841990                0.87887820               -0.31038813               -0.34889662                1.16035364               -0.00094178                0.01264774                0.00121502
               1.43549412                3.01415547               18.17094212                0.74752409               -0.27303261               -0.27363569                0.91053079               -0.00040993                0.04007925               -0.00006468
               2.43313735                3.01245007               18.12395111                0.73546236               -0.19827422               -0.19835607                0.66083805               -0.00049604                0.07796009               -0.00063541
               3.43152863                3.01072988               18.07718428                0.72754337               -0.12339851               -0.12328047                0.41104897               -0.00036597                0.09749496               -0.00064864
               4.43066937                3.00899525               18.03055257                0.72286744               -0.04843071               -0.04830523                0.16121863               -0.00032274                0.10797510               -0.00049912
               5.43056002                3.00724556               17.98397912                0.72138918                0.02655356                0.02665744               -0.08862958               -0.00034519                0.11020745               -0.00033996
               6.43120045                3.00548026               17.93739089                0.72308975                0.10152718                0.10163470               -0.33849105               -0.00039852                0.10445288               -0.00026287
               7.43259056                3.00369898               17.89071609                0.72797679                0.17647359                0.17665525               -0.58836884               -0.00047495                0.09070067               -0.00035140
               8.43472992                3.00190162               17.84388142                0.73608450                0.25136491                0.25179214               -0.83826272               -0.00054124                0.06865074               -0.00068497
               9.43761786                3.00008918               17.79680910                0.74747351                0.32620854                0.32707020               -1.08815876               -0.00040727                0.03772255               -0.00134999
              10.44125409                2.99826402               17.74941424                0.87835220                0.36362296                0.40228377               -1.33802214                0.00056903                0.01792867               -0.00242840
               0.43989903                4.01236076               18.21748965                0.87887100               -0.30888217               -0.34728005                1.15533679               -0.00086203                0.01289034                0.00622719
               1.43681021                4.01142612               18.17000251                0.74751137               -0.27148665               -0.27219477                0.90552600               -0.00026826                0.04079488                0.00344465
               2.43446930                4.01047310               18.12301175                0.73545151               -0.19668849               -0.19697922                0.65582088               -0.00042081                0.07936170                0.00186220
               3.43287644                4.00950417               18.07624943                0.72753429               -0.12183201               -0.12183915                0.40600112               -0.00042488                0.09924570                0.00085318
               4.43203266                4.00851979               18.02962509                0.72286066               -0.04689583               -0.04678763                0.15612604               -0.00042698                0.10989413                0.00023059
               5.43193852                4.00751999               17.98305971                0.72138544                0.02807534                0.02822414               -0.09377552               -0.00044498                0.11210904               -0.00024412
               6.43259417                4.00650472               17.93647875                0.72308983                0.10304353                0.10324664               -0.34369280               -0.00046241                0.10619531               -0.00077891
               7.43399939                4.00547404               17.88980916                0.72798144                0.17798520                0.17832306               -0.59362282               -0.00046516                0.09215620               -0.00156380
               8.43615387                4.00442822               17.84297641                0.73609419                0.25289336                0.25347757               -0.84355836               -0.00041589                0.06970192               -0.00277410
               9.43905726                4.00336795               17.79590164                0.74748812                0.32778331                0.32867031               -1.09347731               -0.00026038                0.03827218               -0.00455886
              10.44270954                4.00229417               17.74849915                0.87836092                0.36522741                0.40377922               -1.34333621                0.00065649                0.01819285               -0.00701827
               0.44045005                5.00889578               18.21657073                0.87886342               -0.30736348               -0.34573418                1.15027366               -0.00080616                0.01325360                0.01047913
               1.43737642                5.00871158               18.16906794                0.74749829               -0.26995873               -0.27068985                0.90046719               -0.00012305                0.04179998                0.00632470
               2.43505088                5.00851049               18.12207456                0.73544136               -0.19514902               -0.19549144                0.65075456               -0.00026133                0.08132970                0.00377731
               3.43347344                5.00829310               18.07531605                0.72752708               -0.12029349               -0.12033513                0.40091648               -0.00036761                0.10173638                0.00202251
               4.43264501                5.00805950               18.02869979                0.72285648               -0.04536239               -0.04525673                0.15101462               -0.00044699                0.11267643                0.00079803
               5.43256619                5.00781004               17.98214431                0.72138454                0.02960728                0.02977793               -0.09891917               -0.00047734                0.11493651               -0.00018489
               6.43323715                5.00754519               17.93557261                0.72309250                0.10457828                0.10482086               -0.34887061               -0.00045046                0.10882572               -0.00122105
               7.43465776                5.00726544               17.88890930                0.72798792                0.17952660                0.17991435               -0.59883284               -0.00036928                0.09436432               -0.00259606
               8.43682769                5.00697117               17.84207770                0.73610464                0.25444740                0.25507030               -0.84879437               -0.00024923                0.07129041               -0.00457978
               9.43974670                5.00666259               17.79499720                0.74750247                0.32935455                0.33024173               -1.09872836               -0.00011819                0.03909557               -0.00740031
              10.44341478                5.00633960               17.74758100                0.87836933                0.36680738                0.40532159               -1.34858663                0.00072860                0.01859425               -0.01119942
               0.44025132                6.00544608               18.21565487                0.87885536               -0.30582732               -0.34422775                1.14515028               -0.00074397                0.01375331                0.01371546
               1.43719305                6.00601232               18.16813034                0.74748465               -0.26843826               -0.26913657                0.89533927                0.00003621                0.04318855                0.00823243
               2.43488255                6.00656327               18.12113330                0.73543172               -0.19364861               -0.19389921                0.64562845               -0.00008493                0.08404646                0.00493983
               3.43332007                6.00709746               18.07437993                0.72752149               -0.11878900               -0.11875264                0.39578935               -0.00029485                0.10516870                0.00269051
               4.43250677                6.00761466               18.02777463                0.72285477               -0.04383928               -0.04369995                0.14588302               -0.00044750                0.11651502                0.00111700
               5.43244329                6.00811555               17.98123273                0.72138642                0.03114936                0.03131574               -0.10405826               -0.00048657                0.11885577               -0.00015403
               6.43312976                6.00860114               17.93467393                0.72309764                0.10613691                0.10634378               -0.35401881               -0.00041687                0.11249877               -0.00148423
               7.43456603                6.00907232               17.88801958                0.72799602                0.18109864                0.18142230               -0.60399007               -0.00025765                0.09747069               -0.00323805
               8.43675173                6.00952963               17.84118988                0.73611556                0.25602210                0.25657790               -0.85395909               -0.00006851                0.07353665               -0.00579115
               9.43968647                6.00997279               17.79410146                0.74751631                0.33091716                0.33178121               -1.10389839                0.00003740                0.04026148               -0.00949141
              10.44337008                6.01040060               17.74666585                0.87837732                0.36836089                0.40689895               -1.35376010                0.00080993                0.01916986               -0.01457060
               0.43930270                7.00201123               18.21473032                0.87884686               -0.30427416               -0.34280541                1.13996801               -0.00064797                0.01444986                0.01551171
               1.43625995                7.00332885               18.16717855                0.74747058               -0.26693308               -0.26750687                0.89014477                0.00021396                0.04512101                0.00878705
               2.43396403                7.00463250               18.12017941                0.73542281               -0.19219023               -0.19219056                0.64044585                0.00002885                0.08779504                0.00510124
               3.43241615                7.00591804               18.07343553                0.72751779               -0.11730320               -0.11711659                0.39062275               -0.00031008                0.10984060                0.00274423
               4.43161797                7.00718550               18.02684698                0.72285577               -0.04230858               -0.04213918                0.14073272               -0.00048618                0.12168576                0.00114651
               5.43156998                7.00843636               17.98032491                0.72139127                0.03270371                0.03283821               -0.10919363               -0.00050798                0.12412426               -0.00013225
               6.43227204                7.00967207               17.93378515                0.72310546                0.10770662                0.10783293               -0.35914073               -0.00040816                0.11747417               -0.00147753
               7.43372411                7.01089388               17.88714510                0.72800602                0.18269048                0.18286481               -0.60909982               -0.00019634                0.10174026               -0.00329296
               8.43592585                7.01210273               17.84032062                0.73612723                0.25761832                0.25799440               -0.85905906                0.00008544                0.07667460               -0.00605997
               9.43887648                7.01329821               17.79322413                0.74752981                0.33247427                0.33327896               -1.10899423                0.00021747                0.04190935               -0.01034347
              10.44257534                7.01447758               17.74576418                0.87838494                0.36988623                0.40855114               -1.35886287                0.00092432                0.01999409               -0.01658682
               0.43760312                7.99858997               18.21378053                0.87883817               -0.30270721               -0.34161925                1.13474222               -0.00048062                0.01546896                0.01528875
               1.43457605                8.00066218               18.16619724                0.74745680               -0.26545945               -0.26567450                0.88490202                0.00032170                0.04788626                0.00742733
               2.43229394                8.00271946               18.11920196                0.73541553               -0.19075893               -0.19041192                0.63522345               -0.00010736                0.09303839                0.00410706
               3.43076087                8.00475513               18.07247656                0.72751681               -0.11575980               -0.11553543                0.38542854               -0.00044330                0.11617207                0.00217797
               4.42997874                8.00677187               18.02591405                0.72286009               -0.04071537               -0.04060684                0.13556851               -0.00053253                0.12852355                0.00090320
               5.42994657                8.00877232               17.97942099                0.72139966                0.03426669                0.03435208               -0.11432854               -0.00050021                0.13104942               -0.00010079
               6.43066407                8.01075780               17.93290939                0.72311660                0.10924347                0.10932808               -0.36424748               -0.00041097                0.12409411               -0.00116701
               7.43213144                8.01272962               17.88629257                0.72801872                0.18425210                0.18431492               -0.61418002               -0.00022357                0.10758743               -0.00265899
               8.43434911                8.01468952               17.83948107                0.73614053                0.25922664                0.25934196               -0.86411693                0.00010290                0.08113035               -0.00507606
               9.43731597                8.01663836               17.79238024                0.74754365                0.33403549                0.33467255               -1.11404060                0.00038915                0.04432171               -0.00927106
              10.44102982                8.01857163               17.74489261                0.87839240                0.37138564                0.41040163               -1.36391837                0.00110524                0.02123305               -0.01643993
               0.43514867                8.99517884               18.21278235                0.87882981               -0.30117608               -0.34095127                1.12949777               -0.00054975                0.01692394                0.01126373
               1.43213690                8.99801536               18.16516429                0.74744484               -0.26398641               -0.26352301                0.87963816                0.00002504                0.05208432                0.00387955
               2.42986894                9.00082426               18.11818953                0.73541150               -0.18910190               -0.18896369                0.62998739               -0.00035849                0.10062423                0.00222821
               3.42835487                9.00360734               18.07149751                0.72751977               -0.11394002               -0.11406194                0.38022485               -0.00049138                0.12463717                0.00116308
               4.42759014                9.00637337               18.02497358                0.72286869               -0.03904071               -0.03911106                0.13039762               -0.00040137                0.13733419                0.00047653
               5.42757405                9.00912340               17.97852123                0.72141241                0.03581925                0.03587514               -0.11946725               -0.00035071                0.13991208               -0.00005455
               6.42830652                9.01185863               17.93204962                0.72313203                0.11069336                0.11086949               -0.36935447               -0.00030472                0.13270741               -0.00062397
               7.42978792                9.01458018               17.88546887                0.72803534                0.18563233                0.18585474               -0.61925569               -0.00024635                0.11555973               -0.00145139
               8.43201917                9.01728957               17.83868485                0.73615700                0.26071162                0.26083909               -0.86916411               -0.00001635                0.08773167               -0.00287106
               9.43500215                9.01999166               17.79159291                0.74755923                0.33558771                0.33588718               -1.11907014                0.00033828                0.04814991               -0.00557023
              10.43873092                9.02268561               17.74407754                0.87840022                0.37287702                0.41267431               -1.36895733                0.00111022                0.02322030               -0.01199341
               0.43191910                9.99177095               18.21168360                0.93941255               -0.29879702               -0.34078976                1.12424997                0.03912121                0.02198278                0.00963631
               1.42893113                9.99539172               18.16405898                0.87371939               -0.26121576               -0.26236361                0.87438449                0.03788460                0.06006806                0.00287342
               2.42669479                9.99894018               18.11713667                0.86770557               -0.18645939               -0.18840819                0.62476652                0.03669365                0.11145165                0.00206979
               3.42520194               10.00247389               18.07049554                0.86376216               -0.11200691               -0.11334419                0.37503004                0.03718135                0.13547031                0.00112542
               4.42445465               10.00598965               18.02402459                0.86143854               -0.03738272               -0.03837123                0.12522752                0.03724752                0.14828599                0.00040657
               5.42445429               10.00948982               17.97762588                0.86071179                0.03732732                0.03664209               -0.12461336                0.03730045                0.15085884               -0.00023054
               6.42520120               10.01297519               17.93120753                0.86157247                0.11206380                0.11165592               -0.37447570                0.03731222                0.14353585               -0.00088812
               7.42669557               10.01644672               17.88467842                0.86402448                0.18680554                0.18665343               -0.62434989                0.03732030                0.12610873               -0.00168717
               8.42893731               10.01990630               17.83794240                0.86808514                0.26155620                0.26167294               -0.87422958                0.03728351                0.09771946               -0.00282977
               9.43192669               10.02335611               17.79089116                0.87378574                0.33634100                0.33644464               -1.12410863                0.03839450                0.05585607               -0.00468661
              10.43566413               10.02682511               17.74337833                0.93920311                0.37374360                0.41394989               -1.37398998                0.04022081                0.02900928               -0.01037655
               0.47902678                0.02727200               19.23291212                0.93947220               -0.31111696               -0.35094387                1.16370397               -0.03997470                0.01783601               -0.00479887
               1.47591561                0.02330598               19.18298878                0.87398386               -0.27408376               -0.27376761                0.91639201               -0.03780381                0.04189009               -0.00491326
               2.47354510                0.01936694               19.13348345                0.86800676               -0.20016019               -0.20012207                0.66920715               -0.03677140                0.07707353               -0.00257230
               3.47191240                0.01541475               19.08421591                0.86391723               -0.12631852               -0.12587148                0.42201455               -0.03700819                0.09772211               -0.00158301
               4.47101873                0.01144912               19.03509093                0.86149207               -0.05236155               -0.05169619                0.17481479               -0.03704548                0.10887091               -0.00075527
               5.47086517                0.00746814               18.98602900                0.86071875                0.02166301                0.02249804               -0.07239076               -0.03707668                0.11153228               -0.00003115
               6.47145199                0.00347138               18.93695509                0.86159227                0.09570131                0.09669365               -0.31960681               -0.03707717                0.10601753                0.00065452
               7.47277920               -0.00054167               18.88779581                0.86411504                0.16971914                0.17088052               -0.56684233               -0.03708140                0.09235070                0.00135110
               8.47484637               -0.00457276               18.83847655                0.86829705                0.24373000                0.24512965               -0.81410710               -0.03700062                0.07028607                0.00210834
               9.47765380               -0.00862303               18.78891891                0.87415621                0.31765983                0.31902812               -1.06140794               -0.03797113                0.03917909                0.00294046
              10.48119957               -0.01272005               18.73903535                0.93945144                0.35457723                0.39605407               -1.30875814               -0.03808006                0.01924228                0.00438348
               0.48259305                1.02376256               19.23196764                0.87869517               -0.31029528               -0.34955996                1.15866716               -0.00099036                0.01496002               -0.00420582
               1.47949010                1.02056830               19.18202729                0.74743551               -0.27350255               -0.27324974                0.91134559               -0.00023956                0.04022978               -0.00538618
               2.47712300                1.01736572               19.13252957                0.73557214               -0.19944333               -0.19919680                0.66416153                0.00001720                0.07593629               -0.00316985
               3.47550123                1.01415603               19.08325582                0.72761809               -0.12507105               -0.12506002                0.41695811                0.00014721                0.09577707               -0.00194615
               4.47462158                1.01093215               19.03412276                0.72290997               -0.05089794               -0.05090731                0.16974890                0.00007010                0.10674920               -0.00106341
               5.47448327                1.00769312               18.98505151                0.72141332                0.02322735                0.02326496               -0.07746551                0.00002153                0.10930842               -0.00035602
               6.47508613                1.00443831               18.93596778                0.72311407                0.09735900                0.09744408               -0.32469259               -0.00000671                0.10376321                0.00026946
               7.47643045                1.00116713               18.88679875                0.72801845                0.17154586                0.17162437               -0.57194400               -0.00002931                0.09012531                0.00088880
               8.47851704                0.99787854               18.83747034                0.73615295                0.24586383                0.24583066               -0.81923055               -0.00024165                0.06812235                0.00156889
               9.48134773                0.99456725               18.78790429                0.74756507                0.31993725                0.32012718               -1.06655775               -0.00033006                0.03732763                0.00237159
              10.48491579                0.99124049               18.73801807                0.87840666                0.35680590                0.39614297               -1.31391594                0.00078022                0.01766377                0.00347679
               0.48539549                2.02028080               19.23096373                0.87844411               -0.30878306               -0.34718463                1.15367733               -0.00106105                0.01233103               -0.00335291
               1.48230766                2.01784098               19.18100091                0.74689996               -0.27188888               -0.27215009                0.90636294               -0.00046379                0.03972329               -0.00449542
               2.47995771                2.01538300               19.13152342                0.73512784               -0.19793737               -0.19764172                0.65921070               -0.00025736                0.07722348               -0.00331102
               3.47834891                2.01291355               19.08226331                0.72739928               -0.12373329               -0.12349936                0.41198116               -0.00004449                0.09645049               -0.00213280
               4.47748305                2.01043097               19.03313838                0.72283395               -0.04947350               -0.04935374                0.16472529               -0.00001890                0.10700199               -0.00122663
               5.47735944                2.00793344               18.98407256                0.72138822                0.02474009                0.02480683               -0.08254475               -0.00006968                0.10934551               -0.00048698
               6.47797785                2.00542026               18.93499288                0.72304402                0.09894748                0.09898180               -0.32983050               -0.00013016                0.10370407                0.00014128
               7.47933839                2.00289081               18.88582765                0.72780879                0.17317851                0.17317800               -0.57713898               -0.00024685                0.09006873                0.00070094
               8.48144142                2.00034385               18.83650368                0.73571557                0.24734244                0.24743877               -0.82447476               -0.00044374                0.06816274                0.00122616
               9.48428524                1.99777952               18.78694374                0.74682327                0.32136384                0.32207428               -1.07183127               -0.00053328                0.03744972                0.00174516
              10.48786869                1.99520281               18.73706394                0.87791375                0.35834550                0.39683958               -1.31917966                0.00041607                0.01778252                0.00215195
               0.48745147                3.01681887               19.22996531                0.87843668               -0.30728462               -0.34535860                1.14869253               -0.00092211                0.01266431                0.00137016
               1.48437862                3.01512530               19.18000187                0.74688628               -0.27030901               -0.27086425                0.90139312               -0.00036661                0.04018766                0.00011639
               2.48204529                3.01341288               19.13052660                0.73511510               -0.19631228               -0.19635100                0.65423667               -0.00041094                0.07811043               -0.00046983
               3.48045238                3.01168605               19.08127454                0.72738756               -0.12219883               -0.12204237                0.40698523               -0.00025623                0.09759490               -0.00052518
               4.47960131                3.00994508               19.03215716                0.72282405               -0.04798932               -0.04783563                0.15968873               -0.00019723                0.10805816               -0.00044038
               5.47949259                3.00818926               18.98309783                0.72138113                0.02624204                0.02635764               -0.08763150               -0.00021544                0.11028090               -0.00035742
               6.48012615                3.00641795               18.93402356                0.72304080                0.10046673                0.10056615               -0.33497046               -0.00027679                0.10451004               -0.00035738
               7.48150192                3.00463069               18.88486254                0.72781043                0.17466574                0.17481997               -0.58232937               -0.00037216                0.09073252               -0.00051394
               8.48361947                3.00282731               18.83554147                0.73572286                0.24880908                0.24919219               -0.82970566               -0.00046613                0.06865725               -0.00089646
               9.48647811                3.00100874               18.78598273                0.74683629                0.32290260                0.32370693               -1.07708345               -0.00036761                0.03772156               -0.00158075
              10.49007752                2.99917729               18.73610178                0.87792184                0.35994128                0.39815927               -1.32442675                0.00057634                0.01791461               -0.00263995
               0.48876418                4.01337363               19.22898494                0.87842925               -0.30578741               -0.34374469                1.14369556               -0.00084368                0.01290162                0.00636489
               1.48570631                4.01242370               19.17901226                0.74687314               -0.26877202               -0.26941915                0.89640428               -0.00023062                0.04088459                0.00359545
               2.48338874                4.01145598               19.12953713                0.73510398               -0.19473600               -0.19497288                0.64924044               -0.00034709                0.07947231                0.00199557
               3.48181159                4.01047270               19.08028933                0.72737839               -0.12064272               -0.12060583                0.40196797               -0.00033098                0.09928850                0.00094993
               4.48097589                4.00947426               19.03117896                0.72281726               -0.04646655               -0.04633001                0.15463901               -0.00032089                0.10990741                0.00027620
               5.48088226                4.00846059               18.98212725                0.72137736                0.02774943                0.02790489               -0.09272125               -0.00033604                0.11210639               -0.00025782
               6.48153088                4.00743158               18.93305977                0.72304068                0.10196634                0.10215127               -0.34010279               -0.00036035                0.10617684               -0.00085269
               7.48292159                4.00638721               18.88390351                0.72781462                0.17615839                0.17645414               -0.58750172               -0.00037886                0.09212003               -0.00169107
               8.48505405                4.00532770               18.83458400                0.73573179                0.25031634                0.25083914               -0.83490979               -0.00035304                0.06965578               -0.00294089
               9.48792791                4.00425365               18.78502261                0.74684983                0.32445411                0.32526780               -1.08230490               -0.00022743                0.03824193               -0.00474396
              10.49154313                4.00316600               18.73513408                0.87792996                0.36152152                0.39961981               -1.32964501                0.00066144                0.01816551               -0.00719372
               0.48933446                5.00994397               19.22801555                0.87842169               -0.30428019               -0.34220892                1.13866764               -0.00079058                0.01326210                0.01057820
               1.48629165                5.00973692               19.17802724                0.74686009               -0.26725577               -0.26792054                0.89137878               -0.00009815                0.04188034                0.00642150
               2.48398934                5.00951343               19.12854944                0.73509386               -0.19320864               -0.19349265                0.64421019               -0.00021266                0.08141987                0.00386114
               3.48242748                5.00927393               19.07930531                0.72737119               -0.11911700               -0.11911217                0.39692458               -0.00030570                0.10174858                0.00208335
               4.48160700                5.00901848               19.03020277                0.72281312               -0.04494699               -0.04481288                0.14957519               -0.00037738                0.11265150                0.00082796
               5.48152854                5.00874736               18.98116068                0.72137644                0.02926621                0.02944141               -0.09781054               -0.00040644                0.11489148               -0.00019064
               6.48219232                5.00846098               18.93210216                0.72304323                0.10348456                0.10370480               -0.34521956               -0.00038483                0.10876474               -0.00126329
               7.48359823                5.00815977               18.88295189                0.72782080                0.17768189                0.17802167               -0.59264449               -0.00031479                0.09428986               -0.00267142
               8.48574596                5.00784409               18.83363331                0.73574174                0.25185114                0.25240598               -0.84007342               -0.00021052                0.07121476               -0.00468093
               9.48863526                5.00751409               18.78406607                0.74686351                0.32600490                0.32681306               -1.08748056               -0.00009835                0.03904907               -0.00751657
              10.49226606                5.00716968               18.73416381                0.87793799                0.36308049                0.40113849               -1.33482078                0.00072899                0.01855953               -0.01131774
               0.48916249                6.00652945               19.22704874                0.87841393               -0.30275935               -0.34072187                1.13359942               -0.00073180                0.01376268                0.01376957
               1.48613490                6.00706529               19.17703864                0.74684698               -0.26575066               -0.26638648                0.88630659                0.00004613                0.04327287                0.00826848
               2.48384748                6.00758613               19.12755720                0.73508458               -0.19172362               -0.19191919                0.63913943               -0.00006518                0.08414226                0.00496993
               3.48230042                6.00809046               19.07831819                0.72736585               -0.11762797               -0.11754748                0.39185201               -0.00026909                0.10518353                0.00271366
               4.48149492                6.00857800               19.02922657                0.72281152               -0.04343953               -0.04327247                0.14449700               -0.00041846                0.11648949                0.00113103
               5.48143163                6.00904942               18.98019797                0.72137832                0.03079236                0.03096447               -0.10289761               -0.00045769                0.11880767               -0.00015123
               6.48211076                6.00950568               18.93115224                0.72304831                0.10502698                0.10521461               -0.35031717               -0.00039158                0.11243367               -0.00149371
               7.48353217                6.00994765               18.88201084                0.72782881                0.17923751                0.17951796               -0.59775242               -0.00023868                0.09739255               -0.00325960
               8.48569551                6.01037582               18.83269407                0.73575254                0.25340933                0.25390295               -0.84518985               -0.00005708                0.07345877               -0.00582399
               9.48860036                6.01078992               18.78311885                0.74687717                0.32755107                0.32834233               -1.09260294                0.00004218                0.04021436               -0.00953558
              10.49224654                6.01118877               18.73319716                0.87794586                0.36461763                0.40270579               -1.33994685                0.00080493                0.01913493               -0.01462868
               0.48824815                7.00312954               19.22607275                0.87840599               -0.30122502               -0.33932696                1.12849066               -0.00063904                0.01446365                0.01552903
               1.48523590                7.00440919               19.17603532                0.74683390               -0.26426408               -0.26478769                0.88118812                0.00021155                0.04522228                0.00877359
               2.48296287                7.00567504               19.12655188                0.73507638               -0.19028337               -0.19023968                0.63402959                0.00002591                0.08792160                0.00508816
               3.48143023                7.00692298               19.07732247                0.72736258               -0.11615987               -0.11593601                0.38675204               -0.00031213                0.10988903                0.00273736
               4.48063967                7.00815303               19.02824772                0.72281268               -0.04192610               -0.04173053                0.13940559               -0.00048842                0.12169383                0.00114761
               5.48059171                7.00936665               18.97923905                0.72138321                0.03233004                0.03247413               -0.10798254               -0.00051156                0.12410848               -0.00012358
               6.48128627                7.01056527               18.93021244                0.72305612                0.10658071                0.10669691               -0.35539712               -0.00041393                0.11743966               -0.00146262
               7.48272332                7.01175013               18.88108540                0.72783887                0.18081408                0.18095913               -0.60282815               -0.00020463                0.10169013               -0.00327394
               8.48490255                7.01292215               18.83177391                0.73576437                0.25499129                0.25532211               -0.85026237                0.00007554                0.07661981               -0.00604100
               9.48782315                7.01408094               18.78219064                0.74689095                0.32909525                0.32984369               -1.09767537                0.00020997                0.04187629               -0.01033324
              10.49148446                7.01522380               18.73224454                0.87795362                0.36613075                0.40435914               -1.34502621                0.00091449                0.01996583               -0.01660082
               0.48659041                7.99974291               19.22507117                0.87839798               -0.29967877               -0.33817126                1.12334889               -0.00047464                0.01548962                0.01528903
               1.48359362                8.00176953               19.17500207                0.74682130               -0.26281048               -0.26299367                0.87603260                0.00031333                0.04801405                0.00738833
               2.48133420                8.00378134               19.12552265                0.73506994               -0.18887142               -0.18849595                0.62888968               -0.00011891                0.09321379                0.00407312
               3.47981619                8.00577174               19.07631195                0.72736208               -0.11463580               -0.11438254                0.38163141               -0.00045654                0.11627501                0.00215659
               4.47904148                8.00774339               19.02726347                0.72281721               -0.04035156               -0.04021835                0.13430388               -0.00054817                0.12858743                0.00089731
               5.47900916                8.00969890               18.97828402                0.72139164                0.03387569                0.03397577               -0.11306682               -0.00051793                0.13108885               -0.00009092
               6.47971900                8.01163962               18.92928578                0.72306730                0.10810163                0.10818770               -0.36046520               -0.00042982                0.12411323               -0.00114275
               7.48117120                8.01356683               18.88018216                0.72785168                0.18236090                0.18241219               -0.60788107               -0.00024262                0.10758730               -0.00262330
               8.48336622                8.01548226               18.83088382                0.73577795                0.25658598                0.25667890               -0.85530268                0.00008484                0.08111705               -0.00503510
               9.48630292                8.01738679               18.78129628                0.74690522                0.33064492                0.33124840               -1.10271028                0.00037574                0.04431366               -0.00923776
              10.48997911                8.01927595               18.73132242                0.87796134                0.36761994                0.40621455               -1.35007035                0.00109175                0.02121695               -0.01643851
               0.48418541                8.99636611               19.22402099                0.87839020               -0.29816725               -0.33752731                1.11818579               -0.00054396                0.01695183                0.01126620
               1.48120374                8.99914931               19.17391694                0.74681032               -0.26135643               -0.26088069                0.87085263                0.00001971                0.05224417                0.00384436
               2.47895828                9.00190512               19.12445830                0.73506660               -0.18723461               -0.18707809                0.62373353               -0.00036515                0.10085733                0.00220092
               3.47745905                9.00463533               19.07528125                0.72736545               -0.11283718               -0.11293465                0.37649991               -0.00050010                0.12480057                0.00114560
               4.47670154                9.00734866               19.02627161                0.72282601               -0.03869628               -0.03874240                0.12919588               -0.00041313                0.13745884                0.00047088
               5.47668512                9.01004616               18.97733314                0.72140445                0.03541048                0.03548533               -0.11815247               -0.00036417                0.14001215               -0.00004815
               6.47740975                9.01272902               18.92837514                0.72308271                0.10953540                0.10972199               -0.36552914               -0.00031869                0.13278699               -0.00060645
               7.47887583                9.01539838               18.87930784                0.72786832                0.18372687                0.18395073               -0.61292362               -0.00025944                0.11561843               -0.00142486
               8.48108429                9.01805573               18.83003720                0.73579454                0.25805712                0.25817961               -0.86032571               -0.00002845                0.08777010               -0.00284008
               9.48403697                9.02070591               18.78045869                0.74692102                0.33218415                0.33247208               -1.10772173                0.00032823                0.04817441               -0.00554459
              10.48772797                9.02334809               18.73045699                0.87796926                0.36909979                0.40848387               -1.35509153                0.00109652                0.02322116               -0.01199795
               0.48101313                9.99299236               19.22287009                0.93919283               -0.29581229               -0.33737473                1.11300061                0.03872714                0.02203244                0.00965800
               1.47805501                9.99655192               19.17275943                0.87340231               -0.25861240               -0.25973944                0.86566248                0.03749718                0.06026960                0.00286068
               2.47584088               10.00003977               19.12335355                0.86753325               -0.18461763               -0.18653488                0.61857525                0.03631609                0.11174062                0.00206355
               3.47436265               10.00351304               19.07422765                0.86368508               -0.11092444               -0.11222855                0.37136595                0.03679898                0.13568431                0.00112181
               4.47362239               10.00696854               19.02527123                0.86141723               -0.03705667               -0.03801216                0.12408499                0.03686356                0.14845980                0.00040636
               5.47362152               10.01040861               18.97638662                0.86070780                0.03690086                0.03624498               -0.12324101                0.03691570                0.15100854               -0.00022766
               6.47436041               10.01383406               18.92748211                0.86154779                0.11088893                0.11050346               -0.37059492                0.03692763                0.14366766               -0.00088288
               7.47583930               10.01724584               18.87846670                0.86394095                0.18488528                0.18474660               -0.61796539                0.03693660                0.12622307               -0.00168083
               8.47805811               10.02064585               18.82924433                0.86790385                0.25889126                0.25901193               -0.86534256                0.03690227                0.09781506               -0.00282491
               9.48101712               10.02403623               18.77970676                0.87346655                0.33292870                0.33303215               -1.11271520                0.03800408                0.05592770               -0.00468855
              10.48471669               10.02744563               18.72970765                0.93898758                0.36995650                0.40975398               -1.36008000                0.03981161                0.02904643               -0.01040678
               0.53036533                0.02819377               20.24449010                0.93924874               -0.30794909               -0.34736482                1.15184282               -0.03956062                0.01789198               -0.00478537
               1.52728583                0.02424371               20.19210634                0.87365718               -0.27129708               -0.27098353                0.90707644               -0.03741075                0.04203654               -0.00489190
               2.52493938                0.02032051               20.14014185                0.86782535               -0.19813691               -0.19809600                0.66243735               -0.03638613                0.07730042               -0.00253914
               3.52332310                0.01638443               20.08841504                0.86383542               -0.12505967               -0.12460632                0.41778643               -0.03661835                0.09795737               -0.00155774
               4.52243819                0.01243514               20.03683069                0.86146916               -0.05186627               -0.05119013                0.17312247               -0.03665362                0.10911139               -0.00074145
               5.52228577                0.00847070               19.98530929                0.86071454                0.02139731                0.02224566               -0.07155291               -0.03668421                0.11177186               -0.00002971
               6.52286614                0.00449060               19.93377579                0.86156678                0.09467821                0.09568308               -0.31624321               -0.03668568                0.10624408                0.00064377
               7.52417933                0.00049428               19.88215671                0.86402825                0.16794224                0.16911147               -0.56095497               -0.03669203                0.09254880                0.00132910
               8.52622498               -0.00352003               19.83037736                0.86810853                0.24120135                0.24260040               -0.80569431               -0.03661500                0.07044086                0.00207710
               9.52900336               -0.00755347               19.77835931                0.87382496                0.31437894                0.31574025               -1.05046347               -0.03757784                0.03927399                0.00290327
              10.53251256               -0.01163326               19.72601492                0.93922800                0.35091979                0.39197234               -1.29527024               -0.03768305                0.01928497                0.00436341
               0.53391978                1.02472012               20.24349555                0.87825375               -0.30714256               -0.34598968                1.14686586               -0.00097549                0.01499046               -0.00414739
               1.53084836                1.02153387               20.19109467                0.74679399               -0.27073099               -0.27046840                0.90209006               -0.00022656                0.04035744               -0.00531579
               2.52850516                1.01833955               20.13913780                0.73521933               -0.19743783               -0.19717686                0.65745102                0.00004019                0.07614727               -0.00307735
               3.52689960                1.01513836               20.08740467                0.72745934               -0.12383220               -0.12380092                0.41278593                0.00017936                0.09599435               -0.00187313
               4.52602852                1.01192324               20.03581212                0.72286563               -0.05042015               -0.05040840                0.16810827                0.00010954                0.10697450               -0.00102412
               5.52589120                1.00869316               19.98428129                0.72140517                0.02294856                0.02300406               -0.07658053                0.00006329                0.10953179               -0.00035622
               6.52648749                1.00544743               19.93273782                0.72306455                0.09632669                0.09642361               -0.32128579                0.00003213                0.10396777                0.00022921
               7.52781773                1.00218540               19.88110883                0.72784972                0.16976082                0.16984433               -0.56601595                0.00000205                0.09029221                0.00081213
               8.52988270                0.99890598               19.82932011                0.73578623                0.24332362                0.24329030               -0.81077787               -0.00021884                0.06823621                0.00146405
               9.53268420                0.99560394               19.77729339                0.74691969                0.31664118                0.31682399               -1.05557273               -0.00031689                0.03738429                0.00225360
              10.53621553                0.99228646               19.72494626                0.87797101                0.35313263                0.39205476               -1.30038744                0.00077885                0.01767460                0.00337924
               0.53671831                2.02127397               20.24244191                0.87800804               -0.30564413               -0.34362700                1.14191371               -0.00104478                0.01235160               -0.00325459
               1.53366187                2.01883434               20.19001862                0.74627010               -0.26913101               -0.26937065                0.89714208               -0.00043874                0.03985201               -0.00437550
               2.53133569                2.01637697               20.13808229                0.73478488               -0.19594375               -0.19562900                0.65253469               -0.00020997                0.07741797               -0.00317631
               3.52974300                2.01390841               20.08636256                0.72724533               -0.12250527               -0.12225026                0.40784773                0.00001818                0.09661162               -0.00202540
               4.52888559                2.01142697               20.03477771                0.72279108               -0.04900791               -0.04886849                0.16312993                0.00005473                0.10715575               -0.00116985
               5.52876284                2.00893078               19.98325181                0.72138031                0.02444754                0.02452809               -0.08160679                0.00000751                0.10949062               -0.00049137
               6.52937454                2.00641908               19.93171187                0.72299580                0.09789971                0.09793932               -0.32636283               -0.00005781                0.10382892                0.00007431
               7.53072083                2.00389117               19.88008614                0.72764476                0.17137626                0.17137234               -0.57114297               -0.00018629                0.09016005                0.00057783
               8.53280206                2.00134578               19.82830140                0.73535884                0.24478544                0.24486994               -0.81594897               -0.00039937                0.06821448                0.00106174
               9.53561654                1.99878301               19.77628051                0.74619459                0.31805146                0.31873795               -1.06077128               -0.00050849                0.03747345                0.00156512
              10.53916309                1.99620783               19.72393988                0.87748909                0.35465513                0.39273087               -1.30557840                0.00041932                0.01778049                0.00199443
               0.53877816                3.01784758               20.24139375                0.87800054               -0.30415770               -0.34180764                1.13695897               -0.00090591                0.01268403                0.00148061
               1.53573658                3.01614646               20.18896998                0.74625629               -0.26756340               -0.26808399                0.89219958               -0.00033821                0.04030487                0.00024601
               2.53342689                3.01442697               20.13703585                0.73477207               -0.19433077               -0.19434039                0.64759066               -0.00035600                0.07827472               -0.00034838
               3.53184997                3.01269336               20.08532398                0.72723363               -0.12098255               -0.12080074                0.40288809               -0.00018601                0.09770651               -0.00043163
               4.53100724                3.01094587               20.03374634                0.72278120               -0.04753626               -0.04736331                0.15813832               -0.00011699                0.10814721               -0.00039284
               5.53089924                3.00918372               19.98222649                0.72137320                0.02593529                0.02606025               -0.08663891               -0.00013225                0.11035427               -0.00036562
               6.53152595                3.00740622               19.93069148                0.72299246                0.09940299                0.09949939               -0.33143843               -0.00019837                0.10456272               -0.00042281
               7.53288730                3.00561284               19.87906951                0.72764608                0.17284634                0.17298474               -0.57626011               -0.00030541                0.09075808               -0.00063033
               8.53498287                3.00380338               19.82728731                0.73536559                0.24623398                0.24658908               -0.82109968               -0.00041669                0.06865804               -0.00104959
               9.53781198                3.00197870               19.77526743                0.74620686                0.31957050                0.32033586               -1.06593969               -0.00034113                0.03771712               -0.00174806
              10.54137428                3.00014108               19.72292570                0.87749676                0.35623018                0.39402146               -1.31074299                0.00057904                0.01789907               -0.00279250
               0.54010244                4.01443782               20.24036356                0.87799307               -0.30267227               -0.34020112                1.13199445               -0.00082841                0.01291787                0.00646954
               1.53707572                4.01347266               20.18793060                0.74624308               -0.26603842               -0.26664161                0.88724074               -0.00020510                0.04098983                0.00370838
               2.53478167                4.01249017               20.13599656                0.73476090               -0.19276683               -0.19296663                0.64262744               -0.00029728                0.07961015                0.00209685
               3.53322038                4.01149239               20.08428878                0.72722446               -0.11943915               -0.11937262                0.39790973               -0.00026764                0.09936029                0.00102516
               4.53239289                4.01047970               20.03271787                0.72277443               -0.04602702               -0.04587094                0.15313512               -0.00024930                0.10994628                0.00031366
               5.53229984                4.00945199               19.98120528                0.72136939                0.02742790                0.02758935               -0.09167380               -0.00026237                0.11212393               -0.00026527
               6.53294145                4.00840906               19.92967670                0.72299220                0.10088646                0.10106152               -0.33650754               -0.00029112                0.10617350               -0.00090633
               7.53431757                4.00735086               19.87805913                0.72764995                0.17432158                0.17459142               -0.58136159               -0.00032013                0.09209513               -0.00178614
               8.53642788                4.00627756               19.82627821                0.73537399                0.24772246                0.24820539               -0.82622676               -0.00031009                0.06961773               -0.00306668
               9.53927202                4.00518973               19.77425554                0.74621966                0.32110180                0.32186600               -1.07108066               -0.00020486                0.03821615               -0.00488418
              10.54284991                4.00408826               19.72190625                0.87750445                0.35778953                0.39545444               -1.31588181                0.00066251                0.01814017               -0.00732742
               0.54069192                5.01104356               20.23934408                0.87798558               -0.30117818               -0.33867760                1.12700825               -0.00077705                0.01327657                0.01066285
               1.53768014                5.01081362               20.18689551                0.74623016               -0.26453543               -0.26515258                0.88225558               -0.00007995                0.04197975                0.00650263
               2.53540121                5.01056764               20.13495876                0.73475092               -0.19125301               -0.19149672                0.63763927               -0.00017685                0.08154424                0.00393194
               3.53385507                5.01030591               20.08325455                0.72721737               -0.11792737               -0.11789117                0.39291176               -0.00025981                0.10179866                0.00213555
               4.53304266                5.01002845               20.03169129                0.72277033               -0.04452205               -0.04436834                0.14812090               -0.00032548                0.11266200                0.00085446
               5.53296463                5.00973551               19.98018810                0.72136847                0.02892924                0.02910897               -0.09670900               -0.00035339                0.11487676               -0.00019443
               6.53362125                5.00942745               19.92866822                0.72299461                0.10238834                0.10259585               -0.34156575               -0.00033568                0.10872872               -0.00129849
               7.53501240                5.00910467               19.87705641                0.72765588                0.17582783                0.17613768               -0.58644167               -0.00027408                0.09423560               -0.00273539
               8.53713780                5.00876748               19.82527624                0.73538355                0.24923912                0.24974961               -0.83132436               -0.00018175                0.07115439               -0.00476758
               9.53999718                5.00841602               19.77324759                0.74623281                0.32263364                0.32338861               -1.07618846               -0.00008370                0.03901127               -0.00761706
              10.54359048                5.00805017               19.72088458                0.87751218                0.35932920                0.39695233               -1.32099039                0.00072713                0.01852877               -0.01142164
               0.54054676                6.00766427               20.23832685                0.87797809               -0.29967259               -0.33720908                1.12199428               -0.00072052                0.01377788                0.01382948
               1.53755004                6.00816961               20.18585647                0.74621750               -0.26304554               -0.26363659                0.87723759                0.00005523                0.04337558                0.00831266
               2.53528585                6.00866023               20.13391609                0.73474197               -0.18978316               -0.18994115                0.63262247               -0.00004643                0.08427096                0.00500730
               3.53375437                6.00913457               20.08221697                0.72721221               -0.11645364               -0.11634379                0.38789291               -0.00024397                0.10523443                0.00274182
               4.53295678                6.00959234               20.03066457                0.72276883               -0.04303024               -0.04284432                0.14309610               -0.00038954                0.11649722                0.00114678
               5.53289377                6.01003417               19.97917478                0.72137035                0.03043933                0.03061665               -0.10174307               -0.00042850                0.11878762               -0.00015061
               6.53356557                6.01046098               19.92766758                0.72299961                0.10391428                0.10409127               -0.34661081               -0.00036566                0.11239144               -0.00150940
               7.53497206                6.01087362               19.87606454                0.72766376                0.17736664                0.17762049               -0.59149748               -0.00021897                0.09733288               -0.00329108
               8.53711290                6.01127255               19.82428608                0.73539416                0.25078039                0.25123371               -0.83638910               -0.00004500                0.07339494               -0.00586972
               9.53998766                6.01165750               19.77224940                0.74624623                0.32416297                0.32490523               -1.08125957                0.00004735                0.04017527               -0.00959432
              10.54359616                6.01202731               19.71986691                0.87751992                0.36084956                0.39850725               -1.32606559                0.00079945                0.01910380               -0.01470106
               0.53966683                7.00429938               20.23730013                0.87797056               -0.29815545               -0.33583779                1.11695113               -0.00063025                0.01448218                0.01556807
               1.53668528                7.00554089               20.18480231                0.74620510               -0.26157585               -0.26206358                0.87218573                0.00021256                0.04533770                0.00878624
               2.53443532                7.00676881               20.13286001                0.73473424               -0.18835939               -0.18828657                0.62757729                0.00003072                0.08807263                0.00509771
               3.53291809                7.00797903               20.08117057                0.72720926               -0.11500202               -0.11475417                0.38285415               -0.00030334                0.10996259                0.00274590
               4.53213527                7.00917156               20.02963509                0.72277012               -0.04153345               -0.04132042                0.13806162               -0.00047774                0.12172284                0.00115453
               5.53208742                7.01034784               19.97816526                0.72137526                0.03196032                0.03211208               -0.10677568               -0.00050142                0.12410801               -0.00011979
               6.53277448                7.01150928               19.92667721                0.72300738                0.10545140                0.10556309               -0.35164313               -0.00040649                0.11741574               -0.00146326
               7.53419645                7.01265708               19.87508854                0.72767378                0.17892673                0.17905472               -0.59653003               -0.00020151                0.10164752               -0.00328008
               8.53635302                7.01379216               19.82331537                0.73540595                0.25234635                0.25264855               -0.84142227                0.00007401                0.07657052               -0.00605466
               9.53924338                7.01491412               19.77127062                0.74625997                0.32569211                0.32640260               -1.08629520                0.00020683                0.04184637               -0.01035953
              10.54286686                7.01602031               19.71886365                0.87752765                0.36234823                0.40015483               -1.33110845                0.00090539                0.01993939               -0.01665004
               0.53805112                8.00094751               20.23624751                0.87796298               -0.29662737               -0.33470657                1.11188108               -0.00046865                0.01551372                0.01531711
               1.53508485                8.00292833               20.18371790                0.74619326               -0.26013969               -0.26030055                0.86710328                0.00030968                0.04815024                0.00738139
               2.53284833                8.00489450               20.13177976                0.73472836               -0.18696442               -0.18657160                0.62250770               -0.00011968                0.09340199                0.00406702
               3.53134556                8.00683949               20.08010918                0.72720910               -0.11349560               -0.11322422                0.37779885               -0.00045487                0.11638789                0.00215421
               4.53057842                8.00876593               20.02860013                0.72277479               -0.03997672               -0.03982698                0.13301912               -0.00054634                0.12865526                0.00089882
               5.53054603                8.01067641               19.97715965                0.72138370                0.03348880                0.03359980               -0.11180733               -0.00051737                0.13112608               -0.00008638
               6.53124819                8.01257224               19.92570008                0.72301853                0.10695583                0.10704475               -0.35666524               -0.00043125                0.12412583               -0.00113638
               7.53268514                8.01445471               19.87413494                0.72768656                0.18045738                0.18050327               -0.60154344               -0.00024677                0.10757912               -0.00261682
               8.53485734                8.01632552               19.82237502                0.73541952                0.25392518                0.25400515               -0.84642872                0.00007759                0.08109691               -0.00503209
               9.53776365                8.01818556               19.77032603                0.74627426                0.32722734                0.32780816               -1.09130000                0.00036781                0.04430172               -0.00924690
              10.54140189                8.02003040               19.71789121                0.87753537                0.36382407                0.40200554               -1.33612282                0.00107932                0.02119989               -0.01647799
               0.53569582                8.99760524               20.23514607                0.87795554               -0.29513314               -0.33408046                1.10678715               -0.00053832                0.01698253                0.01128872
               1.53274448                9.00033488               20.18258134                0.74618287               -0.25870237               -0.25821938                0.86199348                0.00001769                0.05240793                0.00383163
               2.53052177                9.00303738               20.13066420                0.73472546               -0.18534606               -0.18517814                0.61741969               -0.00036424                0.10109378                0.00219342
               3.52903756                9.00571455               20.07902751                0.72721272               -0.11171707               -0.11179778                0.37273149               -0.00049827                0.12496160                0.00114164
               4.52828743                9.00837502               20.02755749                0.72278373               -0.03834019               -0.03836923                0.12797043               -0.00041267                0.13757392                0.00047061
               5.52827076                9.01101983               19.97615818                0.72139653                0.03500623                0.03509462               -0.11683880               -0.00036492                0.14009601               -0.00004520
               6.52898755                9.01365017               19.92473904                0.72303390                0.10837358                0.10856783               -0.36168030               -0.00032056                0.13284597               -0.00060105
               7.53043823                9.01626715               19.87321040                0.72770309                0.18180858                0.18203400               -0.60654253               -0.00026220                0.11565565               -0.00141825
               8.53262372                9.01887226               19.82147833                0.73543603                0.25538102                0.25550117               -0.85141334               -0.00003311                0.08779049               -0.00283500
               9.53554585                9.02147028               19.76943847                0.74628994                0.32875127                0.32903184               -1.09627650                0.00032183                0.04818850               -0.00554782
              10.53919875                9.02406042               19.71697571                0.87754321                0.36528972                0.40426269               -1.34110939                0.00108350                0.02321854               -0.01203007
               0.53258108                9.99426590               20.23394361                0.93897558               -0.29280163               -0.33393401                1.10165843                0.03833075                0.02208531                0.00969093
               1.52965306                9.99776395               20.18137223                0.87308872               -0.25598504               -0.25709351                0.85686023                0.03710959                0.06047410                0.00285966
               2.52746138               10.00119094               20.12950817                0.86736278               -0.18275539               -0.18464460                0.61231850                0.03594034                0.11203141                0.00206760
               3.52599796               10.00460353               20.07792286                0.86360879               -0.10982522               -0.11110149                0.36765440                0.03641964                0.13589455                0.00112500
               4.52526488               10.00799854               20.02650629                0.86139612               -0.03671888               -0.03764780                0.12291630                0.03648322                0.14862289                0.00040867
               5.52526358               10.01137830               19.97516106                0.86070385                0.03647967                0.03584654               -0.12187068                0.03653462                0.15114049               -0.00022674
               6.52599447               10.01474360               19.92379563                0.86152335                0.10971153                0.10934272               -0.36668988                0.03654628                0.14377616               -0.00088395
               7.52745781               10.01809539               19.87231911                0.86385825                0.18295365                0.18282442               -0.61152924                0.03655523                0.12631178               -0.00168466
               8.52965354               10.02143555               19.82063555                0.86772452                0.25620569                0.25632861               -0.85637686                0.03652189                0.09788760               -0.00283310
               9.53258192               10.02476619               19.76863686                0.87315089                0.32948709                0.32959086               -1.10121840                0.03761266                0.05598496               -0.00470487
              10.53624328               10.02811566               19.71617673                0.93877449                0.36613605                0.40552363               -1.34604673                0.03939992                0.02907803               -0.01045034
               0.58415214                0.02916539               21.25594898                0.93902785               -0.30475534               -0.34375838                1.13988655               -0.03914491                0.01794944               -0.00478045
               1.58110459                0.02523147               21.20113031                0.87333421               -0.26848693               -0.26817595                0.89768068               -0.03701696                0.04218301               -0.00487818
               2.57878241                0.02132424               21.14673220                0.86764598               -0.19609425               -0.19605175                0.65560301               -0.03600155                0.07752447               -0.00251188
               3.57718271                0.01740434               21.09257164                0.86375450               -0.12378503               -0.12332896                0.41351158               -0.03623028                0.09818396               -0.00153653
               4.57630670                0.01347143               21.03855338                0.86144649               -0.05135950               -0.05067841                0.17140382               -0.03626410                0.10933639               -0.00072916
               5.57615552                0.00952356               20.98459794                0.86071039                0.02113764                0.02199205               -0.07071882               -0.03629411                0.11198973               -0.00002713
               6.57672946                0.00556018               20.93063022                0.86154160                0.09365442                0.09466423               -0.31285920               -0.03629610                0.10644465                0.00063667
               7.57802860                0.00158067               20.87657672                0.86394242                0.16615680                0.16732720               -0.55502233               -0.03630367                0.09271998                0.00131275
               8.58005259               -0.00241672               20.82236266                0.86792214                0.23865566                0.24004937               -0.79721197               -0.03622916                0.07057227                0.00205268
               9.58280172               -0.00643313               20.76790964                0.87349748                0.31107277                0.31242476               -1.03942737               -0.03718304                0.03935452                0.00287314
              10.58627405               -0.01049547               20.71312994                0.93900713                0.34723319                0.38785803               -1.28167276               -0.03728480                0.01932103                0.00434877
               0.58769462                1.02572781               21.25490496                0.87781740               -0.30396236               -0.34239415                1.13496977               -0.00096185                0.01502225               -0.00410758
               1.58465499                1.02254971               21.20006909                0.74615983               -0.26793332               -0.26766503                0.89275454               -0.00021800                0.04048414               -0.00526521
               2.58233595                1.01936372               21.14567859                0.73487047               -0.19540945               -0.19514037                0.65067594                0.00005325                0.07635146               -0.00300258
               3.58074681                1.01617105               21.09151154                0.72730232               -0.12257503               -0.12253086                0.40856763                0.00019733                0.09619623               -0.00181262
               4.57988445                1.01296465               21.03748493                0.72282176               -0.04993013               -0.04990440                0.16644277                0.00013224                0.10717638               -0.00098992
               5.57974820                1.00974348               20.98351990                0.72139710                0.02267450                0.02274214               -0.07569690                0.00008769                0.10972576               -0.00035313
               6.58033794                1.00650682               20.92954206                0.72301555                0.09529060                0.09539586               -0.31785541                0.00005495                0.10414041                0.00020036
               7.58165402                1.00325395               20.87547843                0.72768288                0.16796311                0.16805069               -0.56003913                0.00002049                0.09042905                0.00075356
               8.58369720                0.99998377               20.82125478                0.73542365                0.24076228                0.24073011               -0.80225229               -0.00020463                0.06832661                0.00138157
               9.58646926                0.99669112               20.76679284                0.74628170                0.31331675                0.31349520               -1.04449321               -0.00030775                0.03742817                0.00215907
              10.58996354                0.99338311               20.71201032                0.87754041                0.34942779                0.38793636               -1.28674660                0.00077538                0.01768065                0.00330255
               0.59048911                2.02231751               21.25380201                0.87757713               -0.30247937               -0.34004868                1.13006299               -0.00103032                0.01237295               -0.00318636
               1.58746431                2.01987816               21.19894375                0.74564769               -0.26634903               -0.26657349                0.88785022               -0.00042210                0.03998120               -0.00428926
               2.58516213                2.01742143               21.14457412                0.73444594               -0.19392936               -0.19360359                0.64580262               -0.00018081                0.07761105               -0.00307154
               3.58358573                2.01495372               21.09042027                0.72709316               -0.12126049               -0.12099300                0.40367447                0.00005582                0.09676633               -0.00193890
               4.58273692                2.01247335               21.03640098                0.72274866               -0.04853122               -0.04837930                0.16151295                0.00009902                0.10729702               -0.00112142
               5.58261510                2.00997841               20.98244042                0.72137249                0.02415900                0.02424910               -0.08067037                0.00005432                0.10961815               -0.00049004
               6.58322010                2.00746809               20.92846562                0.72294816                0.09684790                0.09689223               -0.32287521               -0.00001364                0.10393351                0.00002673
               7.58455206                2.00494169               20.87440479                0.72748261                0.16956169                0.16955730               -0.56510492               -0.00014881                0.09023160                0.00048564
               8.58661133                2.00239788               20.82018470                0.73500629                0.24220829                0.24228651               -0.80735929               -0.00037090                0.06825031                0.00093594
               9.58939622                1.99983677               20.76572832                0.74557334                0.31471189                0.31538169               -1.04962679               -0.00049146                0.03748807                0.00142627
              10.59290557                1.99726326               20.71095237                0.87706950                0.35093428                0.38859770               -1.29187420                0.00041973                0.01777478                0.00187467
               0.59255270                3.01892683               21.25270449                0.87756970               -0.30100699               -0.33824056                1.12514814               -0.00089198                0.01270545                0.00156066
               1.58954263                3.01721824               21.19784586                0.74563401               -0.26479589               -0.26529166                0.88294597               -0.00031932                0.04042662                0.00034129
               2.58725678                3.01549165               21.14347841                0.73443321               -0.19233081               -0.19232156                0.64089821               -0.00032042                0.07844621               -0.00025644
               3.58569601                3.01375119               21.08933230                0.72708151               -0.11975146               -0.11955397                0.39875800               -0.00014138                0.09782371               -0.00035829
               4.58486175                3.01199706               21.03531993                0.72273883               -0.04707335               -0.04688818                0.15656954               -0.00006622                0.10823787               -0.00035327
               5.58475454                3.01022847               20.98136506                0.72136534                0.02563202                0.02576365               -0.08564856               -0.00007947                0.11042489               -0.00036828
               6.58537439                3.00844466               20.92739479                0.72294470                0.09833542                0.09843117               -0.32789109               -0.00014828                0.10460954               -0.00046955
               7.58672125                3.00664509               20.87333733                0.72748367                0.17101555                0.17114517               -0.57015705               -0.00026228                0.09077666               -0.00071676
               8.58879470                3.00482950               20.81911947                0.73501262                0.24364027                0.24397780               -0.81244093               -0.00038404                0.06865272               -0.00116476
               9.59159406                3.00299875               20.76466393                0.74558506                0.31621317                0.31695195               -1.05472415               -0.00032321                0.03770910               -0.00187415
              10.59511896                3.00115507               20.70988692                0.87707686                0.35249073                0.38986566               -1.29696871                0.00057863                0.01788217               -0.00290677
               0.59388846                4.01555269               21.25162483                0.87756229               -0.29953522               -0.33664491                1.12022442               -0.00081523                0.01293691                0.00655150
               1.59089311                4.01457233               21.19675707                0.74562089               -0.26328481               -0.26385676                0.87802641               -0.00018771                0.04110368                0.00379554
               2.58862276                4.01357500               21.14238968                0.73442215               -0.19078105               -0.19095599                0.63597600               -0.00026356                0.07976336                0.00217622
               3.58707748                4.01256264               21.08824752                0.72707243               -0.11822232               -0.11813677                0.39382417               -0.00022500                0.09944840                0.00108553
               4.58625832                4.01153558               21.03424166                0.72273211               -0.04557864               -0.04541000                0.15161549               -0.00020118                0.10999896                0.00034526
               5.58616591                4.01049368               20.98029377                0.72136152                0.02710947                0.02727536               -0.09062917               -0.00021276                0.11215145               -0.00026881
               6.58680050                4.00943672               20.92632962                0.72294431                0.09980300                0.09997279               -0.33290076               -0.00024434                0.10617665               -0.00094657
               7.58816197                4.00836459               20.87227627                0.72748733                0.17247420                0.17272835               -0.57519433               -0.00028021                0.09207432               -0.00185964
               8.59024999                4.00727744               20.81805946                0.73502063                0.24511133                0.24556864               -0.81750009               -0.00028071                0.06958228               -0.00316499
               9.59306420                4.00617581               20.76360100                0.74559737                0.31772605                0.31845698               -1.05979522               -0.00018932                0.03819174               -0.00499443
              10.59660451                4.00506057               20.70881644                0.87708426                0.35403112                0.39127600               -1.30203836                0.00066089                0.01811556               -0.00743346
               0.59449712                5.01219393               21.25055571                0.87755494               -0.29805540               -0.33513524                1.11528451               -0.00076502                0.01329450                0.01073748
               1.59151656                5.01194110               21.19567235                0.74560823               -0.26179618               -0.26237962                0.87308651               -0.00006679                0.04209014                0.00657245
               2.58926119                5.01167253               21.14130223                0.73441233               -0.18928176               -0.18949836                0.63103413               -0.00015076                0.08168860                0.00399312
               3.58773093                5.01138846               21.08716354                0.72706545               -0.11672529               -0.11666884                0.38887458               -0.00022614                0.10187099                0.00218125
               4.58692669                5.01108886               21.03316519                0.72272809               -0.04408880               -0.04392249                0.14665236               -0.00028714                0.11269297                0.00087836
               5.58684915                5.01077397               20.97922650                0.72136059                0.02859516                0.02877832               -0.09561031               -0.00031405                0.11487891               -0.00019672
               6.58749859                5.01044412               20.92527084                0.72294663                0.10128862                0.10148891               -0.33790195               -0.00029922                0.10870589               -0.00132832
               7.58887492                5.01009966               20.87122305                0.72749306                0.17396361                0.17425503               -0.58021468               -0.00024397                0.09419151               -0.00279073
               8.59097786                5.00974088               20.81700682                0.73502987                0.24661056                0.24709244               -0.82253581               -0.00016060                0.07110147               -0.00484333
               9.59380714                5.00936789               20.76254230                0.74561007                0.31923993                0.31995931               -1.06484010               -0.00007301                0.03897758               -0.00770589
              10.59736266                5.00898059               20.70774401                0.87709173                0.35555259                0.39275503               -1.30708465                0.00072355                0.01849995               -0.01151516
               0.59437882                6.00884999               21.24948862                0.87754769               -0.29656515               -0.33368451                1.11032438               -0.00071007                0.01379654                0.01389305
               1.59141317                6.00932474               21.19458339                0.74559593               -0.26032157               -0.26088096                0.86812204                0.00006279                0.04348916                0.00836107
               2.58917239                6.00978504               21.14020965                0.73440367               -0.18782710               -0.18796015                0.62607075               -0.00003031                0.08441946                0.00504827
               3.58765663                6.01022927               21.08607605                0.72706051               -0.11526688               -0.11513848                0.38390918               -0.00022179                0.10530731                0.00277245
               4.58686705                6.01065713               21.03208849                0.72272668               -0.04261268               -0.04241489                0.14168109               -0.00036356                0.11652505                0.00116345
               5.58680438                6.01106925               20.97816311                0.72136250                0.03008907                0.03027019               -0.10059074               -0.00040201                0.11878400               -0.00015086
               6.58746884                6.01146650               20.92422003                0.72295154                0.10279795                0.10296913               -0.34289331               -0.00034203                0.11236199               -0.00152788
               7.58886033                6.01184969               20.87018089                0.72750074                0.17548547                0.17572321               -0.58521681               -0.00020097                0.09728307               -0.00332724
               8.59097855                6.01221929               20.81596629                0.73504025                0.24813475                0.24856226               -0.82754698               -0.00003400                0.07333836               -0.00592179
               9.59382303                6.01257500               20.76149366                0.74562318                0.32075228                0.32146172               -1.06985792                0.00005200                0.04014024               -0.00966062
              10.59739359                6.01291567               20.70667585                0.87709929                0.35705607                0.39429598               -1.31210704                0.00079339                0.01907470               -0.01478130
               0.59353342                7.00552024               21.24841178                0.87754043               -0.29506442               -0.33233395                1.10534198               -0.00062177                0.01450369                0.01562139
               1.59058277                7.00672348               21.19347904                0.74558405               -0.25886793               -0.25933028                0.86313116                0.00021463                0.04546187                0.00881480
               2.58835606                7.00791333               21.13910342                0.73439631               -0.18641899               -0.18632774                0.62108540                0.00003827                0.08823919                0.00512084
               3.58685439                7.00908569               21.08497956                0.72705777               -0.11383112               -0.11356893                0.37892841               -0.00029045                0.11005250                0.00276370
               4.58607944                7.01024057               21.03100895                0.72272807               -0.04113224               -0.04090849                0.13670240               -0.00046195                0.12176556                0.00116516
               5.58603175                7.01137938               20.97710353                0.72136738                0.03159342                0.03175050               -0.10556995               -0.00048569                0.12411735               -0.00011841
               6.58671131                7.01250350               20.92317958                0.72295927                0.10431820                0.10442816               -0.34787463               -0.00039349                0.11739814               -0.00147246
               7.58811811                7.01361412               20.86915480                0.72751066                0.17702852                0.17714694               -0.59020076               -0.00019342                0.10160894               -0.00330043
               8.59025188                7.01471212               20.81494546                0.73505190                0.24968387                0.24996827               -0.83253371                0.00007630                0.07652386               -0.00608708
               9.59311179                7.01579712               20.76046473                0.74563672                0.32226531                0.32295015               -1.07484863                0.00020571                0.04181783               -0.01040727
              10.59669718                7.01686651               20.70562237                0.87710691                0.35853913                0.39593311               -1.31710537                0.00089657                0.01991393               -0.01672051
               0.59195991                8.00220331               21.24730879                0.87753316               -0.29355327               -0.33122293                1.10033613               -0.00046278                0.01554024                0.01536340
               1.58902438                8.00413813               21.19234413                0.74557274               -0.25744792               -0.25759341                0.85811332                0.00030804                0.04829226                0.00739416
               2.58681095                8.00605848               21.13797281                0.73439080               -0.18503978               -0.18463751                0.61607887               -0.00011560                0.09359968                0.00407785
               3.58532358                8.00795789               21.08386792                0.72705784               -0.11234148               -0.11205980                0.37393351               -0.00044630                0.11650911                0.00216343
               4.58456412                8.00983896               21.02992385                0.72273288               -0.03959281               -0.03943284                0.13171708               -0.00053630                0.12872780                0.00090511
               5.58453173                8.01170426               20.97604787                0.72137587                0.03310487                0.03322328               -0.11054787               -0.00050808                0.13116375               -0.00008448
               6.58522622                8.01355506               20.92215248                0.72297034                0.10580596                0.10589770               -0.35284657               -0.00042419                0.12413552               -0.00114005
               7.58664785                8.01539263               20.86815129                0.72752332                0.17854239                0.17858626               -0.59516750               -0.00024347                0.10756647               -0.00262712
               8.58879707                8.01721865               20.81395525                0.73506531                0.25124576                0.25131871               -0.83749668                0.00007589                0.08107250               -0.00505123
               9.59167276                8.01903400               20.75947028                0.74565085                0.32378464                0.32434997               -1.07981216                0.00036274                0.04428712               -0.00928119
              10.59527276                8.02083433               20.70459996                0.87711451                0.36000000                0.39777283               -1.32207885                0.00106748                0.02118215               -0.01654220
               0.58965452                8.99889578               21.24615674                0.87752598               -0.29207527               -0.33061053                1.09530435               -0.00053271                0.01701547                0.01132434
               1.58673377                9.00157161               21.19115680                0.74556280               -0.25602628               -0.25553981                0.85306591                0.00001713                0.05257548                0.00383261
               2.58453399                9.00422058               21.13680669                0.73438822               -0.18343902               -0.18326472                0.61105231               -0.00035981                0.10133518                0.00219790
               3.58306499                9.00684449               21.08273588                0.72706169               -0.11058248               -0.11065223                0.36892565               -0.00049145                0.12512498                0.00114592
               4.58232234                9.00945191               21.02883102                0.72274188               -0.03797463               -0.03799226                0.12672553               -0.00040637                0.13768702                0.00047381
               5.58230549                9.01204384               20.97499636                0.72138870                0.03460525                0.03470265               -0.11552472               -0.00035948                0.14017327               -0.00004391
               6.58301445                9.01462146               20.92114154                0.72298565                0.10720787                0.10740712               -0.35780966               -0.00031642                0.13289480               -0.00060239
               7.58444965                9.01718585               20.86717699                0.72753975                0.17987870                0.18010520               -0.60011743               -0.00025967                0.11568130               -0.00142301
               8.58661202                9.01973850               20.81300893                0.73508162                0.25268570                0.25280494               -0.84243484               -0.00003387                0.08780059               -0.00284492
               9.58950336                9.02228412               20.75853316                0.74566626                0.32529220                0.32556804               -1.08474418                0.00031741                0.04819633               -0.00556797
              10.59311787                9.02482196               20.70363480                0.87712221                0.36145020                0.40001231               -1.32702117                0.00107101                0.02321379               -0.01207867
               0.58659760                9.99559110               21.24490326                0.93876085               -0.28976723               -0.33046842                1.09022953                0.03793177                0.02214107                0.00973130
               1.58369993                9.99902734               21.18989663                0.87277876               -0.25333597               -0.25442763                0.84798675                0.03672043                0.06068265                0.00286581
               2.58153088               10.00239319               21.13559992                0.86719425               -0.18087522               -0.18273927                0.60600573                0.03556406                0.11232752                0.00207792
               3.58008242               10.00574484               21.08158074                0.86353332               -0.10871187               -0.10996463                0.36390353                0.03604036                0.13610765                0.00113237
               4.57935664               10.00907912               21.02772955                0.86137524               -0.03637160               -0.03727915                0.12172680                0.03610325                0.14878469                0.00041264
               5.57935499               10.01239831               20.97394920                0.86069992                0.03606224                0.03544662               -0.12050075                0.03615395                0.15126626               -0.00022678
               6.58007789               10.01570320               20.92014831                0.86149920                0.10853106                0.10817451               -0.36276319                0.03616518                0.14387411               -0.00088849
               7.58152561               10.01899473               20.86623611                0.86377652                0.18101136                0.18088861               -0.60504831                0.03617371                0.12638744               -0.00169424
               8.58369811               10.02227475               20.81211679                0.86754722                0.25350160                0.25362550               -0.84734323                0.03614068                0.09794763               -0.00284878
               9.58659564               10.02554536               20.75768240                0.87283891                0.32601957                0.32612382               -1.08963181                0.03721943                0.05603406               -0.00472949
              10.59021851               10.02883458               20.70278671                0.93856389                0.36228622                0.40126188               -1.33190444                0.03898582                0.02910639               -0.01050168
               0.64036164                0.03018619               22.26728783                0.93880955               -0.30153719               -0.34012545                1.12784007               -0.03872719                0.01800814               -0.00478100
               1.63734627                0.02626859               22.21005995                0.87301504               -0.26565481               -0.26534647                0.88821086               -0.03662157                0.04232994               -0.00486926
               2.63504855                0.02237749               22.15325391                0.86746870               -0.19403397               -0.19399080                0.64871062               -0.03561628                0.07774756               -0.00248843
               3.63346559                0.01847389               22.09668527                0.86367450               -0.12249669               -0.12204059                0.40919586               -0.03584218                0.09840616               -0.00151799
               4.63259861                0.01455746               22.04025877                0.86142410               -0.05084341               -0.05016167                0.16966303               -0.03587493                0.10955262               -0.00071800
               5.63244872                0.01062624               21.98389492                0.86070630                0.02088210                0.02173723               -0.06988667               -0.03590442                0.11219461               -0.00002399
               6.63301626                0.00667966               21.92751860                0.86151670                0.09262867                0.09363788               -0.30945578               -0.03590666                0.10662914                0.00063171
               7.63430130                0.00271710               21.87105626                0.86385759                0.16436250                0.16552920               -0.54904841               -0.03591489                0.09287416                0.00129981
               8.63630351               -0.00126322               21.81443312                0.86773792                0.23609370                0.23747864               -0.78866677               -0.03584220                0.07068881                0.00203245
               9.63902317               -0.00526240               21.75757076                0.87317384                0.30774317                0.30908407               -1.02830827               -0.03678635                0.03942587                0.00284729
              10.64245837               -0.00930705               21.70038146                0.93878889                0.34351976                0.38371354               -1.26797488               -0.03688500                0.01935277                0.00433733
               0.64389197                1.02678494               22.26619495                0.87738623               -0.30075649               -0.33877358                1.12298287               -0.00094903                0.01505488               -0.00407990
               1.64088441                1.02361513               22.20894976                0.74553318               -0.26511179               -0.26484068                0.88334431               -0.00021203                0.04061010               -0.00522724
               2.63858974                1.02043758               22.15215132                0.73452573               -0.19336109               -0.19308824                0.64384221                0.00006037                0.07655135               -0.00293926
               3.63701719                1.01725348               22.09557602                0.72714711               -0.12130245               -0.12125059                0.40430850                0.00020666                0.09638850               -0.00176034
               4.63616369                1.01405584               22.03914097                0.72277836               -0.04943029               -0.04939579                0.16475604                0.00014464                0.10736340               -0.00095929
               5.63602858                1.01084362               21.98276735                0.72138913                0.02240370                0.02247910               -0.07481337                0.00010135                0.10990080               -0.00034829
               6.63661176                1.00761604               21.92638072                0.72296713                0.09425047                0.09436116               -0.31440301                0.00006784                0.10429226                0.00017842
               7.63791359                1.00437239               21.86990804                0.72751799                0.16615370                0.16624423               -0.55401793                0.00003092                0.09054617                0.00070615
               8.63993484                1.00111157               21.81327506                0.73506529                0.23818182                0.23815134               -0.79366064               -0.00019572                0.06840155                0.00131297
               9.64267723                0.99782844               21.75640353                0.74565126                0.30996664                0.31014237               -1.03332770               -0.00030108                0.03746360                0.00207905
              10.64613417                0.99453008               21.69921133                0.87711498                0.34569427                0.38378918               -1.27300243                0.00077047                0.01768357                0.00323859
               0.64668228                2.02341072               22.26504317                0.87715140               -0.29928974               -0.33644844                1.11812606               -0.00101698                0.01239460               -0.00313801
               1.64368939                2.02097178               22.20777562                0.74503277               -0.26354425               -0.26375810                0.87848895               -0.00041054                0.04011001               -0.00422480
               2.64141140                2.01851572               22.15099835                0.73411103               -0.19189615               -0.19156501                0.63901705               -0.00016285                0.07780228               -0.00298625
               3.63985146                2.01604888               22.09443605                0.72694271               -0.12000125               -0.11972734                0.39946437                0.00007787                0.09691606               -0.00186621
               4.63901137                2.01356954               22.03800797                0.72270672               -0.04804546               -0.04788632                0.15987699                0.00012492                0.10742937               -0.00107885
               5.63889055                2.01107582               21.98163840                0.72136474                0.02387316                0.02396934               -0.07973380                0.00008196                0.10973333               -0.00048556
               6.63948884                2.00856688               21.92525436                0.72290105                0.09579170                0.09583969               -0.31936733                0.00001274                0.10402385               -0.00000891
               7.64080639                2.00604198               21.86878404                0.72732239                0.16773541                0.16773190               -0.55902602               -0.00012590                0.09028925                0.00041274
               8.64284355                2.00349981               21.81215421                0.73465791                0.23961234                0.23968759               -0.79870839               -0.00035242                0.06827495                0.00083433
               9.64559864                2.00094044               21.75528798                0.74495957                0.31134706                0.31200476               -1.03840173               -0.00047925                0.03749624                0.00131315
              10.64907049                1.99836873               21.69810240                0.87665500                0.34718512                0.38443922               -1.27807164                0.00041826                0.01776642                0.00177826
               0.64874952                3.02005597               22.26389672                0.87714411               -0.29783256               -0.33465478                1.11325728               -0.00087950                0.01272769                0.00162043
               1.64577119                3.01833996               22.20662890                0.74501934               -0.26200685               -0.26248484                0.87362983               -0.00030642                0.04055025                0.00041403
               2.64350938                3.01660628               22.14985381                0.73409848               -0.19031345               -0.19029252                0.63415841               -0.00029719                0.07862072               -0.00018395
               3.64196492                3.01485894               22.09329914                0.72693123               -0.11850714               -0.11830083                0.39459554               -0.00011316                0.09794289               -0.00029846
               4.64113924                3.01309812               22.03687773                0.72269695               -0.04660221               -0.04641006                0.15498407               -0.00003446                0.10832786               -0.00031927
               5.64103288                3.01132300               21.98051352                0.72135761                0.02533101                0.02546685               -0.08465819               -0.00004637                0.11049194               -0.00036774
               6.64164586                3.00953283               21.92413365                0.72289748                0.09726344                0.09735943               -0.32432601               -0.00011659                0.10465071               -0.00050453
               7.64297815                3.00772703               21.86766637                0.72732324                0.16917344                0.16929835               -0.56401788               -0.00023446                0.09078898               -0.00078410
               8.64502933                3.00590532               21.81103849                0.73466393                0.24102851                0.24135501               -0.80372746               -0.00036224                0.06864208               -0.00125574
               9.64779872                3.00406853               21.75417295                0.74497088                0.31283158                0.31355176               -1.04343546               -0.00031080                0.03769787               -0.00197404
              10.65128596                3.00221887               21.69698633                0.87666213                0.34872404                0.38568857               -1.28310325                0.00057609                0.01786393               -0.00299682
               0.65009670                4.01671762               22.26276805                0.87713683               -0.29637560               -0.33307250                1.10837985               -0.00080346                0.01295740                0.00661822
               1.64713295                4.01572208               22.20549113                0.74500646               -0.26051086               -0.26106060                0.86875557               -0.00017573                0.04122186                0.00386543
               2.64488648                4.01470987               22.14871608                0.73408760               -0.18877904               -0.18893773                0.62928243               -0.00024062                0.07992448                0.00224080
               3.64335736                4.01368286               22.09216527                0.72692227               -0.11699327               -0.11689625                0.38970999               -0.00019630                0.09954501                0.00113574
               4.64254662                4.01264134               22.03575018                0.72269029               -0.04512272               -0.04494676                0.15008104               -0.00016894                0.11005850                0.00037270
               5.64245491                4.01158516               21.97939270                0.72135377                0.02679299                0.02696160               -0.08958465               -0.00017948                0.11218329               -0.00026994
               6.64308248                4.01051407               21.92301868                0.72289700                0.09871518                0.09888207               -0.32927839               -0.00021280                0.10618187               -0.00097803
               7.64442921                4.00942795               21.86655524                0.72732669                0.17061593                0.17086057               -0.56899499               -0.00025309                0.09205416               -0.00191885
               8.64649480                4.00832691               21.80992821                0.73467164                0.24248292                0.24292366               -0.80872423               -0.00026051                0.06954692               -0.00324514
               9.64927887                4.00721148               21.75305964                0.74498274                0.31432703                0.31503528               -1.04844307               -0.00017853                0.03816728               -0.00508501
              10.65278134                4.00608250               21.69586548                0.87666928                0.35024658                0.38707944               -1.28811009                0.00065738                0.01809108               -0.00752140
               0.65072454                5.01339452               22.26164977                0.87712964               -0.29491080               -0.33157777                1.10348933               -0.00075408                0.01331430                0.01080511
               1.64777543                5.01311875               22.20435724                0.74499407               -0.25903733               -0.25959696                0.86386429               -0.00005736                0.04220640                0.00663412
               2.64554379                5.01282753               22.14757945                0.73407800               -0.18729498               -0.18749371                0.62438975               -0.00013192                0.08184393                0.00404729
               3.64402953                5.01252101               22.09103204                0.72691543               -0.11551159               -0.11544275                0.38481090               -0.00020161                0.10195580                0.00222215
               4.64323356                5.01219918               22.03462434                0.72268634               -0.04364843               -0.04347474                0.14517015               -0.00025903                0.11273530                0.00090029
               5.64315656                5.01186223               21.97827589                0.72135284                0.02826281                0.02844799               -0.09451161               -0.00028511                0.11489005               -0.00019788
               6.64379881                5.01151048               21.92191018                0.72289924                0.10018457                0.10038060               -0.33422346               -0.00027239                0.10868970               -0.00135407
               7.64516025                5.01114424               21.86545211                0.72733223                0.17208873                0.17236875               -0.57395746               -0.00022187                0.09415218               -0.00283953
               8.64724059                5.01076379               21.80882552                0.73468058                0.24396514                0.24442846               -0.81370074               -0.00014517                0.07105185               -0.00491092
               9.65003955                5.01036924               21.75195079                0.74499510                0.31582352                0.31651887               -1.05342814               -0.00006527                0.03894571               -0.00778617
              10.65355706                5.00996046               21.69474289                0.87667650                0.35175049                0.38854083               -1.29309710                0.00071868                0.01847213               -0.01160129
               0.65063315                6.01008607               22.26053334                0.87712257               -0.29343613               -0.33014429                1.09858305               -0.00070030                0.01381720                0.01395862
               1.64769879                6.01053014               22.20321891                0.74498211               -0.25757818               -0.25811519                0.85895326                0.00006863                0.04360883                0.00841124
               2.64548159                6.01096000               22.14643751                0.73406960               -0.18585565               -0.18597257                0.61947975               -0.00001734                0.08457932                0.00509061
               3.64398168                6.01137401               22.08989515                0.72691066               -0.11406861               -0.11392926                0.37989899               -0.00020336                0.10539309                0.00280400
               4.64320022                6.01177185               22.03349820                0.72268501               -0.04218812               -0.04198360                0.14025264               -0.00034156                0.11656469                0.00118055
               5.64313791                6.01215412               21.97716296                0.72135470                0.02974048                0.02992379               -0.09943797               -0.00037938                0.11878985               -0.00015126
               6.64379503                6.01252169               21.92080972                0.72290408                0.10167723                0.10184511               -0.33916044               -0.00032181                0.11233959               -0.00154718
               7.64517146                6.01287533               21.86436020                0.72733976                0.17359359                0.17382158               -0.57890503               -0.00018565                0.09723839               -0.00336501
               8.64726690                6.01321548               21.80773514                0.73469072                0.24547224                0.24588314               -0.81865733               -0.00002479                0.07328535               -0.00597633
               9.65008090                6.01354186               21.75085225                0.74500789                0.31731890                0.31800607               -1.05839155                0.00005577                0.04010708               -0.00973020
              10.65361328                6.01385332               21.69362477                0.87668390                0.35323709                0.39006673               -1.29806551                0.00078676                0.01904658               -0.01486550
               0.64982238                7.00679163               22.25940697                0.87711557               -0.29195153               -0.32881241                1.09365857               -0.00061363                0.01452700                0.01568371
               1.64690287                7.00795645               22.20206494                0.74497065               -0.25614028               -0.25658464                0.85402016                0.00021655                0.04559116                0.00885261
               2.64469958                7.00910808               22.14528171                0.73406253               -0.18446285               -0.18436057                0.61455154                0.00004594                0.08841513                0.00515169
               3.64321361                7.01024243               22.08874914                0.72690808               -0.11264845               -0.11237865                0.37497445               -0.00027702                0.11015268                0.00278681
               4.64244661                7.01135951               22.03236914                0.72268652               -0.04072385               -0.04049436                0.13532912               -0.00044527                0.12181710                0.00117809
               5.64239914                7.01246071               21.97605386                0.72135963                0.03122820                0.03138844               -0.10436311               -0.00046876                0.12413301               -0.00011801
               6.64307117                7.01354738               21.91971972                0.72291171                0.10318052                0.10328991               -0.34408885               -0.00037909                0.11738446               -0.00148594
               7.64446275                7.01462067               21.86328452                0.72734953                0.17511938                0.17523260               -0.58383725               -0.00018388                0.10157259               -0.00332820
               8.64657356                7.01568146               21.80666470                0.73470214                0.24700414                0.24727752               -0.82359349                0.00007984                0.07647842               -0.00612959
               9.64940283                7.01672936               21.74977365                0.74502116                0.31881533                0.31948242               -1.06333258                0.00020535                0.04178978               -0.01046682
              10.65294987                7.01776179               21.69252155                0.87669134                0.35470399                0.39169035               -1.30301451                0.00088778                0.01988887               -0.01680300
               0.64829125                8.00350982               22.25825423                0.87710854               -0.29045678               -0.32771864                1.08871251               -0.00045707                0.01556830                0.01542113
               1.64538668                8.00539845               22.20088016                0.74495976               -0.25473583               -0.25487083                0.84906207                0.00030698                0.04843800                0.00741855
               2.64319653                8.00727279               22.14410134                0.73405731               -0.18309884               -0.18269256                0.60960396               -0.00010991                0.09380383                0.00409855
               3.64172470                8.00912643               22.08758785                0.72690835               -0.11117517               -0.11088865                0.37003717               -0.00043526                0.11663670                0.00217950
               4.64097303                8.01096196               22.03123447                0.72269140               -0.03920148               -0.03903590                0.13039981               -0.00052321                0.12880474                0.00091443
               5.64094067                8.01278189               21.97494869                0.72136810                0.03272276                0.03284567               -0.10928672               -0.00049541                0.13120309               -0.00008369
               6.64162748                8.01458748               21.91864315                0.72292272                0.10465159                0.10474553               -0.34900824               -0.00041368                0.12414446               -0.00114894
               7.64303370                8.01637998               21.86223159                0.72736206                0.17661626                0.17665980               -0.58875326               -0.00023697                0.10755160               -0.00264646
               8.64515981                8.01816103               21.80562508                0.73471538                0.24854863                0.24861808               -0.82850745                0.00007671                0.08104566               -0.00508258
               9.64800468                8.01993150               21.74872979                0.74503504                0.32031803                0.32087239               -1.06824834                0.00035905                0.04427087               -0.00932960
              10.65156617                8.02168713               21.69144963                0.87669880                0.35614907                0.39351508               -1.30794044                0.00105595                0.02116393               -0.01662045
               0.64603599                9.00023726               22.25705216                0.87710156               -0.28899462               -0.32711724                1.08373900               -0.00052711                0.01704998                0.01136811
               1.64314604                9.00285903               22.19964266                0.74495013               -0.25332948               -0.25284221                0.84407289                0.00001708                0.05274596                0.00384155
               2.64096940                9.00545422               22.14288525                0.73405501               -0.18151534               -0.18133817                0.60463523               -0.00035410                0.10158118                0.00220931
               3.63951573                9.00802465               22.08640602                0.72691242               -0.10943549               -0.10949840                0.36508627               -0.00048271                0.12529207                0.00115505
               4.63878069                9.01057879               22.03009200                0.72270050               -0.03760147               -0.03761185                0.12546417               -0.00039774                0.13780148                0.00047920
               5.63876370                9.01311762               21.97384769                0.72138094                0.03420628                0.03430919               -0.11420878               -0.00035152                0.14024894               -0.00004329
               6.63946481                9.01564229               21.91758285                0.72293796                0.10603785                0.10623985               -0.35391778               -0.00030972                0.13293940               -0.00060723
               7.64088446                9.01815387               21.86120805                0.72737830                0.17793775                0.17816459               -0.59365100               -0.00025477                0.11570122               -0.00143386
               8.64302357                9.02065382               21.80462964                0.73473145                0.24997249                0.25009148               -0.83339479               -0.00003278                0.08780513               -0.00286305
               9.64588391                9.02314681               21.74774359                0.74505008                0.32180879                0.32208149               -1.07313062                0.00031394                0.04820066               -0.00559759
              10.64945974                9.02563209               21.69043529                0.87670632                0.35758327                0.39573358               -1.31283324                0.00105888                0.02320787               -0.01213648
               0.64303716                9.99696748               22.25574820                0.93854869               -0.28671032               -0.32697837                1.07871739                0.03753008                0.02219896                0.00977630
               1.64017006               10.00034160               22.19833196                0.87247251               -0.25066659               -0.25174275                0.83904701                0.03632897                0.06089477                0.00287607
               2.63802383               10.00364603               22.14162829                0.86702772               -0.17897883               -0.18081987                0.59964244                0.03518596                0.11262919                0.00209186
               3.63659048               10.00693646               22.08520093                0.86345873               -0.10758630               -0.10881885                0.36011837                0.03565949                0.13632556                0.00114222
               4.63587210               10.01020972               22.02894083                0.86135457               -0.03601669               -0.03690677                0.12052021                0.03572184                0.14894903                0.00041768
               5.63587015               10.01346807               21.97275105                0.86069605                0.03564706                0.03504510               -0.11912952                0.03577189                0.15139141               -0.00022720
               6.63658504               10.01671228               21.91654037                0.86147532                0.10734670                0.10699922               -0.35881565                0.03578267                0.14396829               -0.00089481
               7.63801708               10.01994327               21.86021814                0.86369574                0.17905849                0.17894014               -0.59852614                0.03579065                0.12645710               -0.00170680
               8.64016621               10.02316286               21.80368869                0.86737203                0.25078006                0.25090403               -0.83824768                0.03575765                0.09800119               -0.00286843
               9.64303268               10.02637313               21.74684422                0.87253071                0.32252806                0.32263276               -1.07796319                0.03682392                0.05607872               -0.00475866
              10.64661677               10.02960180               21.68953864                0.93835587                0.35840927                0.39697054               -1.31766161                0.03856927                0.02913302               -0.01055725
               0.69896807                0.03125554               23.27850578                0.93859387               -0.29829565               -0.33646668                1.11570668               -0.03830720                0.01806752               -0.00478509
               1.69598511                0.02735445               23.21889453                0.87269969               -0.26280175               -0.26249612                0.87867084               -0.03622410                0.04247708               -0.00486332
               2.69371203                0.02347964               23.15970641                0.86729352               -0.19195728               -0.19191412                0.64176436               -0.03522949                0.07797014               -0.00246743
               3.69214597                0.01959248               23.10075556                0.86359545               -0.12119617               -0.12074194                0.40484313               -0.03545297                0.09862589               -0.00150122
               4.69128811                0.01569266               23.04194664                0.86140190               -0.05031964               -0.04964030                0.16790304               -0.03548491                0.10976371               -0.00070765
               5.69113957                0.01177822               22.98320021                0.86070220                0.02062920                0.02148128               -0.06905498               -0.03551392                0.11239159               -0.00002061
               6.69170070                0.00784858               22.92444111                0.86149213                0.09159988                0.09260456               -0.30603329               -0.03551628                0.10680364                0.00062797
               7.69297157                0.00390311               22.86559575                0.86377377                0.16255890                0.16371848               -0.54303546               -0.03552486                0.09301769                0.00128891
               8.69495187               -0.00005996               22.80658933                0.86755593                0.23351586                0.23488958               -0.78006279               -0.03545352                0.07079596                0.00201472
               9.69764189               -0.00404172               22.74734347                0.87285414                0.30439128                0.30571976               -1.01711151               -0.03638746                0.03949136                0.00282398
              10.70103970               -0.00806846               22.68777044                0.93857330                0.33978095                0.37954039               -1.25418227               -0.03648337                0.01938172                0.00432768
               0.70248608                1.02789087               23.27736462                0.87696028               -0.29752623               -0.33512808                1.11090808               -0.00093675                0.01508793               -0.00406002
               1.69951082                1.02472949               23.21773597                0.74491411               -0.26226798               -0.26199598                0.87386293               -0.00020755                0.04073528               -0.00519718
               2.69724072                1.02156050               23.15855544                0.73418516               -0.19129474               -0.19102099                0.63695380                0.00006400                0.07674816               -0.00288322
               3.69568493                1.01838507               23.09959771                0.72699372               -0.12001656               -0.11996053                0.40001218                0.00021082                0.09657447               -0.00171341
               4.69484039                1.01519626               23.04078005                0.72273548               -0.04892245               -0.04888281                0.16305068                0.00015080                0.10754084               -0.00093112
               5.69470648                1.01199304               22.98202363                0.72138125                0.02213494                0.02221492               -0.07392895                0.00010846                0.11006361               -0.00034261
               6.69528309                1.00877463               22.92325400                0.72291927                0.09320586                0.09331976               -0.31092949                0.00007466                0.10443062                0.00016056
               7.69657059                1.00554029               22.86439808                0.72735501                0.16433306                0.16442551               -0.54795521                0.00003645                0.09065047                0.00066553
               8.69856975                1.00228894               22.80538157                0.73471125                0.23558351                0.23555481               -0.78500753               -0.00019002                0.06846644                0.00125283
               9.70128226                0.99901548               22.74612628                0.74502852                0.30659259                0.30676651               -1.02208188               -0.00029587                0.03749351                0.00200781
              10.70470160                0.99572695               22.68655027                0.87669474                0.34193394                0.37961412               -1.25916086                0.00076456                0.01768441                0.00318222
               0.70527209                2.02455298               23.27616453                0.87673086               -0.29607606               -0.33282537                1.10610384               -0.00100434                0.01241631               -0.00310245
               1.70231133                2.02211453               23.21651353                0.74442535               -0.26071770               -0.26092407                0.86905961               -0.00040200                0.04023795               -0.00417413
               2.70005774                2.01965922               23.15735446                0.73378019               -0.18984561               -0.18951289                0.63217991               -0.00015171                0.07799138               -0.00291341
               3.69851442                2.01719327               23.09840955                0.72679411               -0.11872927               -0.11845305                0.39521953                0.00009030                0.09706179               -0.00180253
               4.69768316                2.01471501               23.03959852                0.72266528               -0.04755218               -0.04738954                0.15822393                0.00013938                0.10755523               -0.00104034
               5.69756338                2.01222252               22.98084575                0.72135709                0.02358892                0.02368856               -0.07879586                0.00009766                0.10983981               -0.00047947
               6.69815493                2.00971498               22.92207828                0.72285454                0.09473071                0.09478125               -0.31583898                0.00002799                0.10410434               -0.00003738
               7.69945799                2.00719162               22.86322427                0.72716405                0.16589772                0.16589562               -0.55290726               -0.00011209                0.09033736                0.00035169
               8.70147289                2.00465114               22.80421053                0.73431373                0.23699856                0.23707267               -0.78999846               -0.00034017                0.06829188                0.00074763
               9.70419796                2.00209361               22.74496028                0.74435334                0.30795835                0.30860670               -1.02709905               -0.00047003                0.03749995                0.00121579
              10.70763205                1.99952382               22.68539094                0.87624561                0.34340916                0.38025487               -1.26417404                0.00041555                0.01775627                0.00169606
               0.70734288                3.02123436               23.27496963                0.87672376               -0.29463474               -0.33104842                1.10128506               -0.00086796                0.01275020                0.00166704
               1.70439654                3.01951101               23.21531846                0.74441221               -0.25919678               -0.25966181                0.86424988               -0.00029728                0.04067417                0.00047223
               2.70215895                3.01777024               23.15616158                0.73376788               -0.18827960               -0.18825188                0.62737089               -0.00028175                0.07879572               -0.00012408
               3.70063094                3.01601600               23.09722421                0.72678273               -0.11725085               -0.11704040                0.39040127               -0.00009542                0.09806194               -0.00024754
               4.69981393                3.01424847               23.03841961                0.72265555               -0.04612413               -0.04592873                0.15338310               -0.00001491                0.10841612               -0.00028917
               5.69970846                3.01246681               22.97967189                0.72134994                0.02503126                0.02516928               -0.08366628               -0.00002597                0.11055545               -0.00036542
               6.70031456                3.01067025               22.92090827                0.72285083                0.09618654                0.09628289               -0.32074173               -0.00009675                0.10468709               -0.00053221
               7.70163219                3.00885821               22.86205698                0.72716474                0.16732004                0.16744248               -0.55784141               -0.00021649                0.09079627               -0.00083944
               8.70366096                3.00703039               22.80304492                0.73431947                0.23839924                0.23871860               -0.79495853               -0.00034740                0.06862721               -0.00133148
               9.70640018                3.00518761               22.74379522                0.74436427                0.30942656                0.31013310               -1.03207333               -0.00030192                0.03768415               -0.00205754
              10.70984949                3.00333204               22.68422485                0.87625255                0.34493107                0.38148806               -1.26914679                0.00057214                0.01784476               -0.00307197
               0.70870144                4.01793201               23.27379243                0.87671665               -0.29319326               -0.32948122                1.09645740               -0.00079262                0.01297852                0.00667483
               1.70576951                4.01692130               23.21413218                0.74439962               -0.25771660               -0.25825035                0.85942477               -0.00016735                0.04134174                0.00392385
               2.70354711                4.01589418               23.15497533                0.73375720               -0.18676132               -0.18690955                0.62254455               -0.00022490                0.08008900                0.00229547
               3.70203428                4.01485247               23.09604172                0.72677394               -0.11575292               -0.11564960                0.38556648               -0.00017697                0.09964545                0.00117906
               4.70123205                4.01379643               23.03724328                0.72264900               -0.04466035               -0.04448080                0.14853247               -0.00014741                0.11012093                0.00039721
               5.70114108                4.01272591               22.97850208                0.72134609                0.02647749                0.02664728               -0.08853847               -0.00015724                0.11221648               -0.00026962
               6.70176160                4.01164063               22.91974405                0.72285028                0.09762241                0.09778746               -0.32563794               -0.00019159                0.10618708               -0.00100377
               7.70309352                4.01054047               22.86089637                0.72716800                0.16874656                0.16898526               -0.56276064               -0.00023459                0.09203326               -0.00196872
               8.70513653                4.00942551               22.80188498                0.73432690                0.23983735                0.24026704               -0.79989612               -0.00024649                0.06951064               -0.00331344
               9.70789027                4.00829627               22.74263214                0.74437580                0.31090510                0.31159729               -1.03702123               -0.00017092                0.03814209               -0.00516287
              10.71135464                4.00715359               22.68305424                0.87625948                0.34643633                0.38286138               -1.27409444                0.00065255                0.01806631               -0.00759796
               0.70934845                5.01464474               23.27262550                0.87670963               -0.29174401               -0.32800217                1.09161837               -0.00074394                0.01333499                0.01086794
               1.70643101                5.01434600               23.21294964                0.74438751               -0.25625869               -0.25680128                0.85458441               -0.00005069                0.04232535                0.00668995
               2.70422328                5.01403205               23.15379002                0.73374785               -0.18529298               -0.18548006                0.61770308               -0.00011845                0.08200468                0.00409634
               3.70272515                5.01370301               23.09485976                0.72676725               -0.11428702               -0.11421115                0.38071940               -0.00018387                0.10204708                0.00225949
               4.70193754                5.01335885               23.03606859                0.72264508               -0.04320192               -0.04302459                0.14367469               -0.00023854                0.11278354                0.00092076
               5.70186112                5.01299975               22.97733627                0.72134515                0.02793128                0.02811713               -0.09341105               -0.00026391                0.11490572               -0.00019822
               6.70249616                5.01262600               22.91858638                0.72285244                0.09907554                0.09926876               -0.33052735               -0.00025272                0.10867657               -0.00137680
               7.70384263                5.01223791               22.85974391                0.72717338                0.17020285                0.17047561               -0.56766633               -0.00020574                0.09411487               -0.00288350
               8.70590022                5.01183573               22.80073281                0.73433558                0.24130282                0.24175376               -0.80481504               -0.00013398                0.07100348               -0.00497254
               9.70866868                5.01141956               22.74147373                0.74438779                0.31238455                0.31306310               -1.04194839               -0.00005971                0.03891433               -0.00786022
              10.71214791                5.01098927               22.68188206                0.87626652                0.34792306                0.38430586               -1.27902399                0.00071285                0.01844455               -0.01168208
               0.70928404                6.01137196               23.27146028                0.87670275               -0.29028517               -0.32658558                1.08676622               -0.00069108                0.01383883                0.01402513
               1.70638118                6.01178527               23.21176246                0.74437591               -0.25481523               -0.25533619                0.84972706                0.00007283                0.04373148                0.00846178
               2.70418773                6.01218458               23.15259925                0.73373968               -0.18386915               -0.18397587                0.61284668               -0.00000741                0.08474514                0.00513308
               3.70270380                6.01256824               23.09367403                0.72676263               -0.11285963               -0.11271449                0.37586126               -0.00018863                0.10548604                0.00283562
               4.70193054                6.01293594               23.03489355                0.72264387               -0.04175754               -0.04154997                0.13881125               -0.00032358                0.11661103                0.00119777
               5.70186865                6.01328825               22.97617435                0.72134703                0.02939261                0.02957669               -0.09828299               -0.00036074                0.11880102               -0.00015147
               6.70251839                6.01362601               22.91743682                0.72285720                0.10055148                0.10071727               -0.33540956               -0.00030514                0.11232102               -0.00156628
               7.70387968                6.01394998               22.85860279                0.72718075                0.17169072                0.17191268               -0.57255884               -0.00017317                0.09719636               -0.00340271
               8.70595221                6.01426058               22.79959314                0.73434548                0.24279284                0.24319278               -0.80971650               -0.00001752                0.07323407               -0.00603118
               9.70873554                6.01455753               22.74032583                0.74440027                0.31386300                0.31453448               -1.04685677                0.00005858                0.04007474               -0.00980062
              10.71222947                6.01483970               22.68071454                0.87627372                0.34939283                0.38581598               -1.28393772                0.00077959                0.01901892               -0.01495107
               0.70850802                7.00811303               23.27028495                0.87669596               -0.28881668               -0.32527097                1.08189810               -0.00060582                0.01455126                0.01575126
               1.70561985                7.00923928               23.21055944                0.74436479               -0.25339300               -0.25382440                0.84485006                0.00021781                0.04572309                0.00889536
               2.70344016                7.01035253               23.15139445                0.73373289               -0.18249157               -0.18238322                0.60797422                0.00005251                0.08859630                0.00518660
               3.70197002                7.01144872               23.09247904                0.72676024               -0.11145501               -0.11118215                0.37099206               -0.00026475                0.11025903                0.00281276
               4.70121106                7.01252786               23.03371553                0.72264545               -0.04030944               -0.04007770                0.13394265               -0.00042969                0.12187417                0.00119238
               5.70116383                7.01359129               22.97501627                0.72135195                0.03086372                0.03102533               -0.10315364               -0.00045276                0.12415274               -0.00011781
               6.70182833                7.01464035               22.91629780                0.72286476                0.10203781                0.10214697               -0.34028393               -0.00036534                0.11737334               -0.00150124
               7.70320459                7.01567616               22.85747806                0.72719036                0.17319918                0.17330963               -0.57743753               -0.00017464                0.10153761               -0.00335939
               8.70529232                7.01669959               22.79847359                0.73435673                0.24430736                0.24457379               -0.81459967                0.00008333                0.07643362               -0.00617699
               9.70809074                7.01771025               22.73919808                0.74441323                0.31534259                0.31599682               -1.05174534                0.00020499                0.04176190               -0.01053231
              10.71159917                7.01870559               22.67956208                0.87628099                0.35084330                0.38742414               -1.28883456                0.00087881                0.01986407               -0.01689170
               0.70701942                8.00486654               23.26908304                0.87668913               -0.28733817               -0.32419248                1.07700936               -0.00045151                0.01559727                0.01548561
               1.70414604                8.00670878               23.20932537                0.74435424               -0.25200393               -0.25213176                0.83994914                0.00030576                0.04858586                0.00744941
               2.70197934                8.00853692               23.15016489                0.73372794               -0.18114256               -0.18073590                0.60308341               -0.00010425                0.09401203                0.00412470
               3.70052318                8.01034460               23.09126867                0.72676070               -0.10999794               -0.10971025                0.36611090               -0.00042403                0.11676877                0.00219939
               4.69977938                8.01213439               23.03253184                0.72265041               -0.03880402               -0.03863604                0.12906873               -0.00050971                0.12888523                0.00092559
               5.69974710                8.01390876               22.97386214                0.72136042                0.03234146                0.03246667               -0.10802260               -0.00048214                0.13124440               -0.00008318
               6.70042621                8.01566895               22.91517231                0.72287570                0.10349223                0.10358757               -0.34514947               -0.00040238                0.12415376               -0.00116026
               7.70181695                8.01741617               22.85637623                0.72720274                0.17467902                0.17472297               -0.58230057               -0.00022955                0.10753598               -0.00267029
               8.70391979                8.01915206               22.79738510                0.73436972                0.24583427                0.24590225               -0.81946149                0.00007839                0.08101764               -0.00512013
               9.70673363                8.02087747               22.73810531                0.74442678                0.31682835                0.31737445               -1.05660965                0.00035587                0.04425375               -0.00938531
              10.71025636                8.02258819               22.67844115                0.87628826                0.35227224                0.38923146               -1.29370929                0.00104452                0.02114565               -0.01670615
               0.70481451                9.00162918               23.26783152                0.87668231               -0.28589183               -0.32360041                1.07209225               -0.00052148                0.01708551                0.01141666
               1.70195559                9.00419664               23.20803826                0.74434496               -0.25061282               -0.25012662                0.83501619                0.00001703                0.05291838                0.00385496
               2.69980226                9.00673781               23.14889939                0.73372588               -0.17957626               -0.17939857                0.59817074               -0.00034823                0.10183058                0.00222458
               3.69836407                9.00925452               23.09003761                0.72676491               -0.10827751               -0.10833641                0.36121570               -0.00047364                0.12546262                0.00116686
               4.69763671                9.01175513               23.03134030                0.72265964               -0.03722209               -0.03722816                0.12418839               -0.00038864                0.13791833                0.00048593
               5.69761963                9.01424062               22.97271218                0.72137331                0.03380823                0.03391411               -0.11288980               -0.00034295                0.14032526               -0.00004281
               6.69831287                9.01671210               22.91406318                0.72289083                0.10486295                0.10506597               -0.35000465               -0.00030230                0.13298286               -0.00061368
               7.69971689                9.01917062               22.85530397                0.72721883                0.17598577                0.17621227               -0.58714458               -0.00024908                0.11571875               -0.00144774
               8.70183259                9.02161763               22.79634104                0.73438548                0.24724204                0.24736107               -0.82429582               -0.00003094                0.08780700               -0.00288536
               9.70466173                9.02405774               22.73707055                0.74444151                0.31830217                0.31857262               -1.06143947                0.00031094                0.04820308               -0.00563208
              10.70819863                9.02649022               22.67737814                0.87629555                0.35369024                0.39142704               -1.29854971                0.00104699                0.02320131               -0.01219923
               0.70187406                9.99839454               23.26647761                0.93833911               -0.28363166               -0.32346411                1.06712409                0.03712559                0.02225833                0.00982399
               1.69903774               10.00170625               23.20667757                0.87217002               -0.24797776               -0.24903935                0.83004375                0.03593487                0.06110942                0.00288864
               2.69691450               10.00494895               23.14759277                0.86686323               -0.17706734               -0.17888691                0.59323172                0.03480543                0.11293509                0.00210782
               3.69549639               10.00817787               23.08878310                0.86338504               -0.10644987               -0.10766457                0.35630194                0.03527619                0.13654793                0.00115342
               4.69478550               10.01138982               23.03013996                0.86133417               -0.03565557               -0.03653096                0.11929901                0.03533806                0.14911683                0.00042339
               5.69478328               10.01458704               22.97156661                0.86069222                0.03523291                0.03464189               -0.11775555                0.03538750                0.15151811               -0.00022770
               6.69549016               10.01777027               22.91297200                0.86145172                0.10615764                0.10581705               -0.35484721                0.03539786                0.14406187               -0.00090191
               7.69690643               10.02094042               22.85426559                0.86361591                0.17709483                0.17697947               -0.59196430                0.03540531                0.12652445               -0.00172085
               8.69903206               10.02409928               22.79535184                0.86719894                0.24804156                0.24816499               -0.82909339                0.03537233                0.09805176               -0.00289009
               9.70186726               10.02724892               22.73612313                0.87222627                0.31901360                0.31911869               -1.06621691                0.03642594                0.05612098               -0.00479013
              10.70541233               10.03041673               22.67643348                0.93815041                0.35450648                0.39265066               -1.30332299                0.03815025                0.02915845               -0.01061505
               0.75994549                0.03237281               24.28960197                0.93838087               -0.29503130               -0.33278246                1.10348837               -0.03788478                0.01812717               -0.00479134
               1.75699518                0.02848844               24.22763337                0.87238824               -0.25992837               -0.25962550                0.86906295               -0.03582428                0.04262404               -0.00485921
               2.75474693                0.02463009               24.16608920                0.86712050               -0.18986501               -0.18982230                0.63476679               -0.03484073                0.07819200               -0.00244805
               3.75319788                0.02075955               24.10478213                0.86351733               -0.11988454               -0.11943348                0.40045587               -0.03506203                0.09884384               -0.00148565
               4.75234923                0.01687649               24.04361683                0.86138004               -0.04978940               -0.04911452                0.16612580               -0.03509334                0.10997144               -0.00069787
               5.75220209                0.01297898               23.98251382                0.86069818                0.02037778                0.02122423               -0.06822263               -0.03512191                0.11258355               -0.00001716
               6.75275679                0.00906644               23.92139794                0.86146780                0.09056715                0.09156465               -0.30259177               -0.03512431                0.10697185                0.00062493
               7.75401343                0.00513822               23.86019555                0.86369098                0.16074558                0.16189569               -0.53698480               -0.03513303                0.09315447                0.00127916
               8.75597170                0.00119259               23.79883186                0.86737613                0.23092229                0.23228310               -0.77140253               -0.03506278                0.07089716                0.00199844
               9.75863188               -0.00277155               23.73722853                0.87253838                0.30101776                0.30233288               -1.00584049               -0.03598622                0.03955315                0.00280219
              10.76199206               -0.00678016               23.67529782                0.93836036                0.33601767                0.37533957               -1.24029853               -0.03607970                0.01940889                0.00431907
               0.76345102                1.02904499               24.28841311                0.87653959               -0.29427243               -0.33145775                1.09874752               -0.00092482                0.01512110               -0.00404498
               1.76050830                1.02589218               24.22642702                0.74430271               -0.25940291               -0.25913133                0.86431279               -0.00020392                0.04085952               -0.00517198
               2.75826296                1.02273187               24.16489040                0.73384868               -0.18921177               -0.18893898                0.63001341                0.00006558                0.07694242               -0.00283179
               3.75672406                1.01956522               24.10357626                0.72684219               -0.11871885               -0.11866096                0.39568114                0.00021188                0.09675604               -0.00166996
               4.75588858                1.01638535               24.04240199                0.72269307               -0.04840793               -0.04836561                0.16132845                0.00015320                0.10771189               -0.00090468
               5.75575590                1.01319123               23.98128877                0.72137344                0.02186726                0.02194961               -0.07304287                0.00011160                0.11021840               -0.00033657
               6.75632593                1.00998208               23.92016213                0.72287200                0.09215639                0.09227186               -0.30743539                0.00007780                0.10456022                0.00014510
               7.75759903                1.00675718               23.85894894                0.72719407                0.16250140                0.16259494               -0.54185283                0.00003903                0.09074649                0.00062896
               8.75957596                1.00351542               23.79757491                0.73436154                0.23296811                0.23294113               -0.77629599               -0.00018623                0.06852491                0.00119775
               9.76225839                1.00025178               23.73596189                0.74441349                0.30319573                0.30336833               -1.01075960               -0.00029152                0.03751997                0.00194183
              10.76563987                0.99697323               23.67402811                0.87627972                0.33814808                0.37541180               -1.24522592                0.00075796                0.01768404                0.00313026
               0.76623261                2.02574366               24.28716525                0.87631554               -0.29283899               -0.32917887                1.09399736               -0.00099212                0.01243792               -0.00307492
               1.76330422                2.02330581               24.22515681                0.74382550               -0.25787015               -0.25807113                0.85956325               -0.00039529                0.04036470               -0.00413205
               2.76107520                2.02085132               24.16364195                0.73345351               -0.18777878               -0.18744697                0.62529259               -0.00014470                0.07817813               -0.00284845
               3.75954864                2.01838633               24.10234044                0.72664730               -0.11744579               -0.11716998                0.39094149                0.00009687                0.09720413               -0.00174470
               4.75872629                2.01590918               24.04117245                0.72262432               -0.04705256               -0.04688894                0.15655509                0.00014681                0.10767628               -0.00100462
               5.75860759                2.01341798               23.98006248                0.72134952                0.02330544                0.02340664               -0.07785577                0.00010598                0.10994019               -0.00047261
               6.75919240                2.01091187               23.91893758                0.72280857                0.09366454                0.09371670               -0.31229010                0.00003636                0.10417803               -0.00006156
               7.76048088                2.00839012               23.85772589                0.72700769                0.16404880                0.16404818               -0.54674944               -0.00010390                0.09037895                0.00029784
               8.76247337                2.00585141               23.79635424                0.73397378                0.23436756                0.23444149               -0.78123107               -0.00033172                0.06830370                0.00066997
               9.76516823                2.00329582               23.73474600                0.74375467                0.30454670                0.30518731               -1.01572100               -0.00046261                0.03750076                0.00112785
              10.76856431                2.00072807               23.67281892                0.87584136                0.33960749                0.37604440               -1.25018397                0.00041202                0.01774499                0.00162211
               0.76830687                3.02246141               24.28592242                0.87630860               -0.29141389               -0.32742014                1.08923100               -0.00085701                0.01277270                0.00170521
               1.76539273                3.02073076               24.22391390                0.74381266               -0.25636616               -0.25682143                0.85480557               -0.00029052                0.04079749                0.00052118
               2.76317955                3.01898293               24.16240123                0.73344141               -0.18622997               -0.18619866                0.62053556               -0.00027126                0.07896975               -0.00007231
               3.76166813                3.01722182               24.10110717                0.72663609               -0.11598354               -0.11577206                0.38617561               -0.00008434                0.09817974               -0.00020245
               4.76085988                3.01544757               24.03994540                0.72261471               -0.04564010               -0.04544400                0.15176748               -0.00000313                0.10850227               -0.00026172
               5.76075533                3.01365936               23.97884019                0.72134238                0.02473198                0.02487066               -0.08267189               -0.00001366                0.11061583               -0.00036218
               6.76135452                3.01185642               23.91771882                0.72280481                0.09510432                0.09520082               -0.31713741               -0.00008448                0.10471967               -0.00055544
               7.76265742                3.01003814               23.85650954                0.72700822                0.16545537                0.16557647               -0.55162711               -0.00020481                0.09079973               -0.00088733
               8.76466362                3.00820425               23.79513932                0.73397932                0.23575282                0.23606727               -0.78613395               -0.00033699                0.06860919               -0.00139780
               9.76737247                3.00635553               23.73353148                0.74376530                0.30599875                0.30669462               -1.02063795               -0.00029526                0.03766852               -0.00213105
              10.77078360                3.00449412               23.67160339                0.87584812                0.34111256                0.37726281               -1.25509987                0.00056723                0.01782481               -0.00313813
               0.76967677                4.01919525               24.28469719                0.87630166               -0.28998835               -0.32586921                1.08445548               -0.00078243                0.01299988                0.00672484
               1.76677688                4.01816938               24.22267962                0.74380042               -0.25490225               -0.25542412                0.85003213               -0.00016136                0.04146187                0.00397476
               2.76457872                4.01712734               24.16116697                0.73343097               -0.18472830               -0.18486992                0.61576107               -0.00021397                0.08025427                0.00234361
               3.76308232                4.01607089               24.09987660                0.72662745               -0.11450201               -0.11439580                0.38139330               -0.00016390                0.09974698                0.00121774
               4.76228868                4.01500030               24.03872083                0.72260818               -0.04419239               -0.04401181                0.14697025               -0.00013307                0.11018406                0.00041967
               5.76219847                4.01391539               23.97762193                0.72133852                0.02616225                0.02633198               -0.08748957               -0.00014243                0.11224956               -0.00026844
               6.76281193                4.01281589               23.91650592                0.72280415                0.09652422                0.09668781               -0.32197796               -0.00017730                0.10619144               -0.00102583
               7.76412895                4.01170165               23.85530003                0.72701129                0.16686595                0.16710069               -0.55648966               -0.00022188                0.09201116               -0.00201251
               8.76614925                4.01057275               23.79393029                0.73398649                0.23717480                0.23759669               -0.79101414               -0.00023658                0.06947325               -0.00337409
               9.76887245                4.00942971               23.73231921                0.74377646                0.30746062                0.30814076               -1.02552818               -0.00016541                0.03811622               -0.00523260
              10.77229846                4.00827333               23.67038360                0.87585485                0.34260080                0.37861967               -1.25999027                0.00064681                0.01804138               -0.00766725
               0.77034297                5.01594403               24.28348214                0.87629486               -0.28855500               -0.32440637                1.07966938               -0.00073434                0.01335615                0.01092744
               1.76745742                5.01562228               24.22144893                0.74378861               -0.25346033               -0.25399036                0.84524427               -0.00004598                0.04244524                0.00674162
               2.76527376                5.01528553               24.15993351                0.73342181               -0.18327606               -0.18345560                0.61097227               -0.00010885                0.08216747                0.00414168
               3.76379189                5.01493390               24.09864643                0.72662094               -0.11305221               -0.11297288                0.37659935               -0.00017109                0.10214121                0.00229422
               4.76301272                5.01456733               24.03749783                0.72260438               -0.04275007               -0.04257166                0.14216630               -0.00022364                0.11283451                0.00094014
               5.76293689                5.01418600               23.97640767                0.72133758                0.02759985                0.02778528               -0.09230750               -0.00024842                0.11492343               -0.00019795
               6.76356471                5.01379017               23.91529963                0.72280622                0.09796103                0.09815209               -0.32681190               -0.00023833                0.10866471               -0.00139727
               7.76489611                5.01338015               23.85409879                0.72701651                0.16830579                0.16857362               -0.56133916               -0.00019397                0.09407822               -0.00292387
               8.76693083                5.01295618               23.79272922                0.73399493                0.23862363                0.23906585               -0.79587637               -0.00012590                0.07095542               -0.00502977
               9.76966859                5.01251834               23.73111182                0.74378815                0.30892321                0.30958933               -1.03039851               -0.00005577                0.03888308               -0.00792979
              10.77310929                5.01206652               23.66916241                0.87586172                0.34407056                0.38004761               -1.26486332                0.00070628                0.01841719               -0.01175919
               0.77030558                6.01270713               24.28226867                0.87628817               -0.28711219               -0.32300636                1.07487153               -0.00068227                0.01386097                0.01409183
               1.76743446                6.01308957               24.22021345                0.74377729               -0.25203276               -0.25254185                0.84044091                0.00007567                0.04385531                0.00851185
               2.76526492                6.01345823               24.15869444                0.73341390               -0.18186793               -0.18196834                0.60616986               -0.00000011                0.08491358                0.00517498
               3.76379710                6.01381143               24.09741238                0.72661644               -0.11164058               -0.11149307                0.37179534               -0.00017717                0.10558258                0.00286688
               4.76303211                6.01414887               24.03627442                0.72260322               -0.04132174               -0.04111362                0.13735725               -0.00030921                0.11666093                0.00121494
               5.76297066                6.01447109               23.97519730                0.72133947                0.02904477                0.02922846               -0.09712471               -0.00034569                0.11881508               -0.00015134
               6.76361301                6.01477893               23.91410153                0.72281089                0.09942024                0.09958439               -0.33163904               -0.00029172                0.11230452               -0.00158471
               7.76495907                6.01507312               23.85290902                0.72702373                0.16977668                0.16999467               -0.56617634               -0.00016330                0.09715565               -0.00343957
               8.76700854                6.01535407               23.79154081                0.73400459                0.24009661                0.24048890               -0.80072236               -0.00001206                0.07318357               -0.00608521
               9.76976100                6.01562150               23.72991511                0.74380028                0.31038476                0.31104452               -1.03525153                0.00006045                0.04004274               -0.00987055
              10.77321623                6.01587428               23.66794602                0.87586871                0.34552355                0.38154146               -1.26972205                0.00077195                0.01899158               -0.01503676
               0.76956442                7.00948390               24.28104493                0.87628156               -0.28565990               -0.32170810                1.07005904               -0.00059829                0.01457603                0.01582164
               1.76670783                7.01057144               24.21896194                0.74376651               -0.25062628               -0.25104802                0.83561929                0.00021822                0.04585616                0.00894049
               2.76455190                7.01164617               24.15744120                0.73340735               -0.18050563               -0.18039443                0.60135259                0.00005758                0.08877999                0.00522341
               3.76309771                7.01270404               24.09616898                0.72661424               -0.11025153               -0.10997861                0.36698115               -0.00025425                0.11036877                0.00284003
               4.76234687                7.01374506               24.03504799                0.72260491               -0.03988983               -0.03965821                0.13254354               -0.00041597                0.12193456                0.00120743
               5.76229992                7.01477057               23.97399079                0.72134441                0.03049924                0.03066089               -0.10194054               -0.00043855                0.12417508               -0.00011746
               6.76295685                7.01578186               23.91291404                0.72281838                0.10088959                0.10099847               -0.33645869               -0.00035309                0.11736394               -0.00151702
               7.76431771                7.01678005               23.85173577                0.72703316                0.17126778                0.17137675               -0.57100049               -0.00016650                0.10150361               -0.00339175
               8.76638221                7.01776596               23.79037270                0.73401556                0.24159370                0.24185553               -0.80555124                0.00008616                0.07638924               -0.00622620
               9.76914958                7.01873923               23.72873874                0.74381290                0.31184744                0.31249172               -1.04008612                0.00020434                0.04173409               -0.01060022
              10.77261916                7.01969735               23.66674486                0.87587580                0.34695753                0.38313301               -1.27456520                0.00086966                0.01983941               -0.01698325
               0.76811853                8.00627296               24.27979442                0.87627492               -0.28419772               -0.32064368                1.06522649               -0.00044611                0.01562683                0.01555386
               1.76527655                8.00806861               24.21767915                0.74375632               -0.24925263               -0.24937545                0.83077432                0.00030407                0.04873472                0.00748364
               2.76313348                8.00985034               24.15616300                0.73340268               -0.17917160               -0.17876689                0.59651748               -0.00009933                0.09422231                0.00415362
               3.76169312                8.01161186               24.09491007                0.72661486               -0.10881068               -0.10852421                0.36215541               -0.00041361                0.11690361                0.00222125
               4.76095726                8.01335570               24.03381584                0.72260996               -0.03840136               -0.03823315                0.12772479               -0.00049703                0.12896833                0.00093783
               5.76092509                8.01508431               23.97278824                0.72135286                0.03196018                0.03208611               -0.10675462               -0.00046959                0.13128753               -0.00008255
               6.76159647                8.01679890               23.91174016                0.72282925                0.10232738                0.10242342               -0.34126965               -0.00039157                0.12416391               -0.00117245
               7.76297164                8.01850065               23.85058558                0.72704536                0.17273059                0.17277522               -0.57580931               -0.00022234                0.10752043               -0.00269597
               8.76505108                8.02019118               23.78923585                0.73402830                0.24310297                0.24317060               -0.81035930                0.00008010                0.08098924               -0.00516045
               9.76783370                8.02187133               23.72759759                0.74382609                0.31331617                0.31385559               -1.04489706                0.00035276                0.04423609               -0.00944445
              10.77131740                8.02353694               23.66557544                0.87588285                0.34837021                0.38492150               -1.27938676                0.00103310                0.02112713               -0.01679535
               0.76596420                9.00307102               24.27849400                0.87626829               -0.28276731               -0.32005990                1.06036496               -0.00051584                0.01712166                0.01146790
               1.76313653                9.00558393               24.21634298                0.74374733               -0.24787685               -0.24739297                0.82589678                0.00001680                0.05309177                0.00387066
               2.76100667                9.00807083               24.15484866                0.73340083               -0.17762259               -0.17744588                0.59166012               -0.00034267                0.10208195                0.00224177
               3.75958408                9.01053355               24.09363033                0.72661924               -0.10710956               -0.10716629                0.35731543               -0.00046493                0.12563573                0.00118012
               4.75886448                9.01298040               24.03257577                0.72261928               -0.03683752               -0.03684124                0.12289954               -0.00037993                0.13803747                0.00049344
               5.75884733                9.01541229               23.97158989                0.72136571                0.03341024                0.03351734               -0.11156686               -0.00033471                0.14040298               -0.00004221
               6.75953268                9.01783033               23.91058276                0.72284427                0.10368264                0.10388545               -0.34607007               -0.00029504                0.13302662               -0.00062072
               7.76092098                9.02023555               23.84946516                0.72706128                0.17402268                0.17424827               -0.58059883               -0.00024335                0.11573562               -0.00146287
               8.76301313                9.02262937               23.78814372                0.73404384                0.24449469                0.24461386               -0.81513946               -0.00002893                0.08780772               -0.00290959
               9.76581088                9.02501634               23.72651480                0.74384050                0.31477303                0.31504171               -1.04967300                0.00030810                0.04820458               -0.00566889
              10.76930859                9.02739578               23.66446429                0.87588997                0.34977195                0.38709305               -1.28417331                0.00103522                0.02319447               -0.01226408
               0.76308240                9.99987177               24.27709068                0.93813214               -0.28053164               -0.31992579                1.05545081                0.03671830                0.02231848                0.00987316
               1.76027708               10.00312075               24.21493284                0.87187129               -0.24526997               -0.24631763                0.82097831                0.03553801                0.06132540                0.00290237
               2.75817700               10.00630142               24.15349292                0.86670076               -0.17514148               -0.17694057                0.58677529                0.03442221                0.11324360                0.00212477
               3.75677425               10.00946853               24.09232697                0.86331225               -0.10530355               -0.10650199                0.35245607                0.03489011                0.13677357                0.00116538
               4.75607093               10.01261888               24.03132681                0.86131400               -0.03528930               -0.03615186                0.11806479                0.03495149                0.14928764                0.00042949
               5.75606847               10.01575466               23.97039594                0.86068844                0.03481880                0.03423696               -0.11637771                0.03500034                0.15164685               -0.00022813
               6.75676730               10.01887661               23.90944342                0.86142843                0.10496321                0.10462809               -0.35085757                0.03501036                0.14415618               -0.00090929
               7.75816773               10.02198562               23.84837885                0.86353712                0.17512011                0.17500688               -0.58536341                0.03501739                0.12659127               -0.00173547
               8.76026971               10.02508346               23.78710682                0.86702806                0.24528625                0.24540879               -0.81988189                0.03498450                0.09810101               -0.00291263
               9.76307346               10.02817217               23.72551988                0.87192567                0.31547677                0.31558218               -1.05439539                0.03602540                0.05616214               -0.00482262
              10.76657924               10.03127880               23.66347218                0.93794756                0.35057860                0.38830295               -1.28889148                0.03772867                0.02918352               -0.01067356
               0.82326781                0.03353742               25.30057555                0.93817051               -0.29174457               -0.32907315                1.09118664               -0.03745984                0.01818683               -0.00479878
               1.82035036                0.02966996               25.23627579                0.87208069               -0.25703513               -0.25673503                0.85938868               -0.03542201                0.04277045               -0.00485614
               2.81812711                0.02582827               25.17240175                0.86694967               -0.18775770               -0.18771568                0.62771947               -0.03444973                0.07841279               -0.00242964
               3.81659521                0.02197451               25.10876467                0.86344024               -0.11856253               -0.11811545                0.39603562               -0.03466900                0.09906015               -0.00147083
               4.81575586                0.01810839               25.04526916                0.86135838               -0.04925353               -0.04858446                0.16433262               -0.03469978                0.11017668               -0.00068851
               5.81561014                0.01422798               24.98183576                0.86069423                0.02012704                0.02096616               -0.06738885               -0.03472795                0.11277207               -0.00001372
               6.81615840                0.01033270               24.91838927                0.86144382                0.08952987                0.09051838               -0.29913112               -0.03473034                0.10713589                0.00062227
               7.81740074                0.00642192               24.85485605                0.86360924                0.15892220                0.16006127               -0.53089719               -0.03473911                0.09328690                0.00127012
               8.81933684                0.00249391               24.79116127                0.86719862                0.22831302                0.22965977               -0.76268752               -0.03466982                0.07099456                0.00198305
               9.82196700               -0.00145240               24.72722666                0.87222656                0.29762304                0.29892412               -0.99449736               -0.03558257                0.03961257                0.00278132
              10.82528930               -0.00544267               24.66296447                0.93815013                0.33223048                0.37111180               -1.22632604               -0.03567386                0.01943493                0.00431096
               0.82676068                1.03024669               25.29933957                0.87612416               -0.29099575               -0.32776274                1.08650286               -0.00091312                0.01515419               -0.00403281
               1.82385072                1.02710261               25.23502223                0.74369898               -0.25651734               -0.25624701                0.85469559               -0.00020075                0.04098273               -0.00514966
               2.82163033                1.02395111               25.17115570                0.73351649               -0.18711306               -0.18684242                0.62302276                0.00006600                0.07713444               -0.00278324
               3.82010846                1.02079336               25.10751134                0.72669255               -0.11741031               -0.11735200                0.39131696                0.00021113                0.09693424               -0.00162877
               4.81928213                1.01762255               25.04400662                0.72265126               -0.04788767               -0.04784425                0.15959056                0.00015337                0.10787841               -0.00087941
               5.81915071                1.01443764               24.98056277                0.72136576                0.02159998                0.02168321               -0.07215462                0.00011238                0.11036776               -0.00033044
               6.81971412                1.01123788               24.91710529                0.72282535                0.09110171                0.09121762               -0.30392100                0.00007874                0.10468402                0.00013102
               7.82097274                1.00802253               24.85356102                0.72703514                0.16065880                0.16075279               -0.53571198                0.00003987                0.09083713                0.00059483
               8.82292730                1.00479051               24.78985565                0.73401624                0.23033608                0.23031069               -0.76752800               -0.00018356                0.06857925                0.00114575
               9.82557946                1.00153685               24.72591109                0.74380622                0.29977682                0.29994833               -0.99936346               -0.00028766                0.03754422                0.00187898
              10.82892284                0.99826845               24.66164576                0.87586997                0.33433755                0.37118273               -1.23120046                0.00075088                0.01768291                0.00308079
               0.82953772                2.02698217               25.29804448                0.87590544               -0.28957907               -0.32550861                1.08180766               -0.00098016                0.01245931               -0.00305224
               1.82664193                2.02454502               25.23370480                0.74323324               -0.25500221               -0.25519916                0.85000083               -0.00038962                0.04049012               -0.00409516
               2.82443767                2.02209142               25.16986031                0.73313088               -0.18569642               -0.18536711                0.61835611               -0.00014015                0.07836251               -0.00278846
               3.82292800                2.01962747               25.10622838                0.72650229               -0.11615168               -0.11587802                0.38663133                0.00009987                0.09734356               -0.00169067
               4.82211464                2.01715151               25.04272962                0.72258389               -0.04654742               -0.04638448                0.15487136                0.00014994                0.10779363               -0.00097083
               5.82199705                2.01466165               24.97928863                0.72134207                0.02302211                0.02312358               -0.07691300                0.00010974                0.11003618               -0.00046545
               6.82257508                2.01215705               24.91583248                0.72276314                0.09259293                0.09264596               -0.30872075                0.00004049                0.10424708               -0.00008323
               7.82384891                2.00963698               24.85228928                0.72685327                0.16218872                0.16218949               -0.54055321               -0.00009913                0.09041623                0.00024835
               8.82581886                2.00710012               24.78858591                0.73363810                0.23171975                0.23179398               -0.77240744               -0.00032557                0.06831212                0.00059781
               9.82848330                2.00454657               24.72464586                0.74316356                0.30111282                0.30174655               -1.00426933               -0.00045626                0.03749962                0.00104559
              10.83184111                2.00198099               24.66038726                0.87544228                0.33578094                0.37180770               -1.23610348                0.00040796                0.01773298                0.00155298
               0.83161538                3.02373652               25.29675425                0.87589871               -0.28817039               -0.32376909                1.07709518               -0.00084643                0.01279499                0.00173823
               1.82873367                3.02199862               25.23241457                0.74322074               -0.25351539               -0.25396296                0.84529676               -0.00028521                0.04091969                0.00056438
               2.82654507                3.02024377               25.16857229                0.73311905               -0.18416514               -0.18413228                0.61365254               -0.00026386                0.07914203               -0.00002572
               3.82505037                3.01847580               25.10494772                0.72649126               -0.11470593               -0.11449540                0.38191905               -0.00007745                0.09829579               -0.00016117
               4.82425095                3.01669486               25.04145496                0.72257431               -0.04515084               -0.04495572                0.15013782                0.00000370                0.10858631               -0.00023612
               5.82414736                3.01490011               24.97801845                0.72133487                0.02443263                0.02457088               -0.08167444               -0.00000652                0.11067362               -0.00035849
               6.82473960                3.01309080               24.91456552                0.72275933                0.09401649                0.09411283               -0.31351270               -0.00007706                0.10474939               -0.00057595
               7.82602768                3.01126632               24.85102443                0.72685362                0.16357946                0.16369974               -0.54537492               -0.00019713                0.09080046               -0.00093061
               8.82801119                3.00942639               24.78732224                0.73364341                0.23308957                0.23340032               -0.77725398               -0.00032935                0.06858898               -0.00145826
               9.83068948                3.00757178               24.72338247                0.74317389                0.30254870                0.30323557               -1.00912989               -0.00028998                0.03765160               -0.00219842
              10.83406217                3.00570460               24.65912285                0.87544884                0.33726916                0.37301205               -1.24096336                0.00056168                0.01780441               -0.00319898
               0.83299658                4.02050679               25.29548154                0.87589193               -0.28676107               -0.32223522                1.07237332               -0.00077262                0.01302107                0.00677064
               1.83012897                4.01946576               25.23113282                0.74320877               -0.25206806               -0.25258070                0.84057663               -0.00015696                0.04158130                0.00402076
               2.82795522                4.01840878               25.16729055                0.73310885               -0.18268040               -0.18281785                0.60893136               -0.00020625                0.08041876                0.00238741
               3.82647536                4.01733757               25.10366959                0.72648276               -0.11324110               -0.11313419                0.37719035               -0.00015503                0.09984817                0.00125333
               4.82569040                4.01625239               25.04018269                0.72256787               -0.04371945               -0.04353955                0.14539473               -0.00012354                0.11024678                0.00044069
               5.82560097                4.01515306               24.97675229                0.72133104                0.02584674                0.02601549               -0.08643729               -0.00013258                0.11228191               -0.00026678
               6.82620733                4.01403931               24.91330449                0.72275859                0.09542032                0.09558250               -0.31829770               -0.00016765                0.10619480               -0.00104553
               7.82750938                4.01291097               24.84976658                0.72685652                0.16497409                0.16520588               -0.55018131               -0.00021303                0.09198797               -0.00205239
               8.82950682                4.01176813               24.78606469                0.73365035                0.23449545                0.23491136               -0.78207759               -0.00022943                0.06943491               -0.00342979
               9.83219929                4.01061128               24.72212157                0.74318473                0.30399396                0.30466436               -1.01396343               -0.00016132                0.03808968               -0.00529716
              10.83558669                4.00944123               24.65785444                0.87545540                0.33874046                0.37435304               -1.24579741                0.00064043                0.01801620               -0.00773213
               0.83368198                5.01729181               25.29421889                0.87588530               -0.28534391               -0.32078894                1.06764121               -0.00072512                0.01337722                0.01098453
               1.83082855                5.01694701               25.22985452                0.74319721               -0.25064241               -0.25116278                0.83584247               -0.00004270                0.04256483                0.00679028
               2.82866914                5.01658741               25.16600947                0.73309989               -0.18124453               -0.18141915                0.60419632               -0.00010208                0.08233040                0.00418437
               3.82720366                5.01621311               25.10239175                0.72647640               -0.11180764               -0.11172712                0.37245039               -0.00016191                0.10223617                0.00232706
               4.82643298                5.01582407               25.03891192                0.72256419               -0.04229342               -0.04211564                0.14064519               -0.00021279                0.11288643                0.00095871
               5.82635779                5.01542042               24.97549012                0.72133007                0.02726802                0.02745219               -0.09120029               -0.00023706                0.11494187               -0.00019724
               6.82697834                5.01500245               24.91205014                0.72276062                0.09684075                0.09702984               -0.32307617               -0.00022776                0.10865324               -0.00141611
               7.82829460                5.01457044               24.84851712                0.72686160                0.16639744                0.16666158               -0.55497484               -0.00018538                0.09404172               -0.00296166
               8.83030629                5.01412462               24.78481528                0.73365851                0.23592766                0.23636325               -0.78688356               -0.00012008                0.07090739               -0.00508380
               9.83301315                5.01366506               24.72086576                0.74319604                0.30543978                0.30609601               -1.01877753               -0.00005296                0.03885171               -0.00799610
              10.83641509                5.01319166               24.65658480                0.87546208                0.34019337                0.37576466               -1.25061457                0.00069919                0.01838982               -0.01183364
               0.83367169                6.01409101               25.29295771                0.87587876               -0.28391733               -0.31940537                1.06289805               -0.00067379                0.01388326                0.01415821
               1.83083252                6.01444250               25.22857128                0.74318631               -0.24923093               -0.24973084                0.83109353                0.00007738                0.04397921                0.00856114
               2.82868707                6.01478039               25.16472264                0.73309221               -0.17985228               -0.17994886                0.59944833                0.00000504                0.08508264                0.00521614
               3.82723547                6.01510302               25.10110993                0.72647210               -0.11041195               -0.11026423                0.36770090               -0.00016840                0.10568056                0.00289756
               4.82647883                6.01541008               25.03764069                0.72256307               -0.04088128               -0.04067427                0.13589086               -0.00029782                0.11671252                0.00123195
               5.82641785                6.01570211               24.97423186                0.72133196                0.02869645                0.02887888               -0.09596248               -0.00033363                0.11883065               -0.00015087
               6.82705276                6.01597991               24.91080404                0.72276516                0.09828318                0.09844580               -0.32784800               -0.00028103                0.11228915               -0.00160233
               7.82838351                6.01624420               24.84727926                0.72686863                0.16785134                0.16806646               -0.55975650               -0.00015564                0.09711574               -0.00347530
               8.83040979                6.01649540               24.78357869                0.73366790                0.23738362                0.23777016               -0.79167395               -0.00000810                0.07313355               -0.00613804
               9.83313118                6.01673320               24.71962080                0.74320791                0.30688447                0.30753478               -1.02357501                0.00006162                0.04001084               -0.00993948
              10.83654748                6.01695652               24.65532010                0.87546886                0.34162962                0.37724192               -1.25541795                0.00076398                0.01896429               -0.01512189
               0.83296552                7.01090371               25.29168613                0.87587238               -0.28248139               -0.31812288                1.05814094               -0.00059098                0.01460105                0.01589337
               1.83014071                7.01195239               25.22727182                0.74317583               -0.24784032               -0.24825452                0.82632703                0.00021785                0.04598939                0.00898650
               2.82800872                7.01298844               25.16342150                0.73308591               -0.17850536               -0.17839337                0.59468607                0.00006119                0.08896438                0.00526084
               3.82657060                7.01400783               25.09981867                0.72647001               -0.10903858               -0.10876746                0.36294172               -0.00024554                0.11048007                0.00286776
               4.82582794                7.01501058               25.03636640                0.72256483               -0.03946565               -0.03923568                0.13113218               -0.00040423                0.12199680                0.00122283
               5.82578129                7.01599800               24.97297746                0.72133690                0.03013424                0.03029497               -0.10072324               -0.00042628                0.12419908               -0.00011683
               6.82643063                7.01697137               24.90956863                0.72277259                0.09973552                0.09984396               -0.33261252               -0.00034253                0.11735576               -0.00153262
               7.82777600                7.01793177               24.84605805                0.72687791                0.16932509                0.16943323               -0.56452556               -0.00015964                0.10147038               -0.00342412
               8.82981713                7.01888002               24.78236257                0.73367867                0.23886330                0.23912184               -0.79644787                0.00008819                0.07634525               -0.00627578
               9.83255326                7.01981576               24.71839636                0.74322020                0.30833021                0.30896616               -1.02835474                0.00020334                0.04170627               -0.01066886
              10.83598373                7.02073650               24.65407077                0.87547575                0.34304703                0.37881610               -1.26020639                0.00086032                0.01981475               -0.01707575
               0.83156250                8.00772855               25.29038757                0.87586592               -0.28103565               -0.31707177                1.05336403               -0.00044080                0.01565656                0.01562395
               1.82875215                8.00947741               25.22594086                0.74316594               -0.24648220               -0.24660140                0.82153754                0.00030190                0.04888368                0.00751932
               2.82663286                8.01121253               25.16209524                0.73308148               -0.17718642               -0.17678512                0.58990632               -0.00009533                0.09443326                0.00418373
               3.82520842                8.01292767               25.09851178                0.72647080               -0.10761402               -0.10733025                0.35817123               -0.00040433                0.11703994                0.00224402
               4.82448058                8.01462537               25.03508634                0.72256995               -0.03799418               -0.03782713                0.12636860               -0.00048560                0.12905317                0.00095065
               5.82444853                8.01630801               24.97172704                0.72134540                0.03157836                0.03170393               -0.10548219               -0.00045821                0.13133214               -0.00008167
               6.82511215                8.01797678               24.90834692                0.72278335                0.10115671                0.10125287               -0.33736844               -0.00038172                0.12417503               -0.00118475
               7.82647167                8.01963287               24.84486004                0.72688998                0.17077089                0.17081623               -0.56927946               -0.00021576                0.10750529               -0.00272216
               8.82852756                8.02127783               24.78117791                0.73369117                0.24035494                0.24042276               -0.80120119                0.00008148                0.08096082               -0.00520169
               9.83127877                8.02291253               24.71720737                0.74323310                0.30978186                0.31031542               -1.03311118                0.00034955                0.04421820               -0.00950483
              10.83472320                8.02453284               24.65285342                0.87548263                0.34444338                0.38058487               -1.26497355                0.00102160                0.02110849               -0.01688590
               0.82945898                9.00456227               25.28903881                0.87585946               -0.27962135               -0.31649568                1.04855785               -0.00051014                0.01715805                0.01152035
               1.82666277                9.00702036               25.22455620                0.74315722               -0.24512191               -0.24464119                0.81671526                0.00001635                0.05326533                0.00388738
               2.82455655                9.00945273               25.16073260                0.73307988               -0.17565482               -0.17548005                0.58510417               -0.00033760                0.10233406                0.00225987
               3.82314967                9.01186123               25.09718391                0.72647528               -0.10593230               -0.10598802                0.35338639               -0.00045687                0.12581035                0.00119403
               4.82243790                9.01425404               25.03379829                0.72257933               -0.03644847               -0.03645112                0.12159848               -0.00037192                0.13815835                0.00050138
               5.82242070                9.01663208               24.97048085                0.72135824                0.03301171                0.03311886               -0.11023934               -0.00032710                0.14048211               -0.00004144
               6.82309813                9.01899643               24.90714178                0.72279836                0.10249652                0.10269826               -0.34211382               -0.00028826                0.13307116               -0.00062785
               7.82447063                9.02134809               24.84369200                0.72690574                0.17204833                0.17227259               -0.57401404               -0.00023791                0.11575266               -0.00147840
               8.82653910                9.02368847               24.78003825                0.73370647                0.24173061                0.24184987               -0.80592655               -0.00002702                0.08780813               -0.00293441
               9.82930525                9.02602207               24.71607709                0.74324717                0.31122174                0.31148885               -1.03783246                0.00030523                0.04820554               -0.00570648
              10.83276354                9.02834820               24.65169467                0.87548955                0.34582884                0.38273178               -1.26970545                0.00102346                0.02318727               -0.01232970
               0.82663612               10.00139864               25.28758663                0.93792778               -0.27741051               -0.31636355                1.04369838                0.03630824                0.02237897                0.00992291
               1.82386201               10.00458459               25.22309714                0.87157638               -0.24254354               -0.24357768                0.81185147                0.03513841                0.06154178                0.00291661
               2.82178524               10.00770292               25.15932828                0.86654035               -0.17320173               -0.17498098                0.58027408                0.03403622                0.11355317                0.00214221
               3.82039798               10.01080791               25.09583223                0.86324035               -0.10414800               -0.10533120                0.34858182                0.03450112                0.13700106                0.00117767
               4.81970228               10.01389634               25.03250125                0.86129408               -0.03491859               -0.03576953                0.11681861                0.03456199                0.14946056                0.00043582
               5.81969960               10.01697038               24.96923906                0.86068471                0.03440411                0.03383028               -0.11499524                0.03461029                0.15177733               -0.00022844
               6.82039037               10.02003075               24.90595485                0.86140542                0.10376290                0.10343237               -0.34684629                0.03462005                0.14425146               -0.00091668
               7.82177486               10.02307832               24.84255832                0.86345930                0.17313408                0.17302246               -0.57872358                0.03462673                0.12665833               -0.00175024
               8.82385305               10.02611483               24.77895420                0.86685927                0.24251419                0.24263563               -0.81061401                0.03459402                0.09814992               -0.00293536
               9.82662515               10.02914230               24.71503522                0.87162888                0.31191788                0.31202351               -1.04249995                0.03562220                0.05620261               -0.00485533
              10.83009141               10.03218748               24.65065565                0.93774727                0.34662603                0.38392775               -1.27436875                0.03730449                0.02920805               -0.01073217
               0.88890874                0.03474879               26.31142570                0.93796281               -0.28843580               -0.32533905                1.07880274               -0.03703230                0.01824620               -0.00480682
               1.88602439                0.03089843               26.24482114                0.87177702               -0.25412236               -0.25382506                0.84964918               -0.03501723                0.04291594               -0.00485366
               2.88382630                0.02707359               26.17864358                0.86678093               -0.18563576               -0.18559455                0.62062360               -0.03405638                0.07863212               -0.00241187
               3.88231167                0.02323681               26.11270285                0.86336407               -0.11723064               -0.11678805                0.39158348               -0.03427367                0.09927476               -0.00145651
               4.88148169                0.01938780               26.04690348                0.86133705               -0.04871259               -0.04805019                0.16252436               -0.03430400                0.11037981               -0.00067946
               5.88133742                0.01552467               25.98116604                0.86069032                0.01987640                0.02070710               -0.06655314               -0.03433180                0.11295802               -0.00001033
               6.88187921                0.01164684               25.91541531                0.86142013                0.08848757                0.08946595               -0.29565132               -0.03433417                0.10729702                0.00061980
               7.88310717                0.00775368               25.84957761                0.86352854                0.15708853                0.15821551               -0.52477308               -0.03434292                0.09341641                0.00126149
               8.88502098                0.00384349               25.78357811                0.86702335                0.22568811                0.22702000               -0.75391876               -0.03427450                0.07108944                0.00196819
               9.88762093               -0.00008478               25.71733858                0.87191876                0.29420736                0.29549392               -0.98308344               -0.03517644                0.03967038                0.00276106
              10.89090513               -0.00405651               25.65077129                0.93794256                0.32841973                0.36685751               -1.21226620               -0.03526572                0.01946012                0.00430320
               0.89238878                1.03149540               26.31014317                0.87571402               -0.28769667               -0.32404321                1.07417549               -0.00090155                0.01518703               -0.00402230
               1.88951181                1.02836018               26.24352093                0.74310289               -0.25361180               -0.25334326                0.84501267               -0.00019783                0.04110472               -0.00512904
               2.88731655                1.02521765               26.17735085                0.73318857               -0.18499927               -0.18473148                0.61598315                0.00006577                0.07732426               -0.00273648
               3.88581183                1.02206893               26.11140260                0.72654478               -0.11609161               -0.11603378                0.38692076                0.00020935                0.09710969               -0.00158902
               4.88499471                1.01890730               26.04559380                0.72260988               -0.04736230               -0.04731878                0.15783783                0.00015224                0.10804159               -0.00085499
               5.88486458                1.01573174               25.97984568                0.72135818                0.02133260                0.02141578               -0.07126385                0.00011176                0.11051333               -0.00032433
               6.88542137                1.01254150               25.91408371                0.72277925                0.09004158                0.09015719               -0.30038656                0.00007838                0.10480393                0.00011773
               7.88666542                1.00933584               25.84823470                0.72687822                0.15880532                0.15889931               -0.52953353                0.00003967                0.09092427                0.00056217
               8.88859747                1.00611369               25.78222435                0.73367527                0.22768777                0.22766382               -0.75870501               -0.00018151                0.06863098                0.00109563
               9.89121917                1.00287016               25.71597462                0.74320669                0.29633638                0.29650688               -0.98789524               -0.00028406                0.03756705                0.00181802
              10.89452420                0.99961207               25.64940410                0.87546544                0.33050290                0.36692724               -1.21708634                0.00074348                0.01768129                0.00303273
               0.89516115                2.02826793               26.30880140                0.87550055               -0.28629676               -0.32181445                1.06953573               -0.00096835                0.01248040               -0.00303248
               1.89229819                2.02583157               26.24215683                0.74264858               -0.25211436               -0.25230811                0.84037322               -0.00038453                0.04061411               -0.00406142
               2.89011887                2.02337896               26.17600907                0.73281240               -0.18359909               -0.18327324                0.61137130               -0.00013702                0.07854451               -0.00273153
               3.88862620                2.02091613               26.11007307                0.72635919               -0.11484755               -0.11457709                0.38228978                0.00010074                0.09748039               -0.00163908
               4.88782192                2.01844143               26.04426988                0.72254392               -0.04603736               -0.04587610                0.15317335                0.00015045                0.10790807               -0.00093836
               5.88770546                2.01595299               25.97852422                0.72133464                0.02273848                0.02283937               -0.07596726                0.00011075                0.11012901               -0.00045822
               6.88827668                2.01344998               25.91276317                0.72271839                0.09151566                0.09156904               -0.30513102                0.00004205                0.10431292               -0.00010345
               7.88953577                2.01093167               25.84691483                0.72670076                0.16031756                0.16031956               -0.53431918               -0.00009645                0.09045066                0.00020146
               8.89148304                2.00839677               25.78090609                0.73330667                0.22905549                0.22913020               -0.76352871               -0.00032079                0.06831838                0.00052894
               9.89411688                2.00584535               25.71466061                0.74258013                0.29765721                0.29828450               -0.99274540               -0.00045050                0.03749720                0.00096663
              10.89743618                2.00328204               25.64809685                0.87504836                0.33193003                0.36754485               -1.22193398                0.00040356                0.01772044                0.00148648
               0.89724214                3.02505911               26.30746432                0.87549403               -0.28490460               -0.32009478                1.06487806               -0.00083606                0.01281702                0.00176804
               1.89439309                3.02331402               26.24081983                0.74263634               -0.25064487               -0.25108601                0.83572374               -0.00028078                0.04104059                0.00060398
               2.89222924                3.02155218               26.17467428                0.73280078               -0.18208555               -0.18205238                0.60672221               -0.00025835                0.07931227                0.00001757
               3.89075138                3.01977739               26.10874555                0.72634822               -0.11341853               -0.11321017                0.37763198               -0.00007322                0.09840989               -0.00012239
               4.88996087                3.01798978               26.04294815                0.72253446               -0.04465684               -0.04446376                0.14849449                0.00000741                0.10866834               -0.00021176
               5.88985824                3.01618853               25.97720671                0.72132747                0.02413280                0.02426989               -0.08067363               -0.00000264                0.11072929               -0.00035460
               6.89044352                3.01437288               25.91144857                0.72271443                0.09292286                0.09301877               -0.30986747               -0.00007267                0.10477699               -0.00059481
               7.89171670                3.01254223               25.84560204                0.72670100                0.16169237                0.16181202               -0.53908500               -0.00019196                0.09079929               -0.00097105
               8.89367737                3.01069630               25.77959424                0.73331179                0.23040978                0.23071744               -0.76831912               -0.00032346                0.06856728               -0.00151518
               9.89632489                3.00883585               25.71334889                0.74259013                0.29907682                0.29975561               -0.99754985               -0.00028556                0.03763374               -0.00226210
              10.89965891                3.00696296               25.64678413                0.87505472                0.33340132                0.36873545               -1.22673801                0.00055571                0.01778359               -0.00325673
               0.89863462                4.02186603               26.30614466                0.87548744               -0.28351166               -0.31857846                1.06021074               -0.00076307                0.01304204                0.00681377
               1.89579950                4.02080985               26.23949116                0.74262469               -0.24921431               -0.24971936                0.83105796               -0.00015358                0.04169966                0.00406365
               2.89365033                4.01973791               26.17334560                0.73279081               -0.18061799               -0.18075274                0.60205534               -0.00020064                0.08058176                0.00242840
               3.89218714                4.01865193               26.10742040                0.72633989               -0.11197062               -0.11186437                0.37295772               -0.00014892                0.09994827                0.00128680
               4.89141092                4.01755215               26.04162872                0.72252808               -0.04324196               -0.04306382                0.14380617               -0.00011720                0.11030856                0.00046072
               5.89132230                4.01643839               25.97589319                0.72132365                0.02553061                0.02569775               -0.08538132               -0.00012603                0.11231333               -0.00026485
               6.89192153                4.01531036               25.91013997                0.72271366                0.09431051                0.09447119               -0.31459685               -0.00016109                0.10619721               -0.00106369
               7.89320851                4.01416791               25.84429640                0.72670372                0.16307096                0.16330029               -0.54383537               -0.00020675                0.09196392               -0.00208966
               8.89518295                4.01301112               25.77828874                0.73331847                0.23179952                0.23221041               -0.77308646               -0.00022409                0.06939590               -0.00348227
               9.89784450                4.01184047               25.71203994                0.74260061                0.30050547                0.30116740               -1.00232713               -0.00015813                0.03806269               -0.00535842
              10.90119306                4.01065675               25.64546765                0.87506110                0.33485570                0.37006084               -1.23151613                0.00063361                0.01799086               -0.00779428
               0.89933925                5.01868754               26.30483496                0.87548098               -0.28211090               -0.31714898                1.05553338               -0.00071615                0.01339822                0.01104000
               1.89651814                5.01831963               26.23816578                0.74261350               -0.24780514               -0.24831762                0.82637833               -0.00004046                0.04268368                0.00683685
               2.89438314                5.01793713               26.17201744                0.73278216               -0.17919868               -0.17936997                0.59737477               -0.00009732                0.08249233                0.00422515
               3.89293416                5.01754010               26.10609543                0.72633366               -0.11055371               -0.11047339                0.36827237               -0.00015528                0.10233074                0.00235850
               4.89217207                5.01712850               26.04031074                0.72252445               -0.04183241               -0.04165631                0.13911151               -0.00020482                0.11293835                0.00097665
               5.89209751                5.01670249               25.97458367                0.72132273                0.02693544                0.02711776               -0.09008906               -0.00022864                0.11496037               -0.00019624
               6.89271078                5.01626230               25.90883811                0.72271556                0.09571446                0.09590160               -0.31931967               -0.00021992                0.10864182               -0.00143376
               7.89401180                5.01580824               25.84299929                0.72670859                0.16447780                0.16473886               -0.54857298               -0.00017904                0.09400523               -0.00299749
               8.89600033                5.01534051               25.77699155                0.73332642                0.23321512                0.23364517               -0.77783635               -0.00011584                0.07085923               -0.00513551
               9.89867611                5.01485919               25.71073627                0.74261166                0.30193452                0.30258227               -1.00708515               -0.00005096                0.03882010               -0.00806016
              10.90203902                5.01436418               25.64415012                0.87506759                0.33629175                0.37145619               -1.23627745                0.00069172                0.01836231               -0.01190628
               0.89935612                6.01552305               26.30352663                0.87547460               -0.28070078               -0.31578182                1.05084538               -0.00066551                0.01390543                0.01422413
               1.89654911                6.01584349               26.23683532                0.74260280               -0.24640994               -0.24690232                0.82168429                0.00007819                0.04410248                0.00860946
               2.89442792                6.01615051               26.17068341                0.73277464               -0.17782247               -0.17791673                0.59268161                0.00000848                0.08525110                0.00525633
               3.89299266                6.01644246               26.10476640                0.72632953               -0.10917409               -0.10902749                0.36357778               -0.00016175                0.10577869                0.00292762
               4.89224444                6.01671903               26.03899224                0.72252341               -0.04043658               -0.04023169                0.13441225               -0.00028879                0.11676471                0.00124876
               5.89218393                6.01698074               25.97327805                0.72132456                0.02834729                0.02852788               -0.09479596               -0.00032395                0.11884693               -0.00015010
               6.89281138                6.01722839               25.90754457                0.72272003                0.09714006                0.09730113               -0.32403598               -0.00027247                0.11227444               -0.00161917
               7.89412673                6.01746269               25.84171389                0.72671554                0.16591467                0.16612747               -0.55329891               -0.00014968                0.09707631               -0.00350992
               8.89612968                6.01768402               25.77570733                0.73333554                0.23465403                0.23503582               -0.78257097               -0.00000532                0.07308373               -0.00618965
               9.89881981                6.01789211               25.70944361                0.74262313                0.30336235                0.30400448               -1.01182695                0.00006218                0.03997892               -0.01000720
              10.90219692                6.01808587               25.64283766                0.87507420                0.33771127                0.37291664               -1.24102530                0.00075570                0.01893703               -0.01520606
               0.89868505                7.01237191               26.30220775                0.87546839               -0.27928137               -0.31451477                1.04614371               -0.00058381                0.01462590                0.01596542
               1.89589224                7.01338159               26.23548848                0.74259262               -0.24503537               -0.24544332                0.81697305                0.00021681                0.04612206                0.00903251
               2.89378434                7.01437879               26.16933492                0.73276863               -0.17649107               -0.17637954                0.58797456                0.00006349                0.08914843                0.00529822
               3.89236242                7.01535955               26.10342782                0.72632759               -0.10781651               -0.10754835                0.35887379               -0.00023845                0.11059181                0.00289550
               4.89162801                7.01632387               26.03767064                0.72252522               -0.03903731               -0.03880995                0.12970882               -0.00039427                0.12205991                0.00123837
               5.89158167                7.01727304               25.97197632                0.72132952                0.02976834                0.02992752               -0.09950138               -0.00041577                0.12422408               -0.00011590
               6.89222338                7.01820833               25.90626179                0.72272731                0.09857540                0.09868317               -0.32874511               -0.00033353                0.11734846               -0.00154779
               7.89355318                7.01913079               25.84044526                0.72672468                0.16737107                0.16747862               -0.55801249               -0.00015396                0.10143776               -0.00345601
               8.89557080                7.02004122               25.77444374                0.73334609                0.23611627                0.23637219               -0.78728936                0.00008947                0.07630159               -0.00632488
               9.89827550                7.02093928               25.70817165                0.74263519                0.30479111                0.30541962               -1.01655125                0.00020199                0.04167855               -0.01073712
              10.90166662                7.02182251               25.64154073                0.87508095                0.33911208                0.37447297               -1.24575840                0.00085077                0.01979019               -0.01716803
               0.89732508                8.00923276               26.30086170                0.87546213               -0.27785223               -0.31347651                1.04142233               -0.00043558                0.01568626                0.01569470
               1.89454656                8.01093463               26.23410990                0.74258309               -0.24369292               -0.24380937                0.81223900                0.00029927                0.04903220                0.00755550
               2.89245122                8.01262292               26.16796113                0.73276440               -0.17518734               -0.17479035                0.58325019               -0.00009221                0.09464393                0.00421423
               3.89104281                8.01429149               26.10207350                0.72632857               -0.10640835               -0.10612818                0.35415864               -0.00039617                0.11717676                0.00226707
               4.89032306                8.01594283               26.03634322                0.72253049               -0.03758293               -0.03741787                0.12500058               -0.00047541                0.12913895                0.00096375
               5.89029115                8.01757929               25.97067860                0.72133798                0.03119560                0.03132013               -0.10420498               -0.00044806                0.13137780               -0.00008052
               6.89094697                8.01920205               25.90499280                0.72273805                0.09997995                0.10007583               -0.33344567               -0.00037292                0.12418705               -0.00119679
               7.89229075                8.02081226               25.83919999                0.72673650                0.16879987                0.16884584               -0.56271109               -0.00020995                0.10749074               -0.00274814
               8.89432297                8.02241147               25.77321183                0.73335834                0.23759027                0.23765853               -0.79198743                0.00008242                0.08093263               -0.00524282
               9.89704256                8.02400050               25.70693537                0.74264772                0.30622564                0.30675375               -1.02125245                0.00034616                0.04420026               -0.00956525
              10.90044748                8.02557533               25.64027597                0.87508762                0.34049202                0.37622149               -1.25047034                0.00100999                0.02108989               -0.01697648
               0.89527260                9.00610238               26.29946516                0.87545586               -0.27645420               -0.31290778                1.03667160               -0.00050443                0.01719446                0.01157326
               1.89250806                9.00850540               26.23267729                0.74257472               -0.24234827               -0.24187125                0.80747212                0.00001568                0.05343847                0.00390449
               2.89042563                9.01088298               26.16655075                0.73276303               -0.17367331               -0.17350104                0.57850340               -0.00033298                0.10258590                0.00227826
               3.88903459                9.01323699               26.10069806                0.72633324               -0.10474616               -0.10480158                0.34942913               -0.00044942                0.12598550                0.00120818
               4.88833071                9.01557551               26.03500774                0.72253994               -0.03605543               -0.03605778                0.12028575               -0.00036462                0.13828022                0.00050954
               5.88831348                9.01789945               25.96938510                0.72135088                0.03261218                0.03271866               -0.10890683               -0.00032018                0.14056232               -0.00004048
               6.88898295                9.02020984               25.90374048                0.72275299                0.10130427                0.10150441               -0.33813574               -0.00028207                0.13311657               -0.00063482
               7.89033957                9.02250770               25.83798488                0.72675216                0.17006264                0.17028526               -0.56739042               -0.00023288                0.11577015               -0.00149381
               8.89238421                9.02479439               25.77202519                0.73337344                0.23894990                0.23906917               -0.79665767               -0.00002534                0.08780858               -0.00295927
               9.89511856                9.02707436               25.70575815                0.74266147                0.30764854                0.30791416               -1.02591869                0.00030226                0.04820637               -0.00574415
              10.89853718                9.02934694               25.63907018                0.87509432                0.34186119                0.37834340               -1.25514721                0.00101168                0.02318014               -0.01239528
               0.89250895               10.00297460               26.29796465                0.93772604               -0.27426846               -0.31277752                1.03186745                0.03589540                0.02243948                0.00997278
               1.88976627               10.00609720               26.23116987                0.87128517               -0.23979867               -0.24081956                0.80266365                0.03473608                0.06175774                0.00293101
               2.88771298               10.00915290               26.16509840                0.86638203               -0.17124839               -0.17300814                0.57372855                0.03364749                0.11386249                0.00215977
               3.88634130               10.01219546               26.09929860                0.86316935               -0.10298362               -0.10415223                0.34467978                0.03410924                0.13722915                0.00119008
               4.88565330               10.01522167               26.03366318                0.86127441               -0.03454395               -0.03538400                0.11556107                0.03416959                0.14963454                0.00044228
               5.88565042               10.01823366               25.96809603                0.86068105                0.03398832                0.03342184               -0.11360758                0.03421735                0.15190892               -0.00022865
               6.88633307               10.02123214               25.90250650                0.86138273                0.10255634                0.10222992               -0.34281309                0.03422688                0.14434762               -0.00092393
               7.88770155               10.02421797               25.83680438                0.86338246                0.17113659                0.17102630               -0.57204489                0.03423331                0.12672572               -0.00176486
               8.88975580               10.02719285               25.77089454                0.86669267                0.23972544                0.23984566               -0.80129014                0.03420086                0.09819864               -0.00295805
               9.89249605               10.03015879               25.70466989                0.87133591                0.30833709                0.30844289               -1.03053134                0.03521632                0.05624275               -0.00488799
              10.89592254               10.03314220               25.63798481                0.93754960                0.34264901                0.37952533               -1.25975576                0.03687768                0.02923238               -0.01079060
               0.95684185                0.03600635               27.32215160                0.93775777               -0.28510525               -0.32158043                1.06633757               -0.03660215                0.01830513               -0.00481523
               1.95399080                0.03217329               27.25326877                0.87147727               -0.25119029               -0.25089581                0.83984523               -0.03460992                0.04306034               -0.00485150
               2.95181804                0.02836549               27.18481422                0.86661440               -0.18349944               -0.18345910                0.61347991               -0.03366063                0.07884973               -0.00239458
               3.95032081                0.02454587               27.11659634                0.86328884               -0.11588922               -0.11545142                0.38710016               -0.03387597                0.09948749               -0.00144259
               4.94950026                0.02071417               27.04851965                0.86131596               -0.04816697               -0.04751176                0.16070156               -0.03390588                0.11058094               -0.00067062
               5.94935747                0.01686850               26.98050469                0.86068648                0.01962552                0.02044711               -0.06571519               -0.03393333                0.11314182               -0.00000701
               6.94989277                0.01300831               26.91247625                0.86139676                0.08743998                0.08840749               -0.29215239               -0.03393567                0.10745595                0.00061743
               7.95110627                0.00913297               26.84436059                0.86344883                0.15524445                0.15635869               -0.51861293               -0.03394437                0.09354385                0.00125309
               8.95299766                0.00524080               26.77608290                0.86685033                0.22304760                0.22436412               -0.74509707               -0.03387678                0.07118262                0.00195366
               9.95556722                0.00133075               26.70756499                0.87161490                0.29077096                0.29204266               -0.97159982               -0.03476783                0.03972715                0.00274110
              10.95881308               -0.00262222               26.63871915                0.93773768                0.32458571                0.36257707               -1.19812016               -0.03485522                0.01948487                0.00429551
               0.96030888                1.03279055               27.32082308                0.87530913               -0.28437558               -0.32029934                1.06176655               -0.00089006                0.01521962               -0.00401268
               1.95746513                1.02966434               27.25192248                0.74251453               -0.25068670               -0.25042028                0.83526502               -0.00019505                0.04122552               -0.00510939
               2.95529515                1.02653090               27.18347537                0.73286477               -0.18287085               -0.18260632                0.60889557                0.00006515                0.07751194               -0.00269093
               3.95380771                1.02339136               27.11524975                0.72639896               -0.11476323               -0.11470641                0.38249337                0.00020697                0.09728273               -0.00155030
               4.95299988                1.02023905               27.04716338                0.72256910               -0.04683224               -0.04678922                0.15607077                0.00015037                0.10820209               -0.00083114
               5.95287107                1.01707298               26.97913750                0.72135068                0.02106481                0.02114735               -0.07037038                0.00011033                0.11065606               -0.00031829
               6.95342118                1.01389238               26.91109756                0.72273376                0.08897585                0.08909069               -0.29683231                0.00007728                0.10492110                0.00010492
               7.95465058                1.01069656               26.84297035                0.72672329                0.15694102                0.15703470               -0.52331819                0.00003888                0.09100904                0.00053042
               8.95656000                1.00748444               26.77468155                0.73333873                0.22502342                0.22500079               -0.74982812               -0.00017983                0.06868099                0.00104665
               9.95915105                1.00425118               26.70615319                0.74261494                0.29287478                0.29304429               -0.97635633               -0.00028063                0.03758902                0.00175823
              10.96241750                1.00100355               26.63730403                0.87506623                0.32664459                0.36264564               -1.20288505                0.00073583                0.01767945                0.00298549
               0.96307647                2.02960036               27.31943519                0.87510091               -0.28299244               -0.31809636                1.05718255               -0.00095661                0.01250122               -0.00301427
               1.96024654                2.02716489               27.25051226                0.74207147               -0.24920699               -0.24939803                0.83068125               -0.00037980                0.04073666               -0.00402948
               2.95809233                2.02471336               27.18208774                0.73249812               -0.18148720               -0.18116538                0.60433891               -0.00013476                0.07872413               -0.00267653
               3.95661680                2.02225174               27.11387418                0.72621783               -0.11353383               -0.11326718                0.37791743                0.00010035                0.09761490               -0.00158910
               4.95582165                2.01977838               27.04579309                0.72250449               -0.04552273               -0.04536379                0.15146146                0.00014943                0.10802015               -0.00090683
               5.95570634                2.01729145               26.97776929                0.72132738                0.02245428                0.02255407               -0.07501839                0.00011012                0.11021946               -0.00045105
               6.95627073                2.01479012               26.90972986                0.72267415                0.09043261                0.09048599               -0.30152107                0.00004208                0.10437653               -0.00012278
               7.95751499                2.01227366               26.84160290                0.72655024                0.15843540                0.15843849               -0.52804786               -0.00009500                0.09048314                0.00015621
               8.95943944                2.00974081               26.77331534                0.73297952                0.22637503                0.22645026               -0.75459571               -0.00031682                0.06832323                0.00046212
               9.96204249                2.00719164               26.70479096                0.74200420                0.29418026                0.29480129               -0.98115042               -0.00044509                0.03749407                0.00088976
              10.96532305                2.00463069               26.63594858                0.87465960                0.32805527                0.36325596               -1.20767688                0.00039895                0.01770777                0.00142162
               0.96516070                3.02642862               27.31805182                0.87509456               -0.28161690               -0.31639698                1.05258032               -0.00082582                0.01283870                0.00179597
               1.96234453                3.02467638               27.24912905                0.74205959               -0.24775493               -0.24819041                0.82608700               -0.00027689                0.04116005                0.00064141
               2.96020560                3.02290759               27.18070673                0.73248669               -0.17999154               -0.17995880                0.59974487               -0.00025402                0.07948029                0.00005885
               3.95874470                3.02112601               27.11250036                0.72620707               -0.11212169               -0.11191621                0.37331469               -0.00007062                0.09852200               -0.00008519
               4.95796316                3.01933178               27.04442485                0.72249510               -0.04415845               -0.04396803                0.14683780                0.00000917                0.10874855               -0.00018829
               5.95786153                3.01752406               26.97640498                0.72132021                0.02383225                0.02396772               -0.07966930               -0.00000081                0.11078327               -0.00035065
               6.95843981                3.01570210               26.90836817                0.72267009                0.09182330                0.09191858               -0.30620178               -0.00007019                0.10480308               -0.00061267
               7.95969799                3.01386533               26.84024273                0.72655029                0.15979414                0.15991322               -0.53275764               -0.00018834                0.09079685               -0.00100970
               8.96163569                3.01201344               26.77195586                0.73298439                0.22771367                0.22801852               -0.75932993               -0.00031865                0.06854469               -0.00156981
               9.96425227                3.01014720               26.70343147                0.74201389                0.29558351                0.29625465               -0.98589870               -0.00028166                0.03761542               -0.00232352
              10.96754736                3.00826867               26.63458809                0.87466574                0.32950950                0.36443294               -1.21242492                0.00054947                0.01776278               -0.00331274
               0.96656443                4.02327242               27.31668575                0.87508816               -0.28024048               -0.31489856                1.04796820               -0.00075369                0.01306279                0.00685516
               1.96376203                4.02220108               27.24775398                0.74204816               -0.24634130               -0.24683973                0.82147630               -0.00015086                0.04181678                0.00410446
               2.96163761                4.02111419               27.17933165                0.73247690               -0.17854132               -0.17867428                0.59513307               -0.00019637                0.08074288                0.00246745
               3.96019120                4.02001342               27.11112874                0.72619883               -0.11069089               -0.11058609                0.36869553               -0.00014463                0.10004688                0.00131885
               4.95942379                4.01889902               27.04305881                0.72248877               -0.04276024               -0.04258449                0.14220470               -0.00011297                0.11036921                0.00048004
               5.95933600                4.01777081               26.97504466                0.72131630                0.02521362                0.02537873               -0.08432148               -0.00012166                0.11234384               -0.00026277
               6.95992806                4.01662850               26.90701256                0.72266924                0.09319468                0.09335375               -0.31087534               -0.00015654                0.10619888               -0.00108082
               7.96119989                4.01547193               26.83888987                0.72655295                0.16115660                0.16138370               -0.53745189               -0.00020212                0.09193928               -0.00212527
               8.96315119                4.01430118               26.77060297                0.73299082                0.22908719                0.22949354               -0.76404099               -0.00021989                0.06935644               -0.00353267
               9.96578163                4.01311673               26.70207503                0.74202410                0.29699550                0.29764958               -0.99061981               -0.00015552                0.03803535               -0.00541757
              10.96909110                4.01191935               26.63322411                0.87467198                0.33094691                0.36574281               -1.21714709                0.00062649                0.01796542               -0.00785477
               0.96728831                5.02013065               27.31532956                0.87508189               -0.27885624               -0.31348603                1.04334609               -0.00070736                0.01341896                0.01109429
               1.96449974                5.01973958               27.24638209                0.74203735               -0.24494874               -0.24545441                0.81685173               -0.00003890                0.04280137                0.00688187
               2.96238933                5.01933411               27.17795696                0.73246843               -0.17713875               -0.17730766                0.59050754               -0.00009392                0.08265274                0.00426445
               3.96095697                5.01891429               27.10975719                0.72619283               -0.10929067               -0.10921139                0.36406532               -0.00015041                0.10242441                0.00238888
               4.96020352                5.01848009               27.04169415                0.72248520               -0.04136730               -0.04119353                0.13756537               -0.00019887                0.11298977                0.00099412
               5.96012962                5.01803163               26.97368834                0.72131541                0.02660190                0.02678198               -0.08897367               -0.00022229                0.11497866               -0.00019503
               6.96073556                5.01756918               26.90566374                0.72267108                0.09458208                0.09476720               -0.31554232               -0.00021398                0.10863030               -0.00145055
               7.96202127                5.01709300               26.83754566                0.72655763                0.16254687                0.16280514               -0.54213346               -0.00017424                0.09396867               -0.00303196
               8.96398649                5.01660331               26.76925856                0.73299860                0.23048613                0.23091120               -0.76873472               -0.00011265                0.07081112               -0.00518556
               9.96663099                5.01610019               26.70072406                0.74203484                0.29840770                0.29904766               -0.99532158               -0.00004948                0.03878848               -0.00812253
              10.96995465                5.01558353               26.63185925                0.87467826                0.33236602                0.36712180               -1.22185232                0.00068394                0.01833489               -0.01197754
               0.96733242                6.01700270               27.31397462                0.87507573               -0.27746270               -0.31213521                1.03871350               -0.00065737                0.01392739                0.01428947
               1.96455779                6.01729199               27.24500496                0.74202695               -0.24356996               -0.24405580                0.81221297                0.00007839                0.04422475                0.00865695
               2.96246102                6.01756804               27.17657628                0.73246123               -0.17577873               -0.17587154                0.58586962                0.00001068                0.08541830                0.00529577
               3.96104221                6.01782919               27.10838149                0.72618881               -0.10792727               -0.10778256                0.35942601               -0.00015667                0.10587628                0.00295708
               4.96030247                6.01807515               27.04032894                0.72248427               -0.03998791               -0.03978575                0.13292153               -0.00028152                0.11681685                0.00126535
               5.96024246                6.01830645               26.97233594                0.72131725                0.02799706                0.02817545               -0.09362497               -0.00031605                0.11886348               -0.00014910
               6.96086241                6.01852384               26.90432332                0.72267547                0.09599079                0.09615022               -0.32020286               -0.00026555                0.11226011               -0.00163537
               7.96216227                6.01872803               26.83621329                0.72656437                0.16396669                0.16417738               -0.54680349               -0.00014505                0.09703723               -0.00354350
               8.96414175                6.01891941               26.76792727                0.73300749                0.23190796                0.23228548               -0.77341331               -0.00000345                0.07303419               -0.00623999
               9.96680043                6.01909768               26.69938426                0.74204602                0.29981861                0.30045317               -1.00000737                0.00006227                0.03994706               -0.01007381
              10.97013812                6.01926179               26.63049959                0.87468470                0.33376874                0.36856524               -1.22654435                0.00074716                0.01890985               -0.01528937
               0.96669658                7.01388794               27.31260900                0.87506968               -0.27605997               -0.31088344                1.03406743               -0.00057675                0.01465065                0.01603731
               1.96393598                7.01485847               27.24361129                0.74201712               -0.24221159               -0.24261405                0.80755725                0.00021521                0.04625386                0.00907817
               2.96185235                7.01581668               27.17518099                0.73245542               -0.17446299               -0.17435262                0.58121805                0.00006476                0.08933132                0.00533526
               3.96044672                7.01675864               27.10699614                0.72618707               -0.10658561               -0.10632106                0.35477746               -0.00023266                0.11070317                0.00292300
               4.95972063                7.01768437               27.03896058                0.72248619               -0.03860510               -0.03838089                0.12827361               -0.00038575                0.12212325                0.00125389
               5.95967462                7.01859514               26.97098743                0.72132222                0.02940130                0.02955854               -0.09827478               -0.00040670                0.12424960               -0.00011472
               6.96030866                7.01949218               26.90299373                0.72268272                0.09740905                0.09751600               -0.32485628               -0.00032581                0.11734181               -0.00156248
               7.96162280                7.02037655               26.83489780                0.72657332                0.16540569                0.16551276               -0.55146129               -0.00014930                0.10140576               -0.00348724
               8.96361677                7.02124902               26.76661678                0.73301778                0.23335272                0.23360634               -0.77807592                0.00009006                0.07625827               -0.00637324
               9.96628985                7.02210926               26.69806533                0.74205772                0.30123039                0.30185185               -1.00467597                0.00020028                0.04165084               -0.01080465
              10.96964138                7.02295483               26.62915561                0.87469125                0.33515296                0.37010346               -1.23122183                0.00084105                0.01976571               -0.01725964
               0.96537984                8.01078503               27.31121602                0.87506359               -0.27464762               -0.30985782                1.02940180               -0.00043041                0.01571584                0.01576539
               1.96263336                8.01243971               27.24218564                0.74200783               -0.24088497               -0.24099917                0.80287886                0.00029623                0.04917985                0.00759151
               2.96056214                8.01408098               27.17376024                0.73245140               -0.17317461               -0.17278243                0.57654927               -0.00008985                0.09485351                0.00424458
               3.95916987                8.01570277               27.10559495                0.72618814               -0.10519398               -0.10491790                0.35011788               -0.00038900                0.11731332                0.00229009
               4.95845826                8.01730754               27.03758635                0.72249149               -0.03716790               -0.03700533                0.12362093               -0.00046633                0.12922509                0.00097691
               5.95842651                8.01889762               26.96964295                0.72133068                0.03081164                0.03093470               -0.10292279               -0.00043900                0.13142410               -0.00007914
               6.95907449                8.02047416               26.90167801                0.72269336                0.09879693                0.09889225               -0.32950121               -0.00036507                0.12419976               -0.00120846
               7.96040245                8.02203829               26.83360582                0.72658506                0.16681746                0.16686397               -0.55610428               -0.00020485                0.10747677               -0.00277372
               8.96241084                8.02359153               26.76533816                0.73302981                0.23480907                0.23487785               -0.78271842                0.00008292                0.08090481               -0.00528357
               9.96509863                8.02513472               26.69678232                0.74206995                0.30264778                0.30317061               -1.00932160                0.00034256                0.04418243               -0.00962520
              10.96846379                8.02666386               26.62784401                0.87469772                0.33651648                0.37183147               -1.23587822                0.00099828                0.02107145               -0.01706655
               0.96337861                9.00769079               27.30977225                0.87505745               -0.27326606               -0.30929631                1.02470686               -0.00049867                0.01723069                0.01162605
               1.96064595                9.01003848               27.24070564                0.74199971               -0.23955615               -0.23908319                0.79816779                0.00001482                0.05361074                0.00392149
               2.95858749                9.01236103               27.17230266                0.73245025               -0.17167830               -0.17150885                0.57185820               -0.00032879                0.10283668                0.00229659
               3.95721239                9.01466028               27.10417250                0.72619299               -0.10355144               -0.10360692                0.34544399               -0.00044256                0.12616039                0.00122235
               4.95651646                9.01694426               27.03620401                0.72250106               -0.03565869               -0.03566118                0.11896167               -0.00035798                0.13840243                0.00051776
               5.95649921                9.01921383               26.96830271                0.72134360                0.03221137                0.03231675               -0.10756909               -0.00031392                0.14064317               -0.00003937
               6.95716069                9.02147003               26.90037907                0.72270819                0.10010571                0.10030391               -0.33413579               -0.00027645                0.13316262               -0.00064155
               7.95850133                9.02371383               26.83234419                0.72660057                0.16806552                0.16828630               -0.56072814               -0.00022824                0.11578809               -0.00150894
               8.96052200                9.02594658               26.76410510                0.73304463                0.23615261                0.23627184               -0.78733325               -0.00002388                0.08780925               -0.00298381
               9.96322438                9.02817267               26.69555871                0.74208338                0.30405368                0.30431779               -1.01393255                0.00029920                0.04820713               -0.00578153
              10.96660307                9.03039146               26.62659173                0.87470429                0.33786936                0.37392817               -1.24049979                0.00099987                0.02317291               -0.01246054
               0.96067447               10.00459911               27.30822398                0.93752692               -0.27110569               -0.30916789                1.01995870                0.03547983                0.02249969                0.01002243
               1.95796341               10.00765805               27.23915041                0.87099778               -0.23703559               -0.23804338                0.79341529                0.03433108                0.06197268                0.00294530
               2.95593376               10.01065081               27.17080285                0.86622572               -0.16928172               -0.17102213                0.56713914                0.03325608                0.11417060                0.00217725
               3.95457778               10.01363063               27.10272582                0.86309929               -0.10181070               -0.10296509                0.34075028                0.03371453                0.13745684                0.00120249
               4.95389755               10.01659431               27.03481248                0.86125495               -0.03416568               -0.03499525                0.11429251                0.03377432                0.14980871                0.00044877
               5.95389447               10.01954395               26.96696691                0.86067738                0.03357113                0.03301167               -0.11221441                0.03382155                0.15204100               -0.00022874
               6.95456897               10.02248024               26.89909859                0.86136031                0.10134334                0.10102080               -0.33875786                0.03383090                0.14444424               -0.00093102
               7.95592133               10.02540401               26.83111742                0.86330658                0.16912755                0.16901848               -0.56532747                0.03383715                0.12679340               -0.00177925
               8.95795152               10.02831697               26.76292840                0.86652820                0.23692001                0.23703898               -0.79191067                0.03380506                0.09824736               -0.00298037
               9.96065973               10.03122107               26.69442460                0.87104678                0.30473462                0.30484053               -1.01849033                0.03480786                0.05628254               -0.00492030
              10.96404621               10.03414242               26.62546054                0.93735450                0.33864782                0.37509599               -1.24505345                0.03644827                0.02925634               -0.01084861
               1.02704051                0.03730953               28.33275245                0.93755545               -0.28175309               -0.31779748                1.05379183               -0.03616937                0.01836348               -0.00482368
               2.02422297                0.03349398               28.26161805                0.87118143               -0.24823913               -0.24794746                0.82997744               -0.03420009                0.04320341               -0.00484949
               3.02207572                0.02970341               28.19091318                0.86645005               -0.18134895               -0.18130947                0.60628893               -0.03326244                0.07906537               -0.00237756
               4.02059600                0.02590114               28.12044485                0.86321469               -0.11453849               -0.11410563                0.38258606               -0.03347584                0.09969824               -0.00142894
               5.01978495                0.02208693               28.05011751                0.86129514               -0.04761693               -0.04696920                0.15886458               -0.03350538                0.11078008               -0.00066198
               6.01964366                0.01825892               27.97985174                0.86068265                0.01937415                0.02018624               -0.06487482               -0.03353249                0.11332369               -0.00000374
               7.02017244                0.01441656               27.90957227                0.86137366                0.08638695                0.08734314               -0.28863441               -0.03353479                0.10761305                0.00061513
               8.02137140                0.01055923               27.83920535                0.86337021                0.15338989                0.15449096               -0.51241707               -0.03354341                0.09366964                0.00124486
               9.02324023                0.00668527               27.76867617                0.86667957                0.22039156                0.22169237               -0.73622302               -0.03347664                0.07127449                0.00193940
              10.02577923                0.00279365               27.69790658                0.87131505                0.28731401                0.28857060               -0.96004731               -0.03435670                0.03978310                0.00272147
              11.02898651               -0.00114036               27.62680889                0.93753546                0.32072869                0.35827074               -1.18388890               -0.03444231                0.01950916                0.00428789
               1.03049436                1.03413156               28.33137850                0.87490954               -0.28103277               -0.31653133                1.04927700               -0.00087860                0.01525178               -0.00400352
               2.02768404                1.03101451               28.26022624                0.74193386               -0.24774233               -0.24747824                0.82545344               -0.00019234                0.04134500               -0.00509026
               3.02553952                1.02789031               28.18952877                0.73254527               -0.18072810               -0.18046705                0.60176067                0.00006433                0.07769751               -0.00264613
               4.02406947                1.02476008               28.11905247                0.72625489               -0.11342548               -0.11336994                0.37803532                0.00020421                0.09745352               -0.00151230
               5.02327101                1.02161724               28.04871521                0.72252879               -0.04629779               -0.04625558                0.15428977                0.00014804                0.10836030               -0.00080776
               6.02314352                1.01846079               27.97843827                0.72134317                0.02079641                0.02087798               -0.06947411                0.00010843                0.11079656               -0.00031232
               7.02368694                1.01528999               27.90814706                0.72268884                0.08790445                0.08801823               -0.29325849                0.00007574                0.10503621                0.00009241
               8.02490161                1.01210414               27.83776834                0.72657042                0.15506594                0.15515913               -0.51706646                0.00003777                0.09109212                0.00049931
               9.02678826                1.00890219               27.76722779                0.73300653                0.22234320                0.22232182               -0.74089811               -0.00017834                0.06872986                0.00099851
              10.02934847                1.00567936               27.69644749                0.74203102                0.28939231                0.28956080               -0.96474772               -0.00027727                0.03761035                0.00169924
              11.03257610                1.00244235               27.62534640                0.87467228                0.32276293                0.35833814               -1.18859760                0.00072801                0.01767734                0.00293870
               1.03325704                2.03097891               28.32994505                0.87470651               -0.27966644               -0.31435443                1.04474903               -0.00094488                0.01252169               -0.00299694
               2.03046037                2.02854442               28.25877045                0.74150189               -0.24628042               -0.24646903                0.82092567               -0.00037523                0.04085777               -0.00399861
               3.02833143                2.02609407               28.18809585                0.73218786               -0.17936107               -0.17904359                0.59725961               -0.00013300                0.07890145               -0.00262282
               4.02687315                2.02363374               28.11763142                0.72607831               -0.11221084               -0.11194835                0.37351484                0.00009919                0.09774729               -0.00154024
               5.02608721                2.02116182               28.04729911                0.72246555               -0.04500382               -0.04484753                0.14973601                0.00014747                0.10813024               -0.00087597
               6.02597308                2.01867648               27.97702385                0.72132021                0.02216934                0.02226772               -0.07406633                0.00010850                0.11030807               -0.00044394
               7.02653060                2.01617692               27.90673275                0.72263046                0.08934375                0.08939690               -0.29789118                0.00004120                0.10443852               -0.00014158
               8.02775995                2.01366241               27.83635387                0.72640170                0.15654230                0.15654636               -0.52173975               -0.00009427                0.09051437                0.00011203
               9.02966145                2.01113170               27.76581418                0.73265670                0.22367854                0.22375428               -0.74560913               -0.00031332                0.06832720                0.00039663
              10.03223352                2.00858487               27.69503760                0.74143588                0.29068231                0.29129710               -0.96948534               -0.00043992                0.03749033                0.00081410
              11.03547509                2.00602640               27.62394331                0.87427599                0.32415702                0.35894121               -1.19333328                0.00039417                0.01769475                0.00135758
               1.03534445                3.02784447               28.32851593                0.87470035               -0.27830758               -0.31267562                1.04020261               -0.00081565                0.01285999                0.00182282
               2.03256137                3.02608512               28.25734157                0.74149033               -0.24484590               -0.24527609                0.81638710               -0.00027334                0.04127801                0.00067750
               3.03044753                3.02430944               28.18666918                0.73217667               -0.17788341               -0.17785150                0.59272108               -0.00025042                0.07964607                0.00009878
               4.02900370                3.02252112               28.11621184                0.72606772               -0.11081568               -0.11061350                0.36896756               -0.00006902                0.09863227               -0.00004908
               5.02823122                3.02072029               28.04588491                0.72245616               -0.04365589               -0.04346851                0.14516795                0.00000974                0.10882718               -0.00016542
               6.02813059                3.01890614               27.97561332                0.72131301                0.02353083                0.02366439               -0.07866141               -0.00000023                0.11083590               -0.00034670
               7.02870183                3.01707793               27.90532453                0.72262639                0.09071781                0.09081226               -0.30251576               -0.00006888                0.10482805               -0.00062991
               8.02994494                3.01523506               27.83494689                0.72640154                0.15788486                0.15800334               -0.52639324               -0.00018570                0.09079357               -0.00104719
               9.03185953                3.01337727               27.76440764                0.73266132                0.22500141                0.22530356               -0.75028692               -0.00031446                0.06852147               -0.00162303
              10.03444497                3.01150530               27.69363091                0.74144533                0.29206905                0.29273272               -0.97417719               -0.00027805                0.03759665               -0.00238359
              11.03770091                3.00962117               27.62253563                0.87428200                0.32559408                0.36010458               -1.19802517                0.00054304                0.01774173               -0.00336765
               1.03675941                4.02472539               28.32710402                0.87469413               -0.27694778               -0.31119531                1.03564620               -0.00074440                0.01308317                0.00689547
               2.03398994                4.02363889               28.25592068                0.74147924               -0.24344929               -0.24394163                0.81183195               -0.00014859                0.04193250                0.00414395
               3.03189043                4.02253704               28.18524826                0.73216718               -0.17645065               -0.17658228                0.58816476               -0.00019300                0.08090195                0.00250532
               4.03046092                4.02142147               28.11479432                0.72605964               -0.10940212               -0.10929921                0.36440391               -0.00014151                0.10014393                0.00134995
               5.02970239                4.02029245               28.04447282                0.72244995               -0.04227449               -0.04210150                0.14059049               -0.00011009                0.11042870                0.00049884
               6.02961543                4.01914977               27.97420676                0.72130911                0.02489564                0.02505847               -0.08325775               -0.00011871                0.11237352               -0.00026062
               7.03020030                4.01799317               27.90392246                0.72262539                0.09207279                0.09223016               -0.30713325               -0.00015330                0.10619999               -0.00109732
               8.03145689                4.01682248               27.83354736                0.72640401                0.15923111                0.15945603               -0.53103121               -0.00019856                0.09191430               -0.00215968
               9.03338492                4.01563777               27.76300792                0.73266753                0.22635865                0.22676067               -0.75494161               -0.00021644                0.06931668               -0.00358159
              10.03598406                4.01443952               27.69222755                0.74145521                0.29346427                0.29411080               -0.97884188               -0.00015325                0.03800778               -0.00547527
              11.03925421                4.01322850               27.62112471                0.87428801                0.32701438                0.36139888               -1.20269096                0.00061918                0.01793994               -0.00791408
               1.03750256                5.02162056               28.32570188                0.87468804               -0.27558018               -0.30979988                1.03107978               -0.00069867                0.01343940                0.01114765
               2.03474676                5.02120629               28.25450282                0.74146873               -0.24207348               -0.24257291                0.80726295               -0.00003781                0.04291783                0.00692573
               3.03266109                5.02077779               28.18382759                0.73215894               -0.17506494               -0.17523199                0.58359478               -0.00009146                0.08281136                0.00430273
               4.03124546                5.02033513               28.11337674                0.72605374               -0.10801874               -0.10794094                0.35982928               -0.00014676                0.10251680                0.00241848
               5.03050072                5.01987826               28.04306204                0.72244644               -0.04089828               -0.04072719                0.13600685               -0.00019430                0.11304044                0.00101122
               6.03042749                5.01940731               27.97280419                0.72130823                0.02626725                0.02644488               -0.08785406               -0.00021736                0.11499661               -0.00019370
               7.03102606                5.01892253               27.90252726                0.72262711                0.09344356                0.09362660               -0.31174420               -0.00020935                0.10861875               -0.00146670
               8.03229637                5.01842418               27.83215662                0.72640863                0.16060472                0.16086031               -0.53565649               -0.00017051                0.09393223               -0.00306540
               9.03423816                5.01791249               27.76161685                0.73267501                0.22774084                0.22816120               -0.75957894               -0.00011022                0.07076299               -0.00523431
              10.03685118                5.01738752               27.69082984                0.74146561                0.29485960                0.29549208               -0.98348737               -0.00004839                0.03875676               -0.00818353
              11.04013535                5.01684915               27.61971307                0.87429414                0.32841654                0.36276143               -1.20734002                0.00067597                0.01830748               -0.01204773
               1.03757398                6.01852940               28.32430090                0.87468204               -0.27420336               -0.30846541                1.02650292               -0.00064935                0.01394912                0.01435409
               2.03483195                6.01878743               28.25307958                0.74145865               -0.24071124               -0.24119108                0.80267981                0.00007811                0.04434588                0.00870355
               3.03275976                6.01903240               28.18240080                0.73215193               -0.17372124               -0.17381310                0.57901245                0.00001199                0.08558389                0.00533438
               4.03135752                6.01926265               28.11195492                0.72604990               -0.10667168               -0.10652929                0.35524563               -0.00015273                0.10597288                0.00298597
               5.03062632                6.01947791               28.04165067                0.72244562               -0.03953543               -0.03933634                0.13141877               -0.00027554                0.11686861                0.00128172
               6.03056682                6.01967867               27.97140555                0.72131010                0.02764564                0.02782159               -0.09244946               -0.00030946                0.11888007               -0.00014792
               7.03117924                6.01986570               27.90114051                0.72263146                0.09483529                0.09499300               -0.31634867               -0.00025982                0.11224607               -0.00165099
               8.03246352                6.02003968               27.83077782                0.72641515                0.16200742                0.16221610               -0.54027038               -0.00014140                0.09699854               -0.00357629
               9.03441938                6.02020100               27.76023906                0.73268374                0.22914554                0.22951901               -0.76420130               -0.00000223                0.07298493               -0.00628938
              10.03704643                6.02034936               27.68944346                0.74147654                0.29625353                0.29688076               -0.98811687                0.00006206                0.03991522               -0.01013934
              11.04034446                6.02048372               27.61830677                0.87430041                0.32980240                0.36418769               -1.21197585                0.00073844                0.01888267               -0.01537176
               1.03697350                7.01545125               28.32288910                0.87467617               -0.27281744               -0.30722882                1.02191270               -0.00056976                0.01467519                0.01610872
               2.03424532                7.01638247               28.25163962                0.74144909               -0.23936918               -0.23976659                0.79807989                0.00021323                0.04638456                0.00912327
               3.03218611                7.01730153               28.18095928                0.73214636               -0.17242129               -0.17231247                0.57441664                0.00006526                0.08951275                0.00537180
               4.03079690                7.01820455               28.11052337                0.72604830               -0.10534607               -0.10508547                0.35065287               -0.00022784                0.11081374                0.00295017
               5.03007919                7.01909153               28.04023611                0.72244759               -0.03816921               -0.03794844                0.12682666               -0.00037836                0.12218640                0.00126932
               6.03003351                7.01996374               27.97001083                0.72131501                0.02903298                0.02918805               -0.09704337               -0.00039875                0.12427538               -0.00011336
               7.03065985                7.02082239               27.89976466                0.72263868                0.09623641                0.09634240               -0.32094607               -0.00031910                0.11733561               -0.00157669
               8.03195824                7.02166851               27.82941604                0.72642404                0.16342899                0.16353556               -0.54487213               -0.00014546                0.10137421               -0.00351779
               9.03392843                7.02250287               27.75888223                0.73269374                0.23057280                0.23082421               -0.76880788                0.00009011                0.07621532               -0.00642082
              10.03656970                7.02332513               27.68807813                0.74148791                0.29764826                0.29826281               -0.99272942                0.00019835                0.04162323               -0.01087139
              11.03988140                7.02413290               27.61691629                0.87430676                0.33116995                0.36570762               -1.21659733                0.00083120                0.01974120               -0.01735051
               1.03570016                8.01238482               28.32144974                0.87467029               -0.27142201               -0.30621575                1.01730305               -0.00042525                0.01574516                0.01583574
               2.03298594                8.01399210               28.25016747                0.74144016               -0.23805853               -0.23817079                0.79345746                0.00029290                0.04932639                0.00762724
               3.03093898                8.01558615               28.17949212                0.73214254               -0.17114839               -0.17076130                0.56980381               -0.00008806                0.09506164                0.00427469
               4.02956297                8.01716094               28.10907585                0.72604954               -0.10397109               -0.10369936                0.34604918               -0.00038257                0.11744911                0.00231293
               5.02885956                8.01871894               28.03881563                0.72245299               -0.03674928               -0.03658945                0.12222985               -0.00045812                0.12931109                0.00099006
               6.02882798                8.02026243               27.96862014                0.72132349                0.03042631                0.03054768               -0.10163552               -0.00043082                0.13147075               -0.00007758
               7.02946809                8.02179255               27.89840277                0.72264919                0.09760756                0.09770215               -0.32553512               -0.00035799                0.12421299               -0.00121978
               8.03078013                8.02331039               27.82807791                0.72643553                0.16482367                0.16487063               -0.54945921               -0.00020036                0.10746327               -0.00279874
               9.03276456                8.02481748               27.75755746                0.73270553                0.23201146                0.23208075               -0.77339454                0.00008304                0.08087728               -0.00532365
              10.03542036                8.02631462               27.68674894                0.74149988                0.29904849                0.29956604               -0.99731926                0.00033884                0.04416455               -0.00968454
              11.03874553                8.02779788               27.61555841                0.87431312                0.33251701                0.36741492               -1.22119785                0.00098650                0.02105284               -0.01715591
               1.03375042                9.00932694               28.31995930                0.87466435               -0.27005707               -0.30566139                1.01266424               -0.00049287                0.01726666                0.01167860
               2.03104985                9.01161905               28.24864064                0.74143239               -0.23674568               -0.23627701                0.78880258                0.00001384                0.05378182                0.00393842
               3.02901551                9.01388631               28.17798791                0.73214167               -0.16966994               -0.16950345                0.56516879               -0.00032488                0.10308580                0.00231481
               4.02765645                9.01613056               28.10760694                0.72605451               -0.10234833               -0.10240406                0.34143124               -0.00043612                0.12633437                0.00123640
               5.02696854                9.01835974               28.03738698                0.72246257               -0.03525847               -0.03526133                0.11762648               -0.00035186                0.13852445                0.00052598
               6.02695128                9.02057469               27.96723372                0.72133642                0.03180911                0.03191318               -0.10622600               -0.00030819                0.14072427               -0.00003812
               7.02760473                9.02277643               27.89705776                0.72266405                0.09890070                0.09909679               -0.33011396               -0.00027128                0.13320911               -0.00064809
               8.02892930                9.02496592               27.82677032                0.72645085                0.16605695                0.16627579               -0.55402742               -0.00022397                0.11580644               -0.00152378
               9.03092587                9.02714448               27.75627852                0.73272011                0.23333890                0.23345801               -0.77795385               -0.00002261                0.08781003               -0.00300800
              10.03359608                9.02931645               27.68547950                0.74151300                0.30043735                0.30069988               -1.00187467                0.00029610                0.04820773               -0.00581855
              11.03693461                9.03148120               27.61426019                0.87431943                0.33385350                0.36948622               -1.22576370                0.00098802                0.02316555               -0.01252518
               1.03110607               10.00627159               28.31836383                0.93733038               -0.26792230               -0.30553478                1.00797260                0.03506158                0.02255944                0.01007182
               2.02842685               10.00926656               28.24703817                0.87071424               -0.23425438               -0.23524915                0.78410661                0.03392350                0.06218618                0.00295955
               3.02642098               10.01219608               28.17644118                0.86607147               -0.16730185               -0.16902292                0.56050600                0.03286207                0.11447668                0.00219468
               4.02508081               10.01511286               28.10611361                0.86303010               -0.10062948               -0.10176977                0.33679360                0.03331707                0.13768328                0.00121481
               5.02440839               10.01801371               28.03594903                0.86123576               -0.03378403               -0.03460329                0.11301322                0.03337627                0.14998239                0.00045524
               6.02440513               10.02090069               27.96585174                0.86067376                0.03315240                0.03259979               -0.11081562                0.03342297                0.15217301               -0.00022873
               7.02507144               10.02377448               27.89573134                0.86133822                0.10012376                0.09980502               -0.33468048                0.03343220                0.14454096               -0.00093798
               8.02640760               10.02663591               27.82549783                0.86323174                0.16710690                0.16699907               -0.55857138                0.03343833                0.12686116               -0.00179347
               9.02841358               10.02948664               27.75505633                0.86636591                0.23409806                0.23421579               -0.78247615                0.03340665                0.09829588               -0.00300249
              10.03108956               10.03232862               27.68430008                0.87076147                0.30111064                0.30121659               -1.00637747                0.03439676                0.05632195               -0.00495237
              11.03443579               10.03518760               27.61308374                0.93716202                0.33462258                0.37063984               -1.23026238                0.03601620                0.02928005               -0.01090607
               1.09947793                0.03865778               29.34322744                0.93735575               -0.27837957               -0.31399047                1.04116643               -0.03573396                0.01842136               -0.00483201
               2.09669413                0.03485992               29.26986832                0.87088949               -0.24526908               -0.24498022                0.82004650               -0.03378776                0.04334517               -0.00484748
               3.09457255                0.03108677               29.19694000                0.86628786               -0.17918448               -0.17914581                0.59905124               -0.03286182                0.07927892               -0.00236078
               4.09311044                0.02730205               29.12424806                0.86314142               -0.11317862               -0.11275077                0.37804162               -0.03307325                0.09990687               -0.00141546
               5.09230897                0.02350553               29.05169694                0.86127461               -0.04706261               -0.04642253                0.15701365               -0.03310244                0.11097725               -0.00065345
               6.09216919                0.01969537               28.97920720                0.86067886                0.01912216                0.01992450               -0.06403197               -0.03312922                0.11350372               -0.00000053
               7.09269142                0.01587102               28.90670356                0.86135091                0.08532839                0.08627298               -0.28509751               -0.03313148                0.10776848                0.00061283
               8.09387576                0.01203190               28.83411225                0.86329261                0.15152486                0.15261246               -0.50618581               -0.03314001                0.09379406                0.00123676
               9.09572191                0.00817635               28.76135844                0.86651107                0.21772008                0.21900493               -0.72729713               -0.03307405                0.07136530                0.00192529
              10.09823016                0.00430336               28.68836405                0.87101921                0.28383667                0.28507797               -0.94842655               -0.03394309                0.03983836                0.00270203
              11.10139865                0.00038852               28.61504137                0.93733601                0.31684878                0.35393877               -1.16957296               -0.03402697                0.01953311                0.00428048
               1.10291844                1.03551787               29.34180862                0.87451526               -0.27766851               -0.31273935                1.03670772               -0.00086714                0.01528360               -0.00399448
               2.10014176                1.03241012               29.26843155                0.74136093               -0.24477896               -0.24451731                0.81557868               -0.00018965                0.04146320               -0.00507136
               3.09802286                1.02929531               29.19551058                0.73223005               -0.17857126               -0.17831380                0.59457905                0.00006342                0.07788098               -0.00260187
               4.09657033                1.02617455               29.12281046                0.72611277               -0.11207859               -0.11202444                0.37354705                0.00020131                0.09762222               -0.00147479
               5.09578129                1.02304130               29.05024917                0.72248899               -0.04575912               -0.04571788                0.15249507                0.00014550                0.10851646               -0.00078471
               6.09565515                1.01989461               28.97774802                0.72133594                0.02052727                0.02060770               -0.06857500                0.00010629                0.11093513               -0.00030645
               7.09619184                1.01673375               28.90523239                0.72264459                0.08682733                0.08693991               -0.28966527                0.00007397                0.10514968                0.00008008
               8.09739170                1.01355802               28.83262902                0.72641945                0.15318016                0.15327275               -0.51077879                0.00003648                0.09117394                0.00046867
               9.09925544                1.01036639               28.75986359                0.73267884                0.21964731                0.21962709               -0.73191568               -0.00017690                0.06877788                0.00095098
              10.10178464                1.00715414               28.68685823                0.74145481                0.28588921                0.28605666               -0.95307025               -0.00027394                0.03763133                0.00164081
              11.10497322                1.00392790               28.61353208                0.87428362                0.31885817                0.35400505               -1.17422501                0.00072002                0.01767531                0.00289224
               1.10567609                2.03240299               29.34033017                0.87431740               -0.27631901               -0.31058877                1.03223595               -0.00093314                0.01254188               -0.00297999
               2.10291290                2.02996958               29.26693077                0.74094003               -0.24333489               -0.24352121                0.81110709               -0.00037073                0.04097748               -0.00396828
               3.10080939                2.02752050               29.19403293                0.73188177               -0.17722092               -0.17690794                0.59013381               -0.00013148                0.07907654               -0.00256989
               4.09936848                2.02506156               29.12134448                0.72594064               -0.11087878               -0.11062059                0.36908233                0.00009761                0.09787767               -0.00149218
               5.09859182                2.02259117               29.04878781                0.72242707               -0.04448080               -0.04432732                0.14799721                0.00014498                0.10823856               -0.00084563
               6.09847887                2.02010752               28.97628796                0.72131312                0.02188354                0.02198036               -0.07311107                0.00010632                0.11039514               -0.00043693
               7.09902949                2.01760982               28.90377203                0.72258732                0.08824905                0.08830183               -0.29424150                0.00003980                0.10449932               -0.00015998
               8.10024385                2.01509735               28.83116811                0.72625506                0.15463839                0.15464332               -0.51539537               -0.00009393                0.09054474                0.00006859
               9.10212225                2.01256889               28.75840315                0.73233814                0.22096625                0.22104244               -0.73656974               -0.00031003                0.06833055                0.00033212
              10.10466317                2.01002450               28.68540125                0.74087532                0.28716355                0.28777212               -0.95775089               -0.00043478                0.03748624                0.00073936
              11.10786553                2.00746862               28.61208191                0.87389752                0.32023547                0.35460083               -1.17890399                0.00038931                0.01768169                0.00129396
               1.10776661                3.02930610               29.33885587                0.87431139               -0.27497688               -0.30893072                1.02774566               -0.00080550                0.01288102                0.00184904
               2.10501684                3.02753970               29.26545679                0.74092873               -0.24191797               -0.24234310                0.80662452               -0.00026997                0.04139461                0.00071274
               3.10292825                3.02575716               29.19256115                0.73187083               -0.17576137               -0.17573048                0.58565122               -0.00024726                0.07980965                0.00013782
               4.10150161                3.02396213               29.11987971                0.72593016               -0.10950073               -0.10930202                0.36459092               -0.00006805                0.09874067               -0.00001376
               5.10073823                3.02215476               29.04732821                0.72241784               -0.04314933               -0.04296515                0.14348509                0.00000958                0.10890437               -0.00014301
               6.10063863                3.02033422               28.97483175                0.72130588                0.02322843                0.02335995               -0.07764999               -0.00000040                0.11088743               -0.00034277
               7.10120280                3.01849979               28.90231785                0.72258323                0.08960636                0.08969990               -0.29880967               -0.00006828                0.10485223               -0.00064668
               8.10243075                3.01665089               28.82971487                0.72625480                0.15596465                0.15608247               -0.51999217               -0.00018361                0.09078978               -0.00108392
               9.10432210                3.01478724               28.75695012                0.73234247                0.22227324                0.22257267               -0.74119076               -0.00031065                0.06849795               -0.00167528
              10.10687622                3.01290959               28.68394792                0.74088440                0.28853367                0.28918994               -0.96238598               -0.00027458                0.03757755               -0.00244262
              11.11009277                3.01101992               28.61062759                0.87390338                0.32165521                0.35575045               -1.18353911                0.00053648                0.01772042               -0.00342190
               1.10919278                4.02622438               29.33739868                0.87430536               -0.27363379               -0.30746868                1.02324533               -0.00073516                0.01310327                0.00693507
               2.10645644                4.02512272               29.26399062                0.74091797               -0.24053850               -0.24102502                0.80212534               -0.00014661                0.04204685                0.00418251
               3.10438201                4.02400589               29.19109495                0.73186154               -0.17434617               -0.17447671                0.58115074               -0.00019022                0.08105893                0.00254222
               4.10296952                4.02287552               29.11841682                0.72592231               -0.10810451               -0.10800370                0.36008312               -0.00013914                0.10023938                0.00138032
               5.10221992                4.02173187               29.04587062                0.72241167               -0.04178484               -0.04161480                0.13896363               -0.00010808                0.11048709                0.00051727
               6.10213382                4.02057472               28.97337951                0.72130203                0.02457657                0.02473701               -0.08219013               -0.00011664                0.11240249               -0.00025844
               7.10271145                4.01940382               28.90086989                0.72258213                0.09094484                0.09110043               -0.30337075               -0.00015090                0.10620069               -0.00111338
               8.10395272                4.01821900               28.82826925                0.72625709                0.15729460                0.15751731               -0.52457360               -0.00019569                0.09188911               -0.00219331
               9.10585734                4.01702034               28.75550413                0.73234854                0.22361410                0.22401182               -0.74578879               -0.00021345                0.06927691               -0.00362956
              10.10842500                4.01580830               28.68249819                0.74089406                0.28991200                0.29055110               -0.96699392               -0.00015124                0.03798010               -0.00553204
              11.11165558                4.01458363               28.60917029                0.87390923                0.32305828                0.35702910               -1.18814828                0.00061169                0.01791435               -0.00797264
               1.10995523                5.02315673               29.33595115                0.87429942               -0.27228298               -0.30609044                1.01873501               -0.00069002                0.01345959                0.01120031
               2.10723240                5.02271920               29.26252735                0.74090772               -0.23917955               -0.23967305                0.79761233               -0.00003707                0.04303296                0.00696872
               3.10517164                5.02226762               29.18962886                0.73185351               -0.17297744               -0.17314287                0.57663667               -0.00008967                0.08296800                0.00434018
               4.10377285                5.02180206               29.11695378                0.72591650               -0.10673806               -0.10666196                0.35556444               -0.00014395                0.10260785                0.00244747
               5.10303688                5.02132246               29.04441429                0.72240824               -0.04042548               -0.04025726                0.13443604               -0.00019068                0.11309033                0.00102803
               6.10296434                5.02082896               28.97193126                0.72130116                0.02593141                0.02610647               -0.08673025               -0.00021339                0.11501416               -0.00019229
               7.10355550                5.02032180               28.89942886                0.72258382                0.09229887                0.09247978               -0.30792533               -0.00020560                0.10860711               -0.00148241
               8.10481032                5.01980123               28.82683253                0.72626153                0.15865147                0.15890437               -0.52914240               -0.00016751                0.09389590               -0.00309805
               9.10672853                5.01926748               28.75406698                0.73235577                0.22497946                0.22539517               -0.75036951               -0.00010832                0.07071499               -0.00528209
              10.10930991                5.01872061               28.68105431                0.74090409                0.29129037                0.29191553               -0.97158285               -0.00004757                0.03872495               -0.00824362
              11.11255434                5.01816050               28.60771245                0.87391517                0.32444342                0.35837516               -1.19274096                0.00066784                0.01827999               -0.01211711
               1.11005404                6.02010257               29.33450468                0.87429360               -0.27092303               -0.30477239                1.01421427               -0.00064135                0.01397057                0.01441810
               2.10734481                6.02032926               29.26105856                0.74089792               -0.23783401               -0.23830811                0.79308526                0.00007750                0.04446572                0.00874941
               3.10529736                6.02054303               29.18815652                0.73184674               -0.17165018               -0.17174133                0.57211039                0.00001263                0.08574765                0.00537235
               4.10391180                6.02074228               29.11548640                0.72591286               -0.10540746               -0.10526760                0.35103683               -0.00014961                0.10606833                0.00301441
               5.10318921                6.02092672               29.04295731                0.72240747               -0.03907928               -0.03888343                0.12990405               -0.00027049                0.11691981                0.00129788
               6.10313022                6.02109685               28.97048695                0.72130297                0.02729295                0.02746634               -0.09126945               -0.00030381                0.11889653               -0.00014664
               7.10373507                6.02125342               28.89799635                0.72258810                0.09367356                0.09382949               -0.31247348               -0.00025494                0.11223220               -0.00166616
               8.10500369                6.02139709               28.82540788                0.72626793                0.16003696                0.16024362               -0.53369982               -0.00013842                0.09696019               -0.00360833
               9.10693581                6.02152824               28.75264325                0.73236427                0.22636696                0.22673644               -0.75493540               -0.00000150                0.07293593               -0.00633785
              10.10953103                6.02164661               28.67962192                0.74091475                0.29266728                0.29328730               -0.97615592                0.00006162                0.03988341               -0.01020391
              11.11278915                6.02175113               28.60626008                0.87392126                0.32581238                0.35978412               -1.19732036                0.00072959                0.01885551               -0.01545324
               1.10948903                7.01706128               29.33304726                0.87428790               -0.26955406               -0.30355100                1.00968026               -0.00056280                0.01469945                0.01617951
               2.10679349                7.01795304               29.25957288                0.74088872               -0.23650839               -0.23690094                0.78854149                0.00021095                0.04651401                0.00916775
               3.10475886                7.01883280               29.18666933                0.73184141               -0.17036613               -0.17025909                0.56757068                0.00006519                0.08969237                0.00540786
               4.10338616                7.01969671               29.11400920                0.72591142               -0.10409802               -0.10384154                0.34650017               -0.00022376                0.11092322                0.00297700
               5.10267690                7.02054479               29.04149711                0.72240952               -0.03772974               -0.03751257                0.12536807               -0.00037178                0.12224912                0.00128461
               6.10263157                7.02137829               28.96904656                0.72130786                0.02866329                0.02881608               -0.09580718               -0.00039165                0.12430123               -0.00011188
               7.10325017                7.02219839               28.89657481                0.72259520                0.09505747                0.09516243               -0.31701464               -0.00031315                0.11732978               -0.00159051
               8.10453272                7.02300611               28.82400035                0.72627662                0.16144103                0.16154706               -0.53824527               -0.00014219                0.10134313               -0.00354770
               9.10647899                7.02380221               28.75124062                0.73237404                0.22777666                0.22802586               -0.75948567                0.00008977                0.07617268               -0.00646767
              10.10908825                7.02458635               28.67821075                0.74092581                0.29404490                0.29465258               -0.98071207                0.00019619                0.04159563               -0.01093729
              11.11235988                7.02535619               28.60482366                0.87392748                0.32716317                0.36128554               -1.20188537                0.00082120                0.01971672               -0.01744040
               1.10825927                8.01403155               29.33156208                0.87428221               -0.26817568               -0.30255043                1.00512683               -0.00042011                0.01577423                0.01590544
               2.10557751                8.01559124               29.25805479                0.74087997               -0.23521383               -0.23532429                0.78397538                0.00028938                0.04947168                0.00766244
               3.10355499                8.01713785               29.18515632                0.73183781               -0.16910885               -0.16872699                0.56301415               -0.00008667                0.09526792                0.00430438
               4.10219533                8.01866545               29.11251593                0.72591275               -0.10273981               -0.10247254                0.34195270               -0.00037670                0.11758376                0.00233551
               5.10150019                8.02017647               29.04003095                0.72241497               -0.03632720               -0.03617021                0.12082744               -0.00045056                0.12939666                0.00100314
               6.10146879                8.02167317               28.96761023                0.72131645                0.03003954                0.03015910               -0.10034316               -0.00042329                0.13151746               -0.00007591
               7.10210098                8.02315666               28.89516730                0.72260560                0.09641182                0.09650558               -0.32154755               -0.00035151                0.12422660               -0.00123077
               8.10339702                8.02462803               28.82261664                0.72628806                0.16281855                0.16286590               -0.54277621               -0.00019631                0.10745020               -0.00282332
               9.10535735                8.02608876               28.74987027                0.73238564                0.22919754                0.22926731               -0.76401619                0.00008286                0.08084999               -0.00536327
              10.10798097                8.02753966               28.67683594                0.74093735                0.29542790                0.29594017               -0.98524590                0.00033490                0.04414677               -0.00974317
              11.11126591                8.02897684               28.60342005                0.87393366                0.32849376                0.36297203               -1.20642990                0.00097458                0.02103442               -0.01724424
               1.10636125                9.01101027               29.33002553                0.87427642               -0.26682746               -0.30200319                1.00054446               -0.00048705                0.01730231                0.01173061
               2.10369298                9.01324655               29.25648169                0.74087254               -0.23391707               -0.23345284                0.77937704                0.00001279                0.05395149                0.00395502
               3.10168291                9.01545826               29.18360604                0.73183706               -0.16764840               -0.16748494                0.55843560               -0.00032116                0.10333292                0.00233273
               4.10034001                9.01764726               29.11100112                0.72591786               -0.10113695               -0.10119301                0.33739111               -0.00042999                0.12650708                0.00125030
               5.09966017                9.01982139               29.03855654                0.72242470               -0.03485487               -0.03485822                0.11628028               -0.00034613                0.13864585                0.00053417
               6.09964291                9.02198147               28.96617819                0.72132934                0.03140531                0.03150796               -0.10487754               -0.00030283                0.14080526               -0.00003682
               7.10028828                9.02412850               28.89377679                0.72262034                0.09768923                0.09788312               -0.32607036               -0.00026646                0.13325577               -0.00065437
               8.10159670                9.02626343               28.82126364                0.72630321                0.16403698                0.16425380               -0.54728853               -0.00021995                0.11582492               -0.00153833
               9.10356902                9.02838755               28.74854602                0.73240001                0.23050877                0.23062774               -0.76851968               -0.00002151                0.08781093               -0.00303192
              10.10620687                9.03050516               28.67552122                0.74095017                0.29679965                0.29706060               -0.98974559                0.00029288                0.04820845               -0.00585514
              11.10950501                9.03261563               28.60207645                0.87393977                0.32981385                0.36501789               -1.21094006                0.00097607                0.02315842               -0.01258917
               1.10377696               10.00799149               29.32838343                0.93713650               -0.26471845               -0.30187839                0.99590979                0.03464064                0.02261866                0.01012068
               2.10112978               10.01092218               29.25483255                0.87043437               -0.23145523               -0.23243700                0.77473800                0.03351337                0.06239793                0.00297356
               3.09914786               10.01378815               29.18201297                0.86591932               -0.16530894               -0.16701061                0.55382947                0.03246554                0.11478033                0.00221183
               4.09782360               10.01664159               29.10946169                0.86296185               -0.09944004               -0.10056633                0.33280997                0.03291696                0.13790808                0.00122701
               5.09715906               10.01947931               29.03707274                0.86121684               -0.03339907               -0.03420811                0.11172328                0.03297556                0.15015504                0.00046173
               6.09715562               10.02230333               28.96475060                0.86067025                0.03273200                0.03218621               -0.10941114                0.03302174                0.15230454               -0.00022870
               7.09781370               10.02511433               28.89240498                0.86131636                0.09889757                0.09858265               -0.33058105                0.03303085                0.14463750               -0.00094473
               8.09913357               10.02791311               28.81994600                0.86315786                0.16507471                0.16496814               -0.55177688                0.03303689                0.12692864               -0.00180744
               9.10111519               10.03070132               28.74727887                0.86620571                0.23125957                0.23137612               -0.77298659                0.03300568                0.09834411               -0.00302442
              10.10375876               10.03348087               28.67429705                0.87048000                0.29746520                0.29757124               -0.99419313                0.03398313                0.05636113               -0.00498417
              11.10706450               10.03627720               28.60085529                0.93697211                0.33057349                0.36615727               -1.21538349                0.03558154                0.02930364               -0.01096303
               1.17412717                0.04005053               30.35357578                0.93715872               -0.27498494               -0.31015966                1.02846223               -0.03529595                0.01847853               -0.00484027
               2.17137732                0.03627057               30.27801898                0.87060143               -0.24228034               -0.24199433                0.81005307               -0.03337295                0.04348544               -0.00484549
               3.16928156                0.03251503               30.20289421                0.86612785               -0.17700613               -0.17696829                0.59176725               -0.03245877                0.07949026               -0.00234423
               4.16783719                0.02874805               30.12800568                0.86306912               -0.11180972               -0.11138695                0.37346717               -0.03266823                0.10011332               -0.00140219
               5.16704536                0.02496940               30.05325779                0.86125434               -0.04650412               -0.04587180                0.15514899               -0.03269707                0.11117237               -0.00064504
               6.16690711                0.02117728               29.97857110                0.86067512                0.01886949                0.01966194               -0.06318661               -0.03272352                0.11368191                0.00000263
               7.16742275                0.01737115               29.90387032                0.86132842                0.08426426                0.08519709               -0.28154184               -0.03272575                0.10792236                0.00061060
               8.16859240                0.01355042               29.82908163                0.86321601                0.14964939                0.15072337               -0.49991953               -0.03273420                0.09391718                0.00122871
               9.17041574                0.00971347               29.75413023                0.86634484                0.21503327                0.21630199               -0.71831997               -0.03266901                0.07145515                0.00191136
              10.17289306                0.00585932               29.67893805                0.87072727                0.28033914                0.28156501               -0.93673834               -0.03352697                0.03989313                0.00268277
              11.17602253                0.00196384               29.60341743                0.93713922                0.31294630                0.34958147               -1.15517350               -0.03360919                0.01955700                0.00427273
               1.17755417                1.03694893               30.35211265                0.87412629               -0.27428306               -0.30892366                1.02405966               -0.00085571                0.01531501               -0.00398552
               2.17481134                1.03385063               30.27653781                0.74079575               -0.24179681               -0.24153769                0.80564145               -0.00018695                0.04158005               -0.00505265
               3.17271823                1.03074535               30.20142035                0.73191894               -0.17640053               -0.17614672                0.58735126                0.00006249                0.07806235               -0.00255806
               4.17128333                1.02763418               30.12652341                0.72597257               -0.11072271               -0.11067001                0.36902895                0.00019831                0.09778890               -0.00143775
               5.17050378                1.02451068               30.05176512                0.72244979               -0.04521635               -0.04517616                0.15068686                0.00014285                0.10867071               -0.00076195
               6.17037900                1.02137389               29.97706677                0.72132869                0.02025733                0.02033655               -0.06767305                0.00010403                0.11107200               -0.00030064
               7.17090893                1.01822312               29.90235375                0.72260089                0.08574451                0.08585580               -0.28605285                0.00007210                0.10526171                0.00006794
               8.17209389                1.01505765               29.82755276                0.72627061                0.15128378                0.15137569               -0.50445564                0.00003512                0.09125468                0.00043835
               9.17393460                1.01187649               29.75258947                0.73235543                0.21693591                0.21691680               -0.72288148               -0.00017549                0.06882525                0.00090398
              10.17643261                1.00867497               29.67738609                0.74088653                0.28236572                0.28253206               -0.94132476               -0.00027057                0.03765193                0.00158293
              11.17958192                1.00545965               29.60186190                0.87390023                0.31493061                0.34964658               -1.15976822                0.00071196                0.01767310                0.00284591
               1.18030667                2.03387206               30.35058977                0.87393354               -0.27295040               -0.30679953                1.01964418               -0.00092139                0.01256178               -0.00296324
               2.17757717                2.03143981               30.27499260                0.74038578               -0.24037062               -0.24055469                0.80122611               -0.00036626                0.04109580               -0.00393832
               3.17549926                2.02899209               30.19989852                0.73157986               -0.17506693               -0.17475851                0.58296201               -0.00013009                0.07924945               -0.00251755
               4.17407583                2.02653465               30.12501306                0.72580482               -0.10953779               -0.10928397                0.36462023                0.00009582                0.09800620               -0.00144470
               5.17330850                2.02406587               30.05025905                0.72238916               -0.04395377               -0.04380315                0.14624518                0.00014222                0.10834529               -0.00081571
               6.17319675                2.02158401               29.97556163                0.72130609                0.02159683                0.02169202               -0.07215264                0.00010384                0.11048092               -0.00043000
               7.17374044                2.01908826               29.90084792                0.72254480                0.08714852                0.08720087               -0.29057226                0.00003814                0.10455907               -0.00017814
               8.17493972                2.01657793               29.82604596                0.72611042                0.15272375                0.15272948               -0.50901506               -0.00009380                0.09057443                0.00002576
               9.17679491                2.01405181               29.75108279                0.73202383                0.21823835                0.21831491               -0.72747820               -0.00030686                0.06833362                0.00026834
              10.17930449                2.01150996               29.67588258                0.74032228                0.28362429                0.28422652               -0.94594795               -0.00042965                0.03748187                0.00066529
              11.18246740                2.00895677               29.60036523                0.87352426                0.31629097                0.35023496               -1.16438986                0.00038440                0.01766837                0.00123092
               1.18240023                3.03081294               30.34907084                0.87392766               -0.27162508               -0.30516239                1.01521032               -0.00079534                0.01290174                0.00187492
               2.17968398                3.02903953               30.27347406                0.74037476               -0.23897138               -0.23939153                0.79679987               -0.00026670                0.04150982                0.00074746
               3.17762080                3.02725018               30.19838220                0.73156912               -0.17362557               -0.17359578                0.57853560               -0.00024434                0.07997112                0.00017625
               4.17621147                3.02544850               30.12350366                0.72579458               -0.10817694               -0.10798176                0.36018494               -0.00006744                0.09884736                0.00002101
               5.17545726                3.02363461               30.04875461                0.72237991               -0.04263887               -0.04245795                0.14178934                0.00000898                0.10898023               -0.00012097
               6.17535869                3.02180774               29.97406032                0.72129887                0.02292503                0.02305444               -0.07663507               -0.00000104                0.11093801               -0.00033889
               7.17591576                3.01996713               29.89934834                0.72254063                0.08848898                0.08858156               -0.29508371               -0.00006807                0.10487582               -0.00066319
               8.17712847                3.01811224               29.82454704                0.72610993                0.15403360                0.15415071               -0.51355490               -0.00018183                0.09078566               -0.00112001
               9.17899643                3.01624279               29.74958383                0.73202801                0.21952934                0.21982600               -0.73204209               -0.00030707                0.06847426               -0.00172680
              10.18151905                3.01435950               29.67438319                0.74033104                0.28497766                0.28562647               -0.95052591               -0.00027126                0.03755848               -0.00250101
              11.18469599                3.01246435               29.59886484                0.87352997                0.31769326                0.35137079               -1.16896796                0.00052981                0.01769943               -0.00347555
               1.18383759                4.02776881               30.34756893                0.87392184               -0.27029880               -0.30371877                1.01076641               -0.00072592                0.01312307                0.00697420
               2.18113460                4.02665198               30.27196319                0.74036431               -0.23760915               -0.23808997                0.79235701               -0.00014477                0.04215983                0.00422045
               3.17908541                4.02552018               30.19687127                0.73156003               -0.17222806               -0.17235761                0.57409138               -0.00018778                0.08121386                0.00257850
               4.17769004                4.02437501               30.12199598                0.72578675               -0.10679818               -0.10669955                0.35573343               -0.00013727                0.10033329                0.00141014
               5.17694944                4.02321671               30.04725209                0.72237387               -0.04129140               -0.04112436                0.13732422               -0.00010665                0.11054443                0.00053538
               6.17686421                4.02204510               29.97256295                0.72129500                0.02425641                0.02441437               -0.08111870               -0.00011515                0.11243084               -0.00025625
               7.17743457                4.02085989               29.89785505                0.72253951                0.08981086                0.08996463               -0.29958805               -0.00014901                0.10620112               -0.00112907
               8.17866043                4.01966095               29.82305589                0.72611221                0.15534712                0.15556761               -0.51807938               -0.00019324                0.09186388               -0.00222636
               9.18054151                4.01844833               29.74809214                0.73203373                0.22085369                0.22124709               -0.73658309               -0.00021077                0.06923717               -0.00367674
              10.18307750                4.01722249               29.67288767                0.74034037                0.28633903                0.28697067               -0.95507692               -0.00014936                0.03795247               -0.00558797
              11.18626829                4.01598419               29.59736174                0.87353564                0.31907906                0.35263373               -1.17352032                0.00060409                0.01788902               -0.00803066
               1.18461936                5.02473857               30.34607658                0.87391611               -0.26896485               -0.30235781                1.00631243               -0.00068139                0.01347943                0.01125242
               2.18192971                5.02427773               30.27045506                0.74035433               -0.23626716               -0.23675486                0.78790032               -0.00003651                0.04314673                0.00701106
               3.17989402                5.02380302               30.19536032                0.73155227               -0.17087641               -0.17104035                0.56963361               -0.00008829                0.08312267                0.00437703
               4.17851219                5.02331451               30.12048803                0.72578113               -0.10544880               -0.10537448                0.35127105               -0.00014169                0.10269749                0.00247598
               5.17778504                5.02281213               30.04575076                0.72237053               -0.03994898               -0.03978369                0.13285302               -0.00018768                0.11313939                0.00104458
               6.17771321                5.02229602               29.97106959                0.72129407                0.02559438                0.02576679               -0.08560231               -0.00021005                0.11503140               -0.00019083
               7.17829693                5.02176643               29.89636875                0.72254108                0.09114807                0.09132679               -0.30408595               -0.00020243                0.10859545               -0.00149774
               8.17953617                5.02122359               29.82157377                0.72611638                0.15668717                0.15693737               -0.52259138               -0.00016498                0.09385974               -0.00313009
               9.18143067                5.02066773               29.74660946                0.73204081                0.22220214                0.22261319               -0.74110694               -0.00010670                0.07066726               -0.00532910
              10.18398021                5.02009891               29.67139818                0.74035023                0.28770032                0.28831812               -0.95960890               -0.00004689                0.03869325               -0.00830290
              11.18718468                5.01951703               29.59585825                0.87354141                0.32044702                0.35396313               -1.17805605                0.00065958                0.01825261               -0.01218586
               1.18474564                6.02172165               30.34458518                0.87391047               -0.26762185               -0.30105621                1.00184810               -0.00063337                0.01399171                0.01448146
               2.18206942                6.02191689               30.26894128                0.74034485               -0.23493841               -0.23540690                0.78342965                0.00007668                0.04458425                0.00879462
               3.18004687                6.02209937               30.19384301                0.73154569               -0.16956571               -0.16965625                0.56516372                0.00001285                0.08590947                0.00540973
               4.17867810                6.02226752               30.11897565                0.72577758               -0.10413476               -0.10399750                0.34679982               -0.00014706                0.10616245                0.00304240
               5.17796417                6.02242104               30.04424875                0.72236981               -0.03861954               -0.03842699                0.12837745               -0.00026607                0.11697033                0.00131384
               6.17790571                6.02256043               29.96958017                0.72129595                0.02693896                0.02710974               -0.09008501               -0.00029879                0.11891285               -0.00014529
               7.17850295                6.02268643               29.89489104                0.72254527                0.09250562                0.09265974               -0.30857752               -0.00025063                0.11221853               -0.00168102
               8.17975582                6.02279969               29.82010383                0.72612273                0.15805539                0.15826001               -0.52709215               -0.00013589                0.09692215               -0.00363979
               9.18166406                6.02290059               29.74514036                0.73204907                0.22357236                0.22393784               -0.74561608               -0.00000108                0.07288723               -0.00638564
              10.18422727                6.02298885               29.66992034                0.74036047                0.28906012                0.28967290               -0.96412518                0.00006097                0.03985171               -0.01026769
              11.18744526                6.02306345               29.59436037                0.87354730                0.32179899                0.35535467               -1.18257875                0.00072060                0.01882847               -0.01553385
               1.18421623                7.01871744               30.34308270                0.87390494               -0.26626994               -0.29985005                0.99737057               -0.00055584                0.01472334                0.01624960
               2.18155353                7.01956959               30.26741045                0.74033587               -0.23362936               -0.23401714                0.77894238                0.00020845                0.04664208                0.00921163
               3.17954364                7.02040990               30.19231069                0.73154056               -0.16829769               -0.16819248                0.56068049                0.00006470                0.08987004                0.00544339
               4.17818758                7.02123456               30.11745337                0.72577629               -0.10284159               -0.10258929                0.34231961               -0.00022017                0.11103143                0.00300345
               5.17748681                7.02204359               30.04274347                0.72237194               -0.03728677               -0.03707325                0.12389793               -0.00036577                0.12231123                0.00129974
               6.17744184                7.02283822               29.96809468                0.72130092                0.02829223                0.02844267               -0.09456624               -0.00038511                0.12432698               -0.00011031
               7.17805266                7.02361962               29.89342437                0.72255228                0.09387225                0.09397614               -0.31306216               -0.00030771                0.11732419               -0.00160403
               8.17931929                7.02438879               29.81865113                0.72613127                0.15944187                0.15954736               -0.53158101               -0.00013932                0.10131239               -0.00357713
               9.18124149                7.02514649               29.74369251                0.73205864                0.22496439                0.22521141               -0.75010969                0.00008916                0.07613042               -0.00651383
              10.18381857                7.02589237               29.66846389                0.74037124                0.29042055                0.29102134               -0.96862478                0.00019389                0.04156832               -0.01100243
              11.18704990                7.02662412               29.59287858                0.87355333                0.32313301                0.35683752               -1.18708724                0.00081109                0.01969252               -0.01752952
               1.18303022                8.01572465               30.34155227                0.87389934               -0.26490876               -0.29886205                0.99287382               -0.00041495                0.01580298                0.01597441
               2.18038113                8.01723654               30.26584698                0.74032754               -0.23235102               -0.23245976                0.77443300                0.00028567                0.04961556                0.00769719
               3.17838320                8.01873552               30.19075240                0.73153724               -0.16705611               -0.16667954                0.55618055               -0.00008560                0.09547213                0.00433376
               4.17704001                8.02021573               30.11591491                0.72577784               -0.10150025               -0.10123745                0.33782866               -0.00037123                0.11771704                0.00235784
               5.17635319                8.02167957               30.04123218                0.72237749               -0.03590172               -0.03574761                0.11941378               -0.00044345                0.12948154                0.00101610
               6.17632198                8.02312928               29.96661328                0.72130940                0.02965129                0.02976899               -0.09904576               -0.00041624                0.13156401               -0.00007415
               7.17694622                8.02456595               29.89197182                0.72256271                0.09520971                0.09530258               -0.31753861               -0.00034542                0.12424037               -0.00124151
               8.17822617                8.02599064               29.81722238                0.72614251                0.16080217                0.16084986               -0.53605554               -0.00019254                0.10743746               -0.00284748
               9.18016226                8.02740482               29.74227714                0.73207002                0.22636743                0.22643766               -0.75458383                0.00008250                0.08082298               -0.00540219
              10.18275352                8.02880928               29.66704402                0.74038262                0.29178623                0.29229316               -0.97310218                0.00033086                0.04412895               -0.00980124
              11.18599799                8.03020020               29.59142981                0.87355937                0.32444699                0.35850302               -1.19157529                0.00096253                0.02101587               -0.01733210
               1.18118415                9.01274020               30.33997019                0.87389377               -0.26357742               -0.29832198                0.98834836               -0.00048117                0.01733765                0.01178214
               2.17854837                9.01492040               30.26422818                0.74032031               -0.23107046               -0.23061082                0.76989166                0.00001171                0.05411968                0.00397137
               3.17656274                9.01707631               30.18915662                0.73153666               -0.16561378               -0.16545337                0.55165889               -0.00031758                0.10357771                0.00235048
               4.17523610                9.01920981               30.11435476                0.72578308               -0.09991741               -0.09997380                0.33332378               -0.00042412                0.12667809                0.00126408
               5.17456439                9.02132863               30.03971258                0.72238725               -0.03444799               -0.03445182                0.11492315               -0.00034069                0.13876631                0.00054228
               6.17454714                9.02343360               29.96513617                0.72132228                0.03099995                0.03110111               -0.10352373               -0.00029777                0.14088588               -0.00003546
               7.17518439                9.02552567               29.89053636                0.72257736                0.09647133                0.09666294               -0.32200513               -0.00026186                0.13330237               -0.00066054
               8.17647657                9.02760579               29.81582455                0.72615757                0.16200563                0.16222039               -0.54051164               -0.00021604                0.11584359               -0.00155265
               9.17842450                9.02967524               29.74090813                0.73208427                0.22766233                0.22778111               -0.75903110               -0.00002050                0.08781183               -0.00305546
              10.18102981                9.03173824               29.66568459                0.74039511                0.29314077                0.29340004               -0.97754577                0.00028954                0.04820874               -0.00589136
              11.18428732                9.03379418               29.59004139                0.87356539                0.32575060                0.36052332               -1.19602945                0.00096398                0.02315075               -0.01265264
               1.17866021               10.00975821               30.33828202                0.93694527               -0.26149436               -0.29819899                0.98377101                0.03421709                0.02267722                0.01016916
               2.17604526               10.01262433               30.26253293                0.87015842               -0.22863830               -0.22960710                0.76531000                0.03310080                0.06260778                0.00298737
               3.17408744               10.01542645               30.18751777                0.86576919               -0.16330312               -0.16498530                0.54710995                0.03206656                0.11508121                0.00222882
               4.17277920               10.01821626               30.11276981                0.86289445               -0.09824251               -0.09935478                0.32879953                0.03251425                0.13813070                0.00123916
               5.17212259               10.02099054               30.03818350                0.86119816               -0.03301089               -0.03380970                0.11042275                0.03257222                0.15032624                0.00046815
               6.17211898               10.02375131               29.96366352                0.86066679                0.03230996                0.03177097               -0.10800096                0.03261788                0.15243520               -0.00022862
               7.17276879               10.02649921               29.88911972                0.86129485                0.09766484                0.09735372               -0.32645974                0.03262692                0.14473352               -0.00095142
               8.17407228               10.02923505               29.81446230                0.86308496                0.16303101                0.16292575               -0.54494408                0.03263292                0.12699588               -0.00182128
               9.17602941               10.03196044               29.73959659                0.86604777                0.22840460                0.22852000               -0.76344220                0.03260220                0.09839198               -0.00304613
              10.17864037               10.03467728               29.66441622                0.87020232                0.29379848                0.29390456               -0.98193774                0.03356694                0.05639971               -0.00501563
              11.18190538               10.03741067               29.58877607                0.93678484                0.32650076                0.36164845               -1.20041751                0.03514433                0.02932660               -0.01101944
               1.25096110                0.04148723               31.36379668                0.93696443               -0.27156928               -0.30630520                1.01567974               -0.03485535                0.01853508               -0.00484842
               2.24824541                0.03772535               31.28606938                0.87031742               -0.23927302               -0.23898986                0.79999752               -0.03295568                0.04362420               -0.00484358
               3.24617564                0.03398761               31.20877534                0.86596999               -0.17481407               -0.17477697                0.58443734               -0.03205333                0.07969927               -0.00232782
               4.24474913                0.03023855               31.13171741                0.86299789               -0.11043191               -0.11001422                0.36886297               -0.03226078                0.10031752               -0.00138901
               5.24396701                0.02647797               31.05479992                0.86123434               -0.04594153               -0.04531700                0.15327067               -0.03228929                0.11136541               -0.00063677
               6.24383030                0.02270408               30.97794346                0.86067146                0.01861609                0.01939858               -0.06233876               -0.03231542                0.11385823                0.00000576
               7.24433933                0.01891636               30.90107272                0.86130630                0.08319457                0.08411555               -0.27796753               -0.03231761                0.10807464                0.00060839
               8.24549419                0.01511422               30.82411386                0.86314045                0.14776352                0.14882380               -0.49361854               -0.03232595                0.09403908                0.00122083
               9.24729460                0.01129608               30.74699204                0.86618080                0.21233126                0.21358378               -0.70929211               -0.03226156                0.07154407                0.00189754
              10.24974082                0.00746095               30.66962928                0.87043936                0.27682163                0.27803198               -0.92498336               -0.03310838                0.03994716                0.00266373
              11.25283103                0.00358503               30.59193790                0.93694512                0.30902145                0.34519909               -1.14069123               -0.03318899                0.01958031                0.00426543
               1.25437443                1.03842417               31.36228981                0.87374266               -0.27087660               -0.30508443                1.01133349               -0.00084423                0.01534600               -0.00397656
               2.25166566                1.03533545               31.28454438                0.74023828               -0.23879605               -0.23853953                0.79564229               -0.00018427                0.04169560               -0.00503410
               3.24959851                1.03223984               31.20725761                0.73161224               -0.17421605               -0.17396591                0.58007775                0.00006151                0.07824165               -0.00251464
               4.24818134                1.02913841               31.13019104                0.72583434               -0.10935797               -0.10930670                0.36448129                0.00019526                0.09795356               -0.00140105
               5.24741135                1.02602480               31.05326291                0.72241094               -0.04466957               -0.04463040                0.14886526                0.00014013                0.10882310               -0.00073948
               6.24728795                1.02289807               30.97639455                0.72132153                0.01998656                0.02006455               -0.06676830                0.00010170                0.11120727               -0.00029492
               7.24781108                1.01975751               30.89951134                0.72255769                0.08465601                0.08476599               -0.28242149                0.00007019                0.10537245                0.00005594
               8.24898107                1.01660246               30.82253991                0.72612375                0.14937687                0.14946808               -0.49809738                0.00003378                0.09133448                0.00040844
               9.25079862                1.01343191               30.74540596                0.73203656                0.21420915                0.21419113               -0.71379609               -0.00017402                0.06887204                0.00085738
              10.25326525                1.01024127               30.66803174                0.74032597                0.27882207                0.27898726               -0.92951202               -0.00026717                0.03767230                0.00152550
              11.25637506                1.00703702               30.59033671                0.87352208                0.31098048                0.34526298               -1.14522809                0.00070378                0.01767092                0.00280004
               1.25712167                2.03538554               31.36072306                0.87355496               -0.26956085               -0.30298694                1.00697455               -0.00090959                0.01258134               -0.00294652
               2.25442606                2.03295456               31.28295530                0.73983915               -0.23738784               -0.23756969                0.79128349               -0.00036181                0.04121277               -0.00390859
               3.25237391                2.03050829               31.20569217                0.73128199               -0.17289929               -0.17259545                0.57574479               -0.00012879                0.07942031               -0.00246573
               4.25096808                2.02805242               31.12863688                0.72567079               -0.10818803               -0.10793855                0.36012885                0.00009389                0.09813295               -0.00139781
               5.25021015                2.02558536               31.05171271                0.72235174               -0.04342281               -0.04327506                0.14448007                0.00013929                0.10845053               -0.00078615
               6.25009962                2.02310537               30.97484491                0.72129925                0.02130921                0.02140274               -0.07119108                0.00010121                0.11056554               -0.00042317
               7.25063634                2.02061168               30.89796059                0.72250283                0.08604222                0.08609410               -0.28688376                0.00003636                0.10461806               -0.00019607
               8.25182046                2.01810358               30.82098780                0.72596777                0.15079847                0.15080496               -0.50259928               -0.00009371                0.09060358               -0.00001662
               9.25365231                2.01557990               30.74385359                0.73171388                0.21549497                0.21557183               -0.71833495               -0.00030369                0.06833630                0.00020520
              10.25613036                2.01304070               30.66648229                0.73977697                0.28006472                0.28066051               -0.93407725               -0.00042455                0.03747743                0.00059184
              11.25925360                2.01049029               30.58879411                0.87315626                0.31232374                0.34584385               -1.14979182                0.00037940                0.01765529                0.00116808
               1.25921820                3.03236444               31.35916007                0.87354923               -0.26825243               -0.30137082                1.00259739               -0.00078515                0.01292213                0.00190065
               2.25653567                3.03058406               31.28139279                0.73982843               -0.23600637               -0.23642154                0.78691381               -0.00026349                0.04162364                0.00078184
               3.25449807                3.02878793               31.20413187                0.73127157               -0.17147622               -0.17144752                0.57137480               -0.00024155                0.08013048                0.00021422
               4.25310615                3.02697964               31.12708341                0.72566062               -0.10684446               -0.10665282                0.35575003               -0.00006703                0.09895244                0.00005530
               5.25236118                3.02515930               31.05016399                0.72234260               -0.04212456               -0.04194692                0.14008084                0.00000812                0.10905493               -0.00009922
               6.25226366                3.02332612               30.97329905                0.72129197                0.02262061                0.02274789               -0.07561670               -0.00000192                0.11098777               -0.00033506
               7.25281359                3.02147939               30.89641618                0.72249858                0.08736573                0.08745729               -0.29133809               -0.00006809                0.10489891               -0.00067944
               8.25401097                3.01961856               30.81944377                0.72596725                0.15209181                0.15220816               -0.50708174               -0.00018023                0.09078132               -0.00115566
               9.25585543                3.01774335               30.74230928                0.73171785                0.21676981                0.21706364               -0.72284126               -0.00030359                0.06845053               -0.00177769
              10.25834637                3.01585448               30.66493741                0.73978537                0.28140121                0.28204248               -0.93859763               -0.00026800                0.03753922               -0.00255885
              11.26148346                3.01395390               30.58724823                0.87316175                0.31370849                0.34696579               -1.15431264                0.00052306                0.01767817               -0.00352903
               1.26066673                4.02935812               31.35761401                0.87354361               -0.26694302               -0.29994571                0.99821014               -0.00071667                0.01314250                0.00701293
               2.25799730                4.02822613               31.27983776                0.73981821               -0.23466145               -0.23513660                0.78252758               -0.00014302                0.04227143                0.00425791
               3.25597350                4.02707934               31.20257678                0.73126264               -0.17009648               -0.17022504                0.56698717               -0.00018554                0.08136676                0.00261429
               4.25459537                4.02591936               31.12553149                0.72565305               -0.10548325               -0.10538680                0.35135507               -0.00013569                0.10042571                0.00143957
               5.25386383                4.02474642               31.04861710                0.72233658               -0.04079421               -0.04063020                0.13567238               -0.00010555                0.11060080                0.00055324
               6.25377948                4.02356033               30.97175713                0.72128808                0.02393513                0.02409059               -0.08004351               -0.00011402                0.11245868               -0.00025409
               7.25434254                4.02236082               30.89487813                0.72249735                0.08867092                0.08882283               -0.29578542               -0.00014744                0.10620139               -0.00114451
               8.25555290                4.02114775               30.81790766                0.72596918                0.15338880                0.15360703               -0.51154900               -0.00019105                0.09183868               -0.00225886
               9.25741031                4.01992117               30.74077247                0.73172333                0.21807756                0.21846663               -0.72732500               -0.00020825                0.06919746               -0.00372332
              10.25991445                4.01868155               30.66339666                0.73979446                0.28274552                0.28336965               -0.94309142               -0.00014754                0.03792469               -0.00564337
              11.26306522                4.01742961               30.58569989                0.87316723                0.31507692                0.34821295               -1.15880783                0.00059645                0.01786345               -0.00808814
               1.26146786                5.02636552               31.35607740                0.87353799               -0.26562601               -0.29860212                0.99381282               -0.00067275                0.01349905                0.01130393
               2.25881160                5.02588132               31.27828535                0.73980856               -0.23333653               -0.23381846                0.77812753               -0.00003608                0.04325918                0.00705282
               3.25680113                5.02538343               31.20102153                0.73125503               -0.16876204               -0.16892447                0.56258607               -0.00008717                0.08327538                0.00441335
               4.25543636                5.02487190               31.12397920                0.72564751               -0.10415103               -0.10407851                0.34694937               -0.00013979                0.10278577                0.00250407
               5.25471810                5.02434669               31.04707135                0.72233335               -0.03946883               -0.03930650                0.13125787               -0.00018509                0.11318764                0.00106091
               6.25464698                5.02380793               30.97021921                0.72128714                0.02525615                0.02542588               -0.08447030               -0.00020712                0.11504830               -0.00018937
               7.25522323                5.02325585               30.89334714                0.72249887                0.08999121                0.09016773               -0.30022637               -0.00019963                0.10858389               -0.00151285
               8.25644680                5.02269070               30.81638071                0.72597330                0.15471194                0.15495942               -0.51600394               -0.00016274                0.09382379               -0.00316170
               9.25831747                5.02211268               30.73924484                0.73173021                0.21940904                0.21981540               -0.73179171               -0.00010529                0.07061965               -0.00537552
              10.26083498                5.02152187               30.66186214                0.73980398                0.28408966                0.28470007               -0.94756619               -0.00004627                0.03866158               -0.00836148
              11.26399926                5.02091816               30.58415133                0.87317281                0.31642761                0.34952558               -1.16328628                0.00065124                0.01822532               -0.01225389
               1.26162167                6.02338608               31.35454164                0.87353253               -0.26430008               -0.29731707                0.98940525               -0.00062538                0.01401263                0.01454415
               2.25897867                6.02354976               31.27672715                0.73979927               -0.23202468               -0.23248760                0.77371363                0.00007570                0.04470146                0.00883923
               3.25698118                6.02370085               31.19945980                0.73124874               -0.16746799               -0.16755795                0.55817290                0.00001277                0.08606936                0.00544662
               4.25562931                6.02383779               31.12242240                0.72564419               -0.10285365               -0.10271902                0.34253483               -0.00014486                0.10625526                0.00307004
               5.25492410                6.02396029               31.04552486                0.72233259               -0.03815624               -0.03796702                0.12683905               -0.00026205                0.11702013                0.00132960
               6.25486618                6.02406885               30.96868525                0.72128903                0.02658367                0.02675181               -0.08889619               -0.00029420                0.11892896               -0.00014389
               7.25545578                6.02416418               30.89182480                0.72250308                0.09133153                0.09148381               -0.30466102               -0.00024672                0.11220501               -0.00169561
               8.25669281                6.02424694               30.81486604                0.72597945                0.15606280                0.15626537               -0.52044773               -0.00013369                0.09688444               -0.00367082
               9.25857703                6.02431748               30.73773093                0.73173816                0.22076188                0.22112336               -0.73624381               -0.00000086                0.07283883               -0.00643273
              10.26110805                6.02437555               30.66033942                0.73981398                0.28543224                0.28603776               -0.95202539                0.00006025                0.03982008               -0.01033079
              11.26428568                6.02442012               30.58260850                0.87317858                0.31776249                0.35089959               -1.16775188                0.00071152                0.01880145               -0.01561391
               1.26112799                7.02041918               31.35299467                0.87352714               -0.26296537               -0.29612620                0.98498453               -0.00054890                0.01474707                0.01631901
               2.25849834                7.02123157               31.27515173                0.73979071               -0.23073229               -0.23111536                0.76928324                0.00020578                0.04676887                0.00925496
               3.25651335                7.02203227               31.19788294                0.73124378               -0.16621608               -0.16611275                0.55374650                0.00006396                0.09004574                0.00547846
               4.25517402                7.02281752               31.12085559                0.72564303               -0.10157685               -0.10132875                0.33811141               -0.00021690                0.11113827                0.00302958
               5.25448181                7.02358735               31.04397507                0.72233488               -0.03684036               -0.03663049                0.12241631               -0.00036014                0.12237263                0.00131471
               6.25443721                7.02434297               30.96715524                0.72129390                0.02791977                0.02806785               -0.09332063               -0.00037897                0.12435254               -0.00010869
               7.25504020                7.02508553               30.89031356                0.72250999                0.09268079                0.09278357               -0.30908882               -0.00030263                0.11731879               -0.00161728
               8.25629083                7.02581601               30.81336873                0.72598779                0.15743161                0.15753653               -0.52487973               -0.00013674                0.10128205               -0.00360610
               9.25818884                7.02653515               30.73623843                0.73174761                0.22213618                0.22238098               -0.74068057                0.00008838                0.07608834               -0.00655940
              10.26073355                7.02724263               30.65883825                0.73982444                0.28677542                0.28736927               -0.95646816                0.00019152                0.04154078               -0.01106686
              11.26392435                7.02793615               30.58108191                0.87318438                0.31907962                0.35236379               -1.17220354                0.00080088                0.01966805               -0.01761776
               1.25998591                8.01746355               31.35141956                0.87352180               -0.26162147               -0.29515079                0.98054478               -0.00040982                0.01583140                0.01604278
               2.25736969                8.01892745               31.27354345                0.73978267               -0.22947024               -0.22957732                0.76483081                0.00028183                0.04975796                0.00773149
               3.25539650                8.02037860               31.19627993                0.73124074               -0.16499029               -0.16461903                0.54930341               -0.00008470                0.09567415                0.00436270
               4.25406989                8.02181122               31.11927251                0.72564476               -0.10025250               -0.09999417                0.33367732               -0.00036598                0.11784881                0.00237989
               5.25339145                8.02322768               31.04241922                0.72234050               -0.03547290               -0.03532166                0.11798896               -0.00043664                0.12956558                0.00102893
               6.25336043                8.02463020               30.96562932                0.72130245                0.02926154                0.02937738               -0.09774338               -0.00040949                0.13161028               -0.00007237
               7.25397668                8.02601985               30.88881653                0.72252036                0.09400127                0.09409322               -0.31350853               -0.00033961                0.12425423               -0.00125204
               8.25524046                8.02739767               30.81189553                0.72599901                0.15877462                0.15882260               -0.52929755               -0.00018900                0.10742491               -0.00287128
               9.25715218                8.02876510               30.73477860                0.73175877                0.22352131                0.22359193               -0.74509796                0.00008205                0.08079611               -0.00544070
              10.25971088                8.03012293               30.65737389                0.73983550                0.28812367                0.28862520               -0.96088873                0.00032686                0.04411116               -0.00985851
              11.26291465                8.03146740               30.57958855                0.87319024                0.32037688                0.35400818               -1.17663475                0.00095044                0.02099740               -0.01741882
               1.25819201                9.01451616               31.34979250                0.87351639               -0.26030709               -0.29461787                0.97607648               -0.00047527                0.01737247                0.01183308
               2.25558893                9.01664002               31.27187953                0.73977575               -0.22820598               -0.22775100                0.76034677                0.00001061                0.05428611                0.00398747
               3.25362789                9.01873989               31.19463922                0.73124048               -0.16356618               -0.16340878                0.54483887               -0.00031407                0.10381997                0.00236805
               4.25231761                9.02081764               31.11766760                0.72565014               -0.09868979               -0.09874644                0.32922940               -0.00041834                0.12684729                0.00127770
               5.25165409                9.02288092               31.04085500                0.72235030               -0.03403786               -0.03404217                0.11355519               -0.00033540                0.13888562                0.00055032
               6.25163685                9.02493052               30.96410772                0.72131541                0.03059300                0.03069268               -0.10216463               -0.00029289                0.14096593               -0.00003409
               7.25226595                9.02696739               30.88733668                0.72253490                0.09524699                0.09543630               -0.31791844               -0.00025742                0.13334880               -0.00066661
               8.25354179                9.02899246               30.81045341                0.72601390                0.15996304                0.16017566               -0.53369710               -0.00021231                0.11586221               -0.00156673
               9.25546521                9.03100699               30.73336540                0.73177270                0.22479985                0.22491833               -0.74948883               -0.00001954                0.08781272               -0.00307859
              10.25803779                9.03301513               30.65597031                0.73984789                0.28946089                0.28971838               -0.96527582                0.00028629                0.04820899               -0.00592709
              11.26125443                9.03501632               30.57815586                0.87319606                0.32166381                0.35600260               -1.18103213                0.00095192                0.02314306               -0.01271564
               1.25572868               10.01157120               31.34805885                0.93675655               -0.25825012               -0.29449668                0.97155683                0.03379096                0.02273523                0.01021697
               2.25314618               10.01437243               31.27013875                0.86988618               -0.22580370               -0.22675949                0.75582289                0.03268580                0.06281566                0.00300103
               3.25121261               10.01711042               31.19295517                0.86562114               -0.16128447               -0.16294696                0.54034744                0.03166517                0.11537903                0.00224582
               4.24992049               10.01983629               31.11603768                0.86282802               -0.09703697               -0.09813512                0.32476235                0.03210903                0.13835092                0.00125119
               5.24927187               10.02254684               31.03928119                0.86117976               -0.03261955               -0.03340809                0.10911174                0.03216637                0.15049579                0.00047452
               6.24926810               10.02524406               30.96259058                0.86066328                0.03188622                0.03135409               -0.10658518                0.03221150                0.15256478               -0.00022851
               7.24990959               10.02792857               30.88587578                0.86127358                0.09642553                0.09611830               -0.32231660                0.03222045                0.14482888               -0.00095802
               8.25119661               10.03060118               30.80904712                0.86301308                0.16097593                0.16087198               -0.53807333                0.03222643                0.12706271               -0.00183488
               9.25312911               10.03326347               30.73201003                0.86589196                0.22553353                0.22564771               -0.75384395                0.03219623                0.09843942               -0.00306733
              10.25570728               10.03591730               30.65465829                0.86992850                0.29011070                0.29021671               -0.96961191                0.03314823                0.05643763               -0.00504673
              11.25893133               10.03858745               30.57684694                0.93660019                0.32240440                0.35711328               -1.18536422                0.03470448                0.02934889               -0.01107571
               1.32995247                0.04296730               32.37388937                0.93677281               -0.26813284               -0.30242735                1.00281975               -0.03441215                0.01859090               -0.00485640
               2.32727114                0.03922370               32.29401893                0.87003721               -0.23624732               -0.23596703                0.78988048               -0.03253600                0.04376144               -0.00484155
               3.32522752                0.03550395               32.21458295                0.86581434               -0.17260841               -0.17257202                0.57706201               -0.03164553                0.07990605               -0.00231158
               4.32381897                0.03177301               32.13538294                0.86292758               -0.10904527               -0.10863266                0.36422928               -0.03185092                0.10051942               -0.00137607
               5.32304662                0.02803068               32.05632320                0.86121457               -0.04537488               -0.04475819                0.15137884               -0.03187908                0.11155632               -0.00062857
               6.32291147                0.02427521               31.97732432                0.86066788                0.01836197                0.01913443               -0.06148846               -0.03190490                0.11403272                0.00000883
               7.32341385                0.02050609               31.89831096                0.86128435                0.08211939                0.08302843               -0.27437483               -0.03190704                0.10822537                0.00060615
               8.32455386                0.01672274               31.81920926                0.86306606                0.14586738                0.14691382               -0.48728316               -0.03191528                0.09415961                0.00121295
               9.32633120                0.01292359               31.73994438                0.86601916                0.20961416                0.21085033               -0.70021382               -0.03185170                0.07163195                0.00188399
              10.32874614                0.00910768               31.66043839                0.87015550                0.27328424                0.27447894               -0.91316202               -0.03268736                0.04000067                0.00264495
              11.33179689                0.00525152               31.58060361                0.93675368                0.30507432                0.34079172               -1.12612657               -0.03276638                0.01960347                0.00425794
               1.33335195                1.03994303               32.37233932                0.87336435               -0.26744937               -0.30122192                0.99853002               -0.00083274                0.01537658               -0.00396754
               2.33067746                1.03686403               32.29245065                0.73968857               -0.23577692               -0.23552302                0.78558189               -0.00018160                0.04180984               -0.00501556
               3.32863641                1.03377823               32.21302190                0.73130976               -0.17201801               -0.17177150                0.57275899                0.00006052                0.07841888               -0.00247152
               4.32723710                1.03068668               32.13381304                0.72569784               -0.10798446               -0.10793458                0.35990437                0.00019220                0.09811626               -0.00136473
               5.32647672                1.02758310               32.05474242                0.72237283               -0.04411881               -0.04408067                0.14703044                0.00013742                0.10897371               -0.00071722
               6.32635472                1.02446656               31.97573140                0.72131445                0.01971497                0.01979173               -0.06586080                0.00009937                0.11134098               -0.00028926
               7.32687102                1.02133637               31.89670532                0.72251529                0.08356189                0.08367054               -0.27877137                0.00006829                0.10548193                0.00004403
               8.32802596                1.01819187               31.81759081                0.72597899                0.14745954                0.14755001               -0.49170433                0.00003244                0.09141334                0.00037875
               9.32982021                1.01503209               31.73831355                0.73172207                0.21146716                0.21145020               -0.70465989               -0.00017255                0.06891823                0.00081136
              10.33225530                1.01185247               31.65879585                0.73977332                0.27525840                0.27542240               -0.91763251               -0.00026381                0.03769233                0.00146866
              11.33532538                1.00865944               31.57895734                0.87314929                0.30700795                0.34085449               -1.13060527                0.00069550                0.01766861                0.00275441
               1.33609381                2.03694287               32.37072926                0.87318164               -0.26615061               -0.29915121                0.99422789               -0.00089775                0.01260069               -0.00292978
               2.33343231                2.03451324               32.29081827                0.73930019               -0.23438675               -0.23456637                0.78127986               -0.00035733                0.04132846               -0.00387900
               3.33140608                2.03206852               32.21141342                0.73098844               -0.17071813               -0.17041887                0.56848250               -0.00012749                0.07958906               -0.00241431
               4.33001795                2.02961432               32.13221564                0.72553867               -0.10682957               -0.10658441                0.35560847                0.00009191                0.09825794               -0.00135132
               5.32926949                2.02714906               32.05314865                0.72231486               -0.04288798               -0.04274308                0.14270203                0.00013630                0.10855438               -0.00075691
               6.32916019                2.02467105               31.97413781                0.72129239                0.02102066                0.02111255               -0.07022648                0.00009850                0.11064907               -0.00041643
               7.32968990                2.02217950               31.89511024                0.72246152                0.08493021                0.08498158               -0.28317613                0.00003451                0.10467622               -0.00021380
               8.33085879                2.01967374               31.81599398                0.72582704                0.14886266                0.14886988               -0.49614837               -0.00009366                0.09063234               -0.00005848
               9.33266715                2.01715259               31.73671609                0.73140818                0.21273625                0.21281340               -0.70914058               -0.00030051                0.06833890                0.00014277
              10.33511352                2.01461613               31.65720104                0.73923915                0.27648506                0.27707438               -0.92213951               -0.00041938                0.03747281                0.00051905
              11.33819686                2.01206861               31.57736939                0.87279336                0.30833406                0.34142789               -1.13511103                0.00037441                0.01764207                0.00110572
               1.33819325                3.03396001               32.36912279                0.87317612               -0.26485912               -0.29755619                0.98990762               -0.00077494                0.01294221                0.00192622
               2.33554466                3.03217270               32.28921234                0.73928973               -0.23302312               -0.23343328                0.77696695               -0.00026028                0.04173612                0.00081593
               3.33353279                3.03036985               32.20980970                0.73097813               -0.16931344               -0.16928582                0.56416926               -0.00023884                0.08028788                0.00025177
               4.33215839                3.02855499               32.13061866                0.72552861               -0.10550339               -0.10531526                0.35128645               -0.00006676                0.09905598                0.00008920
               5.33142272                3.02672823               32.05155623                0.72230570               -0.04160649               -0.04143209                0.13835969                0.00000713                0.10912847               -0.00007774
               6.33132626                3.02488881               31.97254799                0.72128518                0.02231517                0.02244032               -0.07459494               -0.00000296                0.11103680               -0.00033128
               7.33186902                3.02303600               31.89352158                0.72245701                0.08623668                0.08632719               -0.28757308               -0.00006825                0.10492166               -0.00069551
               8.33305099                3.02116927               31.81440541                0.72582640                0.15013942                0.15025495               -0.50057318               -0.00017867                0.09077694               -0.00119084
               9.33487181                3.01928836               31.73512700                0.73141198                0.21399488                0.21428584               -0.71358900               -0.00030006                0.06842680               -0.00182808
              10.33733089                3.01739396               31.65561124                0.73924749                0.27780453                0.27843824               -0.92660192               -0.00026465                0.03751990               -0.00261623
              11.34042790                3.01548800               31.57577859                0.87279871                0.30970107                0.34253572               -1.13957374                0.00051627                0.01765698               -0.00358215
               1.33965293                4.03099174               32.36753313                0.87317058               -0.26356667               -0.29614968                0.98557731               -0.00070737                0.01316175                0.00705133
               2.33701726                4.02984457               32.28761374                0.73927980               -0.23169561               -0.23216505                0.77263766               -0.00014136                0.04238173                0.00429498
               3.33501901                4.02868280               32.20821102                0.73096946               -0.16795157               -0.16807912                0.55983849               -0.00018348                0.08151769                0.00264968
               4.33365823                4.02750801               32.12902308                0.72552117               -0.10415981               -0.10406553                0.34694833               -0.00013430                0.10051671                0.00146861
               5.33293582                4.02632042               32.04996554                0.72229978               -0.04029334               -0.04013232                0.13400819               -0.00010464                0.11065625                0.00057086
               6.33285236                4.02511985               31.97096208                0.72128128                0.02361272                0.02376571               -0.07896461               -0.00011308                0.11248601               -0.00025194
               7.33340807                4.02390604               31.89193934                0.72245576                0.08752509                0.08767511               -0.29196312               -0.00014606                0.10620157               -0.00115978
               8.33460286                4.02267884               31.81282491                0.72582815                0.15141983                0.15163572               -0.50498300               -0.00018898                0.09181365               -0.00229106
               9.33643647                4.02143831               31.73354564                0.73141737                0.21528593                0.21567057               -0.71801501               -0.00020576                0.06915792               -0.00376945
              10.33890858                4.02018489               31.65402584                0.73925618                0.27913161                0.27974820               -0.93103783               -0.00014576                0.03789695               -0.00569824
              11.34201910                4.01891933               31.57418558                0.87280404                0.31105192                0.34376688               -1.14401119                0.00058867                0.01783797               -0.00814519
               1.34047344                5.02803701               32.36595284                0.87316512               -0.26226678               -0.29482359                0.98123714               -0.00066408                0.01351835                0.01135501
               2.33785077                5.02752940               32.28601761                0.73927027               -0.23038787               -0.23086401                0.76829472               -0.00003577                0.04337034                0.00709413
               3.33586568                5.02700827               32.20661204                0.73096216               -0.16663441               -0.16679537                0.55549439               -0.00008625                0.08342619                0.00444928
               4.33451808                5.02647368               32.12742702                0.72551570               -0.10284483               -0.10277410                0.34259957               -0.00013810                0.10287266                0.00253183
               5.33380878                5.02592559               32.04837592                0.72229658               -0.03898509               -0.03882569                0.12965070               -0.00018273                0.11323509                0.00107702
               6.33373838                5.02536412               31.96938018                0.72128022                0.02491669                0.02508378               -0.08333428               -0.00020443                0.11506490               -0.00018791
               7.33430712                5.02478950               31.89036423                0.72245730                0.08882837                0.08900265               -0.29634678               -0.00019705                0.10857234               -0.00152771
               8.33551495                5.02420199               31.81125369                0.72583206                0.15272595                0.15297065               -0.50938056               -0.00016073                0.09378816               -0.00319288
               9.33736164                5.02360177               31.73197363                0.73142384                0.21660030                0.21700196               -0.72242436               -0.00010405                0.07057238               -0.00542140
              10.33984695                5.02298892               31.65244686                0.73926542                0.28045851                0.28106152               -0.93545519               -0.00004575                0.03863000               -0.00841948
              11.34297081                5.02236334               31.57259252                0.87280948                0.31238532                0.34506276               -1.14843237                0.00064285                0.01819806               -0.01232132
               1.34065487                6.02509527               32.36437329                0.87315984               -0.26095802               -0.29355517                0.97688663               -0.00061739                0.01403325                0.01460628
               2.33804529                6.02522729               32.28441556                0.73926151               -0.22909301               -0.22955033                0.76393787                0.00007463                0.04481736                0.00888337
               3.33607301                6.02534689               32.20500646                0.73095598               -0.16535711               -0.16544648                0.55113825                0.00001252                0.08622725                0.00548308
               4.33473815                6.02545253               32.12582635                0.72551254               -0.10156422               -0.10143219                0.33824209               -0.00014289                0.10634668                0.00309731
               5.33404172                6.02554391               32.04678553                0.72229611               -0.03768944               -0.03750352                0.12528893               -0.00025829                0.11706920                0.00134519
               6.33398436                6.02562153               31.96780224                0.72128223                0.02622708                0.02639260               -0.08770305               -0.00028985                0.11894486               -0.00014251
               7.33456626                6.02568609               31.88879782                0.72246137                0.09015135                0.09030176               -0.30072420               -0.00024304                0.11219167               -0.00170995
               8.33578738                6.02573825               31.80969487                0.72583813                0.15405933                0.15425980               -0.51376701               -0.00013171                0.09684707               -0.00370140
               9.33764745                6.02577835               31.73041548                0.73143169                0.21793571                0.21829315               -0.72681921               -0.00000081                0.07279071               -0.00647937
              10.34014610                6.02580612               31.65087984                0.73927504                0.28178385                0.28238208               -0.93985719                0.00005950                0.03978856               -0.01039326
              11.34328313                6.02582058               31.57100533                0.87281502                0.31370305                0.34641917               -1.15284066                0.00070241                0.01877457               -0.01569312
               1.34019704                7.02216591               32.36278239                0.87315466               -0.25964057               -0.29237964                0.97252300               -0.00054191                0.01477045                0.01638772
               2.33760064                7.02293839               32.28279612                0.73925303               -0.22781738               -0.22819568                0.75956460                0.00020307                0.04689423                0.00929770
               3.33564070                7.02369934               32.20338562                0.73095128               -0.16412142               -0.16401995                0.54676896                0.00006305                0.09021932                0.00551304
               4.33431821                7.02444504               32.12421560                0.72551157               -0.10030388               -0.10005996                0.33387574               -0.00021387                0.11124363                0.00305540
               5.33363462                7.02517552               32.04519180                0.72229836               -0.03639053               -0.03618429                0.12092327               -0.00035477                0.12243321                0.00132952
               6.33359040                7.02589197               31.96622827                0.72128705                0.02754590                0.02769165               -0.09207039               -0.00037310                0.12437787               -0.00010706
               7.33418554                7.02659554               31.88724259                0.72246826                0.09148313                0.09158480               -0.30509486               -0.00029779                0.11731353               -0.00163034
               8.33542006                7.02728718               31.80815354                0.72584637                0.15541040                0.15551468               -0.51814184               -0.00013434                0.10125194               -0.00363472
               9.33729374                7.02796763               31.72887890                0.73144088                0.21929221                0.21953471               -0.73119879                0.00008746                0.07604656               -0.00660444
              10.33980591                7.02863656               31.64933453                0.73928531                0.28310966                0.28369652               -0.94424268                0.00018909                0.04151352               -0.01113060
              11.34295594                7.02929172               31.56943451                0.87282074                0.31500317                0.34786451               -1.15723491                0.00079061                0.01964390               -0.01770528
               1.33909906                8.01924768               32.36116317                0.87314944               -0.25831406               -0.29141685                0.96814044               -0.00040465                0.01585936                0.01611033
               2.33651592                8.02066338               32.28114360                0.73924525               -0.22657175               -0.22667714                0.75516955                0.00027796                0.04989882                0.00776525
               3.33456763                8.02206650               32.20173847                0.73094833               -0.16291155               -0.16254561                0.54238325               -0.00008391                0.09587397                0.00439125
               4.33325769                8.02345133               32.12258845                0.72551336               -0.09899662               -0.09874274                0.32949887               -0.00036092                0.11797897                0.00240167
               5.33258769                8.02482022               32.04359196                0.72230398               -0.03504076               -0.03489237                0.11655306               -0.00043005                0.12964865                0.00104164
               6.33255687                8.02617536               31.96465841                0.72129566                0.02887032                0.02898429               -0.09643608               -0.00040299                0.13165616               -0.00007056
               7.33316510                8.02751779               31.88570165                0.72247852                0.09278657                0.09287758               -0.30945757               -0.00033404                0.12426809               -0.00126242
               8.33441260                8.02884854               31.80663643                0.72585746                0.15673601                0.15678422               -0.52250263               -0.00018564                0.10741257               -0.00289476
               9.33629982                8.03016904               31.72737518                0.73145179                0.22065932                0.22073025               -0.73555913                0.00008144                0.08076941               -0.00547870
              10.33882579                8.03148005               31.64782625                0.73929609                0.28444042                0.28493646               -0.94860623                0.00032272                0.04409325               -0.00991521
              11.34198863                8.03277787               31.56789711                0.87282634                0.31628367                0.34948768               -1.16160905                0.00093828                0.02097877               -0.01750475
               1.33735755                9.01633757               32.35949172                0.87314420               -0.25701673               -0.29089113                0.96372966               -0.00046936                0.01740692                0.01188345
               2.33478738                9.01840485               32.27943512                0.73923868               -0.22532387               -0.22487362                0.75074314                0.00000947                0.05445087                0.00400333
               3.33285107                9.02044843               32.20005340                0.73094842               -0.16150576               -0.16135136                0.53797616               -0.00031060                0.10405967                0.00238537
               4.33155726                9.02247018               32.12093935                0.72551897               -0.09745415               -0.09751106                0.32510829               -0.00041262                0.12701456                0.00129114
               5.33090198                9.02447767               32.04198368                0.72231398               -0.03362450               -0.03362928                0.11217649               -0.00033023                0.13900367                0.00055830
               6.33088477                9.02647166               31.96309288                0.72130856                0.03018446                0.03028268               -0.10080027               -0.00028814                0.14104526               -0.00003270
               7.33150567                9.02845309               31.88417799                0.72249296                0.09401627                0.09420331               -0.31381057               -0.00025316                0.13339495               -0.00067255
               8.33276510                9.03042287               31.80515060                0.72587219                0.15790929                0.15811977               -0.52684542               -0.00020871                0.11588071               -0.00158063
               9.33466386                9.03238224               31.72591835                0.73146550                0.22192140                0.22203954               -0.73989336               -0.00001869                0.08781351               -0.00310161
              10.33720353                9.03433529               31.64637907                0.73930811                0.28576029                0.28601594               -0.95293675                0.00028297                0.04820917               -0.00596242
              11.34037907                9.03628147               31.56642074                0.87283205                0.31755395                0.35145623               -1.16594967                0.00093980                0.02313559               -0.01277753
               1.33495511               10.01342985               32.35771316                0.93657061               -0.25498604               -0.29077177                0.95926816                0.03336224                0.02279252                0.01026437
               2.33240525               10.01616591               32.27764939                0.86961778               -0.22295165               -0.22389440                0.74627735                0.03226836                0.06302135                0.00301449
               3.33049608               10.01883947               32.19832472                0.86547520               -0.15925313               -0.16089580                0.53354240                0.03126143                0.11567369                0.00226252
               4.32922019               10.02150111               32.11926505                0.86276253               -0.09582348               -0.09690749                0.32069871                0.03170139                0.13856870                0.00126310
               5.32857961               10.02414764               32.04036573                0.86116155               -0.03222507               -0.03300329                0.10779030                0.03175807                0.15066352                0.00048086
               6.32857569               10.02678101               31.96153182                0.86065990                0.03146077                0.03093560               -0.10516380                0.03180266                0.15269311               -0.00022840
               7.32920883               10.02940186               31.88267339                0.86125260                0.09517973                0.09487648               -0.31815194                0.03181151                0.14492343               -0.00096450
               8.33047929               10.03201094               31.80370083                0.86294217                0.15890960                0.15880704               -0.53116517                0.03181744                0.12712883               -0.00184836
               9.33238702               10.03460983               31.72451971                0.86573829                0.22264642                0.22275942               -0.74419231                0.03178780                0.09848636               -0.00308856
              10.33493221               10.03720037               31.64502398                0.86965858                0.28640213                0.28650807               -0.95721676                0.03272709                0.05647554               -0.00507738
              11.33811506               10.03980700               31.56506878                0.93641808                0.31828490                0.35255243               -1.17022546                0.03426211                0.02937173               -0.01113059
               1.41107382                0.04449020               33.38385308                0.93658393               -0.26467584               -0.29852634                0.98988301               -0.03396639                0.01864611               -0.00486423
               2.40842706                0.04076506               33.30186699                0.86976101               -0.23320343               -0.23292606                0.77970266               -0.03211390                0.04389718               -0.00483952
               3.40640975                0.03706348               33.22031658                0.86566092               -0.17038928               -0.17035358                0.56964164               -0.03123537                0.08011044               -0.00229555
               4.40501927                0.03335084               33.13900199                0.86285823               -0.10764987               -0.10724238                0.35956636               -0.03143869                0.10071897               -0.00136323
               5.40425675                0.02962695               33.05782750                0.86119522               -0.04480422               -0.04419539                0.14947363               -0.03146651                0.11174507               -0.00062047
               6.40412319                0.02589010               32.97671370                0.86066426                0.01810712                0.01886953               -0.06063575               -0.03149199                0.11420525                0.00001185
               7.40461889                0.02213976               32.89558523                0.86126284                0.08103875                0.08193581               -0.27076395               -0.03149410                0.10837446                0.00060399
               8.40574396                0.01837538               32.81436819                0.86299262                0.14396102                0.14499359               -0.48091377               -0.03150224                0.09427896                0.00120524
               9.40749811                0.01459542               32.73298776                0.86585971                0.20688210                0.20810186               -0.69108567               -0.03143947                0.07171894                0.00187048
              10.40988161                0.01079893               32.65136604                0.86987556                0.26972721                0.27090619               -0.90127511               -0.03226391                0.04005353                0.00262635
              11.41289266                0.00696273               32.56941537                0.93656514                0.30110523                0.33635977               -1.11148067               -0.03234137                0.01962636                0.00425060
               1.41445930                1.04150494               33.38226041                0.87299141               -0.26400157               -0.29733633                0.98565005               -0.00082123                0.01540680               -0.00395845
               2.41181928                1.03843580               33.30025602                0.73914669               -0.23273958               -0.23248834                0.77546085               -0.00017894                0.04192277               -0.00499713
               3.40980450                1.03535994               33.21871279                0.73101147               -0.16980652               -0.16956364                0.56539547                0.00005952                0.07859402               -0.00242884
               4.40842315                1.03227842               33.13738912                0.72556341               -0.10660229               -0.10655378                0.35529853                0.00018912                0.09827699               -0.00132877
               5.40767246                1.02918500               33.05620352                0.72233518               -0.04356414               -0.04352700                0.14518250                0.00013471                0.10912251               -0.00069522
               6.40755187                1.02607879               32.97507734                0.72130759                0.01944256                0.01951809               -0.06495058                0.00009708                0.11147313               -0.00028368
               7.40806131                1.02295912               32.89393591                0.72247330                0.08246221                0.08256953               -0.27510272                0.00006640                0.10559021                0.00003229
               8.40920111                1.01982532               32.81270582                0.72583621                0.14553190                0.14562162               -0.48527694                0.00003108                0.09149139                0.00034946
               9.41097195                1.01667644               32.73131276                0.73141200                0.20871011                0.20869417               -0.69547350               -0.00017103                0.06896393                0.00076567
              10.41337531                1.01350799               32.64967909                0.73922843                0.27167496                0.27183772               -0.90568709               -0.00026037                0.03771214                0.00141215
              11.41640545                1.01032633               32.56772461                0.87278189                0.30301330                0.33642135               -1.11590078                0.00068714                0.01766637                0.00270891
               1.41719567                2.03854347               33.38060761                0.87281359               -0.26271990               -0.29529256                0.98140499               -0.00088587                0.01261970               -0.00291304
               2.41456847                2.03611529               33.29858089                0.73876872               -0.23136756               -0.23154491                0.77121587               -0.00035287                0.04144275               -0.00384962
               3.41256832                2.03367221               33.21706182                0.73069899               -0.16852362               -0.16822892                0.56117571               -0.00012624                0.07975577               -0.00236335
               4.41119800                2.03121976               33.13574905                0.72540846               -0.10546250               -0.10522165                0.35105939                0.00008991                0.09838129               -0.00130531
               5.41045907                2.02875641               33.05456675                0.72227847               -0.04234930               -0.04220721                0.14091111                0.00013331                0.10865683               -0.00072801
               6.41035101                2.02628046               32.97344038                0.72128568                0.02073119                0.02082145               -0.06925884                0.00009582                0.11073156               -0.00040977
               7.41087369                2.02379115               32.89229706                0.72242086                0.08381251                0.08386340               -0.27944960                0.00003266                0.10473374               -0.00023136
               8.41202726                2.02128782               32.81106484                0.72568828                0.14691646                0.14692436               -0.48966273               -0.00009362                0.09066063               -0.00009998
               9.41381202                2.01876930               32.72967078                0.73110696                0.20996241                0.21003976               -0.69989571               -0.00029728                0.06834115                0.00008085
              10.41622651                2.01623568               32.64803950                0.73870922                0.27288550                0.27346825               -0.91013534               -0.00041415                0.03746797                0.00044674
              11.41926973                2.01369115               32.56609189                0.87243571                0.30432208                0.33698719               -1.12034794                0.00036938                0.01762873                0.00104365
               1.41929794                3.03559909               33.37895823                0.87280820               -0.26144545               -0.29371879                0.97714194               -0.00076471                0.01296202                0.00195164
               2.41668349                3.03380490               33.29693212                0.73875870               -0.23002187               -0.23042698                0.76696005               -0.00025713                0.04184729                0.00084973
               3.41469751                3.03199537               33.21541525                0.73068888               -0.16713738               -0.16711084                0.55691947               -0.00023614                0.08044331                0.00028900
               4.41334074                3.03017398               33.13410914                0.72539852               -0.10415378               -0.10396915                0.34679436               -0.00006649                0.09915801                0.00012275
               5.41261443                3.02834086               33.05293119                0.72226942               -0.04108465               -0.04091346                0.13662596                0.00000610                0.10920093               -0.00005651
               6.41251905                3.02649522               32.97180715                0.72127840                0.02200871                0.02213176               -0.07356988               -0.00000404                0.11108513               -0.00032753
               7.41305460                3.02463639               32.89066472                0.72241631                0.08510184                0.08519133               -0.28378882               -0.00006845                0.10494402               -0.00071144
               8.41422108                3.02276381               32.80943231                0.72568742                0.14817652                0.14829122               -0.49402961               -0.00017716                0.09077246               -0.00122577
               9.41601813                3.02087723               32.72803750                0.73111037                0.21120473                0.21149275               -0.70428601               -0.00029656                0.06840313               -0.00187787
              10.41844518                3.01897736               32.64640537                0.73871702                0.27418788                0.27481394               -0.91453951               -0.00026129                0.03750064               -0.00267289
              11.42150189                3.01706607               32.56445676                0.87244089                0.30567130                0.33808088               -1.12475247                0.00050947                0.01763598               -0.00363467
               1.42076875                4.03266910               33.37732555                0.87280282               -0.26017007               -0.29233097                0.97286898               -0.00069809                0.01318067                0.00708953
               2.41816705                4.03150675               33.29529052                0.73874904               -0.22871184               -0.22917554                0.76268793               -0.00013974                0.04249072                0.00433183
               3.41619451                4.03032999               33.21377355                0.73068045               -0.16579345               -0.16591999                0.55264576               -0.00018142                0.08166671                0.00268473
               4.41485118                4.02914038               33.13247046                0.72539111               -0.10282794               -0.10273580                0.34251346               -0.00013293                0.10060632                0.00149730
               5.41413795                4.02793815               33.05129727                0.72226339               -0.03978881               -0.03963076                0.13233176               -0.00010382                0.11071084                0.00058827
               6.41405540                4.02672309               32.97017784                0.72127452                0.02328922                0.02343974               -0.07788211               -0.00011225                0.11251290               -0.00024983
               7.41460374                4.02549498               32.88903887                0.72241487                0.08637339                0.08652152               -0.28812126               -0.00014476                0.10620158               -0.00117485
               8.41578287                4.02425364               32.80780800                0.72568907                0.14944023                0.14965380               -0.49838166               -0.00018696                0.09178886               -0.00232288
               9.41759254                4.02299916               32.72641217                0.73111546                0.21247898                0.21285917               -0.70865408               -0.00020333                0.06911878               -0.00381507
              10.42003245                4.02173196               32.64477590                0.73872565                0.27549766                0.27610664               -0.91891739               -0.00014395                0.03786931               -0.00575254
              11.42310250                4.02045277               32.56281966                0.87244602                0.30700451                0.33929598               -1.12913180                0.00058092                0.01781262               -0.00820191
               1.42160867                5.02975247               33.37570214                0.87279767               -0.25888729               -0.29102239                0.96858600               -0.00065540                0.01353739                0.01140570
               2.41901980                5.02922139               33.29365125                0.73874002               -0.22742133               -0.22789163                0.75840221               -0.00003546                0.04348012                0.00713508
               3.41706025                5.02867697               33.21213142                0.73067333               -0.16449364               -0.16465308                0.54835882               -0.00008538                0.08357490                0.00448477
               4.41572993                5.02811927               33.13083119                0.72538598               -0.10153029               -0.10146131                0.33822190               -0.00013649                0.10295821                0.00255925
               5.41502964                5.02754824               33.04966436                0.72226034               -0.03849780               -0.03834127                0.12803159               -0.00018049                0.11328181                0.00109295
               6.41495997                5.02696402               32.96855253                0.72127355                0.02457604                0.02474050               -0.08219433               -0.00020188                0.11508121               -0.00018647
               7.41552116                5.02636682               32.88742021                0.72241622                0.08765956                0.08783162               -0.29244738               -0.00019459                0.10856084               -0.00154237
               8.41671316                5.02575688               32.80619309                0.72569300                0.15072925                0.15097116               -0.50272149               -0.00015875                0.09375279               -0.00322368
               9.41853575                5.02513442               32.72479635                0.73112179                0.21377617                0.21417304               -0.71300561               -0.00010284                0.07052547               -0.00546693
              10.42098869                5.02449949               32.64315303                0.73873452                0.27680721                0.27740273               -0.92327693               -0.00004527                0.03859845               -0.00847709
              11.42407189                5.02385199               32.56118268                0.87245129                0.30832046                0.34057488               -1.13349508                0.00063438                0.01817071               -0.01238838
               1.42181780                6.02684865               33.37407937                0.87279245               -0.25759577               -0.28977063                0.96429276               -0.00060935                0.01405351                0.01466773
               2.41924184                6.02694892               33.29200591                0.73873124               -0.22614354               -0.22659521                0.75410268                0.00007353                0.04493181                0.00892690
               3.41729493                6.02703693               33.21048256                0.73066744               -0.16323319               -0.16332194                0.54406001                0.00001216                0.08638311                0.00551906
               4.41597718                6.02711116               33.12918724                0.72538284               -0.10026654               -0.10013707                0.33392174               -0.00014109                0.10643677                0.00312429
               5.41528960                6.02717132               33.04803064                0.72225983               -0.03721919               -0.03703650                0.12372716               -0.00025473                0.11711752                0.00136058
               6.41523279                6.02721790               32.96693119                0.72127549                0.02586918                0.02603212               -0.08650567               -0.00028571                0.11896051               -0.00014111
               7.41580698                6.02725161               32.88581031                0.72242027                0.08896514                0.08911369               -0.29676729               -0.00023951                0.11217843               -0.00172412
               8.41701209                6.02727306               32.80459070                0.72569884                0.15204509                0.15224342               -0.50705035               -0.00012979                0.09680998               -0.00373160
               9.41884788                6.02728262               32.72319454                0.73112952                0.21509401                0.21544732               -0.71734277               -0.00000082                0.07274291               -0.00652546
              10.42131398                6.02728002               32.64154228                0.73874395                0.27811517                0.27870600               -0.92762128                0.00005860                0.03975707               -0.01045516
              11.42441018                6.02726427               32.55955169                0.87245672                0.30962096                0.34191357               -1.13784579                0.00069314                0.01874759               -0.01577166
               1.42139595                7.02395705               33.37244513                0.87278746               -0.25629569               -0.28861055                0.95998657               -0.00053487                0.01479343                0.01645565
               2.41883299                7.02468948               33.29034302                0.73872320               -0.22488477               -0.22525828                0.74978695                0.00020032                0.04701812                0.00933999
               3.41689825                7.02541053               33.20881832                0.73066280               -0.16201382               -0.16191421                0.53974825                0.00006205                0.09039082                0.00554734
               4.41559272                7.02611653               33.12753311                0.72538192               -0.09902278               -0.09878299                0.32961287               -0.00021099                0.11134761                0.00308092
               5.41491780                7.02680751               33.04639354                0.72226221               -0.03593735               -0.03573467                0.11941891               -0.00034959                0.12249302                0.00134418
               6.41487397                7.02748466               32.96531383                0.72128031                0.02717067                0.02731410               -0.09081561               -0.00036741                0.12440292               -0.00010543
               7.41546121                7.02814909               32.88421167                0.72242711                0.09027938                0.09037991               -0.30108053               -0.00029311                0.11730835               -0.00164324
               8.41667956                7.02880175               32.80300590                0.72570696                0.15337832                0.15348191               -0.51136770               -0.00013211                0.10122215               -0.00366296
               9.41852878                7.02944336               32.72161445                0.73113854                0.21643258                0.21667272               -0.72166473                0.00008641                0.07600503               -0.00664893
              10.42100821                7.03007361               32.63995340                0.73875377                0.27942352                0.28000328               -0.93194916                0.00018659                0.04148617               -0.01119366
              11.42411725                7.03069026               32.55793722                0.87246226                0.31090402                0.34333999               -1.14218259                0.00078027                0.01961961               -0.01779178
               1.42034224                8.02107644               33.37078236                0.87278241               -0.25498666               -0.28766048                0.95566153               -0.00039943                0.01588715                0.01617721
               2.41779237                8.02244375               33.28864684                0.73871565               -0.22365563               -0.22375937                0.74544962                0.00027406                0.05003821                0.00779870
               3.41586913                8.02379865               33.20712759                0.73066017               -0.16081996               -0.16045935                0.53542027               -0.00008319                0.09607138                0.00441958
               4.41457597                8.02513550               33.12586248                0.72538395               -0.09773271               -0.09748323                0.32529356               -0.00035598                0.11810740                0.00242326
               5.41391447                8.02645663               33.04475029                0.72226797               -0.03460535               -0.03445976                0.11510616               -0.00042360                0.12973073                0.00105423
               6.41388387                8.02776419               32.96370060                0.72128905                0.02847762                0.02858976               -0.09512391               -0.00039662                0.13170154               -0.00006876
               7.41448402                8.02905921               32.88262738                0.72243736                0.09156564                0.09165571               -0.30538586               -0.00032860                0.12428186               -0.00127268
               8.41571518                8.03034270               32.80144547                0.72571785                0.15468643                0.15473486               -0.51567117               -0.00018245                0.10740037               -0.00291799
               9.41757775                8.03161607               32.72006741                0.73114907                0.21778162                0.21785283               -0.72596795                0.00008069                0.08074286               -0.00551633
              10.42007081                8.03288008               32.63840177                0.73876439                0.28073675                0.28122718               -0.93625555                0.00031855                0.04407542               -0.00997135
              11.42319249                8.03413107               32.55635636                0.87246773                0.31216768                0.34494180               -1.14649925                0.00092607                0.02096031               -0.01758982
               1.41865333                9.01820384               33.36906709                0.87277734               -0.25370649               -0.28714201                0.95130868               -0.00046339                0.01744097                0.01193335
               2.41611627                9.02021430               33.28689439                0.73870930               -0.22242426               -0.22197881                0.74108126                0.00000836                0.05461386                0.00401895
               3.41420485                9.02220134               33.20539874                0.73066039               -0.15943262               -0.15928119                0.53107106               -0.00030714                0.10429662                0.00240243
               4.41292762                9.02416686               33.12416976                0.72538976               -0.09621058               -0.09626768                0.32096063               -0.00040700                0.12717973                0.00130445
               5.41228064                9.02611832               33.04309853                0.72227806               -0.03320796               -0.03321316                0.11078708               -0.00032518                0.13912030                0.00056620
               6.41226346                9.02805645               32.96209171                0.72130184                0.02977436                0.02987114               -0.09943074               -0.00028350                0.14112374               -0.00003131
               7.41287612                9.02998220               32.88106047                0.72245178                0.09277923                0.09296400               -0.30968164               -0.00024895                0.13344064               -0.00067843
               8.41411904                9.03189645               32.79991650                0.72573251                0.15584445                0.15605281               -0.51995689               -0.00020514                0.11589905               -0.00159442
               9.41599301                9.03380042               32.71856753                0.73116271                0.21902713                0.21914496               -0.73024525               -0.00001792                0.08781415               -0.00312440
              10.41849958                9.03569815               32.63691157                0.73877602                0.28203918                0.28229292               -0.94052927                0.00027946                0.04820906               -0.00599753
              11.42163380                9.03758910               32.55483687                0.87247320                0.31342123                0.34688443               -1.15078297                0.00092751                0.02312784               -0.01283910
               1.41631206               10.01533360               33.36724421                0.93638718               -0.25170223               -0.28702449                0.94690564                0.03293100                0.02284911                0.01031129
               2.41379504               10.01800418               33.28506429                0.86935323               -0.22008231               -0.22101199                0.73667390                0.03184858                0.06322480                0.00302776
               3.41191042               10.02061302               33.20362602                0.86533128               -0.15720926               -0.15883193                0.52669540                0.03085536                0.11596503                0.00227893
               4.41065086               10.02321014               33.12245166                0.86269795               -0.09460214               -0.09567192                0.31660891                0.03129128                0.13878390                0.00127482
               5.41001838               10.02579236               33.04143700                0.86114366               -0.03182748               -0.03259530                0.10645847                0.03134730                0.15082933                0.00048714
               6.41001431               10.02836161               32.96048730                0.86065656                0.03103369                0.03051551               -0.10373695                0.03139135                0.15282007               -0.00022826
               7.41063905               10.03091849               32.87951274                0.86123195                0.09392754                0.09362829               -0.31396598                0.03140015                0.14501701               -0.00097092
               8.41189286               10.03346376               32.79842381                0.86287222                0.15683205                0.15673098               -0.52421979                0.03140609                0.12719427               -0.00186174
               9.41377569               10.03599897               32.71712618                0.86558677                0.21974330                0.21985523               -0.73448744                0.03137696                0.09853261               -0.00310962
              10.41628772               10.03852594               32.63551396                0.86939256                0.28267298                0.28277884               -0.94475288                0.03230337                0.05651266               -0.00510792
              11.41942915               10.04106876               32.55344243                0.93623868                0.31414259                0.34796621               -1.15500278                0.03381721                0.02939387               -0.01118522
               1.49429756                0.04605535               34.39368703                0.93639771               -0.26119842               -0.29460240                0.97687038               -0.03351811                0.01870080               -0.00487183
               2.49168558                0.04234886               34.30961298                0.86948883               -0.23014148               -0.22986706                0.76946450               -0.03168945                0.04403139               -0.00483753
               3.48969473                0.03866563               34.22597579                0.86550966               -0.16815678               -0.16812173                0.56217659               -0.03082288                0.08031245               -0.00227965
               4.48832244                0.03497148               34.14257427                0.86278998               -0.10624579               -0.10584342                0.35487450               -0.03102409                0.10091617               -0.00135053
               5.48756981                0.03126622               34.05931267                0.86117595               -0.04422958               -0.04362863                0.14755512               -0.03105157                0.11193163               -0.00061249
               6.48743785                0.02754816               33.97611161                0.86066075                0.01785156                0.01860387               -0.05978068               -0.03107672                0.11437584                0.00001486
               7.48792685                0.02381680               33.89289569                0.86124159                0.07995270                0.08083772               -0.26713504               -0.03107880                0.10852193                0.00060183
               8.48903690                0.02007159               33.80959099                0.86292016                0.14204458                0.14306324               -0.47451080               -0.03108685                0.09439698                0.00119755
               9.49076774                0.01631100               33.72612267                0.86570261                0.20413530                0.20533860               -0.68190836               -0.03102488                0.07180488                0.00185717
              10.49311961                0.01253411               33.64241288                0.86959970                0.26615074                0.26731395               -0.88932330               -0.03183804                0.04010571                0.00260797
              11.49609075                0.00871806               33.55837399                0.93637910                0.29711438                0.33190348               -1.09675431               -0.03191397                0.01964886                0.00424327
               1.49766887                1.04310933               34.39205232                0.87262376               -0.26053342               -0.29342794                0.97269446               -0.00080967                0.01543668               -0.00394929
               2.49506354                1.04005019               34.30795987                0.73861257               -0.22968421               -0.22943568                0.76527979               -0.00017626                0.04203443               -0.00497876
               3.49307519                1.03698442               34.22432981                0.73071757               -0.16758170               -0.16734245                0.55798754                0.00005853                0.07876712               -0.00238643
               4.49171190                1.03391305               34.14091901                0.72543077               -0.10521154               -0.10516435                0.35066399                0.00018603                0.09843574               -0.00129318
               5.49097096                1.03082994               34.05764607                0.72229802               -0.04300558               -0.04296940                0.14332153                0.00013201                0.10926952               -0.00067348
               6.49085179                1.02773420               33.97443239                0.72130075                0.01916933                0.01924367               -0.06403770                0.00009478                0.11160375               -0.00027815
               7.49135434                1.02462518               33.89120327                0.72243200                0.08135703                0.08146302               -0.27141575                0.00006452                0.10569725                0.00002069
               8.49247893                1.02150222               33.80788527                0.72569548                0.14359408                0.14368305               -0.47881564                0.00002977                0.09156856                0.00032044
               9.49422623                1.01836439               33.72440408                0.73110630                0.20593820                0.20592328               -0.68623762               -0.00016947                0.06900903                0.00072049
              10.49659770                1.01520725               33.64068211                0.73869147                0.26807196                0.26823345               -0.89367646               -0.00025689                0.03773155                0.00135636
              11.49958766                1.01203709               33.55663932                0.87241963                0.29899677                0.33196385               -1.10111545                0.00067875                0.01766393                0.00266393
               1.50039965                2.04018679               34.39035736                0.87245084               -0.25926891               -0.29141128                0.96850675               -0.00087391                0.01263855               -0.00289620
               2.49780696                2.03776014               34.30624258                0.73824516               -0.22833043               -0.22850553                0.76109213               -0.00034834                0.04155581               -0.00382030
               3.49583304                2.03531879               34.22263693                0.73041367               -0.16631589               -0.16602574                0.55382486               -0.00012495                0.07992041               -0.00231275
               4.49448064                2.03286819               34.13923683                0.72527999               -0.10408695               -0.10385035                0.34648196                0.00008792                0.09850291               -0.00125977
               5.49375130                2.03040684               34.05596687                0.72224248               -0.04180684               -0.04166751                0.13910749                0.00013034                0.10875799               -0.00069943
               6.49364450                2.02793304               33.97275263                0.72127906                0.02044081                0.02052948               -0.06828823                0.00009314                0.11081307               -0.00040320
               7.49416012                2.02544606               33.88952125                0.72238047                0.08268922                0.08273965               -0.27570452                0.00003085                0.10479055               -0.00024867
               8.49529829                2.02294525               33.80620072                0.72555161                0.14495999                0.14496855               -0.48314287               -0.00009353                0.09068858               -0.00014100
               9.49705932                2.02042947               33.72271817                0.73080980                0.20717363                0.20725111               -0.69060095               -0.00029404                0.06834339                0.00001952
              10.49944176                2.01789878               33.63899833                0.73818678                0.26926631                0.26984236               -0.89806565               -0.00040888                0.03746310                0.00037517
              11.50244464                2.01535734               33.55496244                0.87208316                0.30028810                0.33252200               -1.10550343                0.00036435                0.01761539                0.00098204
               1.50250469                3.03728110               34.38866563                0.87244570               -0.25801157               -0.28985881                0.96430110               -0.00075441                0.01298155                0.00197712
               2.49992458                3.03548007               34.30455154                0.73823527               -0.22700276               -0.22740280                0.75689363               -0.00025390                0.04195715                0.00088332
               3.49796464                3.03366390               34.22094809                0.73040392               -0.16494819               -0.16492267                0.54962580               -0.00023343                0.08059669                0.00032579
               4.49662561                3.03183604               34.13755455                0.72527028               -0.10279576               -0.10261456                0.34227414               -0.00006622                0.09925851                0.00015598
               5.49590872                3.02999659               34.05428875                0.72223368               -0.04055911               -0.04039109                0.13487980                0.00000510                0.10927238               -0.00003548
               6.49581443                3.02814479               33.97107659                0.72127172                0.02170126                0.02182224               -0.07254155               -0.00000507                0.11113289               -0.00032386
               7.49634275                3.02627997               33.88784580                0.72237601                0.08396131                0.08404979               -0.27998568               -0.00006859                0.10496611               -0.00072719
               8.49749366                3.02440159               33.80452482                0.72555058                0.14620324                0.14631708               -0.48745140               -0.00017568                0.09076786               -0.00126031
               9.49926681                3.02250941               33.72104128                0.73081309                0.20839953                0.20868453               -0.69493271               -0.00029311                0.06837955               -0.00192734
              10.50166165                3.02060410               33.63732045                0.73819447                0.27055148                0.27116979               -0.90241118               -0.00025798                0.03748128               -0.00272931
              11.50467784                3.01868754               33.55328354                0.87208821                0.30161942                0.33360148               -1.10984944                0.00050261                0.01761470               -0.00368700
               1.50398661                4.03438962               34.38699051                0.87244051               -0.25675331               -0.28848972                0.96008553               -0.00068875                0.01319914                0.00712739
               2.50141908                4.03321209               34.30286750                0.73822591               -0.22571030               -0.22616819                0.75267890               -0.00013807                0.04259826                0.00436818
               3.49947241                4.03202033               34.21926393                0.73039545               -0.16362229               -0.16374776                0.54540951               -0.00017936                0.08181375                0.00271928
               4.49814663                4.03081590               34.13587335                0.72526309               -0.10148772               -0.10139769                0.33805067               -0.00013162                0.10069461                0.00152571
               5.49744265                4.02959901               34.05261217                0.72222781               -0.03928064               -0.03912552                0.13064315               -0.00010303                0.11076454                0.00060551
               6.49736102                4.02836948               33.96940444                0.72126794                0.02296461                0.02311272               -0.07679605               -0.00011140                0.11253938               -0.00024774
               7.49790194                4.02712706               33.88617691                0.72237464                0.08521585                0.08536214               -0.28426009               -0.00014345                0.10620154               -0.00118983
               8.49906534                4.02587159               33.80285728                0.72555204                0.14745013                0.14766135               -0.49174525               -0.00018496                0.09176406               -0.00235439
               9.50085095                4.02460316               33.71937256                0.73081795                0.20965689                0.21003258               -0.69924264               -0.00020094                0.06907975               -0.00386027
              10.50325847                4.02332218               33.63564749                0.73820257                0.27184391                0.27244520               -0.90673090               -0.00014220                0.03784177               -0.00580644
              11.50628782                4.02202937               33.55160295                0.87209325                0.30293495                0.33480052               -1.11417068                0.00057310                0.01778735               -0.00825792
               1.50484598                5.03151131               34.38532456                0.87243537               -0.25548772               -0.28719873                0.95586006               -0.00064669                0.01355599                0.01145578
               2.50229110                5.03095671               34.30118566                0.73821706               -0.22443709               -0.22490151                0.74845065               -0.00003520                0.04358849                0.00717549
               3.50035723                5.03038895               34.21757922                0.73038862               -0.16233995               -0.16249782                0.54118013               -0.00008455                0.08372184                0.00451988
               4.49904430                5.02980809               34.13419145                0.72525796               -0.10020751               -0.10014025                0.33381673               -0.00013495                0.10304257                0.00258634
               5.49835308                5.02921408               34.05093655                0.72222458               -0.03800694               -0.03785329                0.12640060               -0.00017833                0.11332777                0.00110867
               6.49828416                5.02860705               33.96773629                0.72126689                0.02423421                0.02439607               -0.08105052               -0.00019941                0.11509721               -0.00018502
               7.49883777                5.02798721               33.88451528                0.72237586                0.08648485                0.08665470               -0.28852836               -0.00019218                0.10854941               -0.00155692
               8.50001386                5.02735482               33.80119926                0.72555586                0.14872194                0.14896105               -0.49602706               -0.00015676                0.09371767               -0.00325415
               9.50181221                5.02671006               33.71771352                0.73082417                0.21093677                0.21132881               -0.70353592               -0.00010158                0.07047882               -0.00551184
              10.50423259                5.02605300               33.63398132                0.73821133                0.27313599                0.27372394               -0.91103222               -0.00004477                0.03856719               -0.00853405
              11.50727493                5.02538355               33.54992262                0.87209836                0.30423335                0.33606231               -1.11847566                0.00062581                0.01814384               -0.01245471
               1.50508287                6.02864564               34.38365914                0.87243041               -0.25421355               -0.28596374                0.95162446               -0.00060129                0.01407348                0.01472864
               2.50254073                6.02871406               34.29949761                0.73820876               -0.22317647               -0.22362246                0.74420880                0.00007235                0.04504490                0.00897010
               3.50061934                6.02877038               34.21588766                0.73038299               -0.16109641               -0.16118450                0.53693887                0.00001174                0.08653704                0.00555478
               4.49931880                6.02881310               34.13250479                0.72525508               -0.09896070               -0.09883375                0.32957412               -0.00013929                0.10652556                0.00315098
               5.49864012                6.02884195               34.04926007                0.72222423               -0.03674548               -0.03656601                0.12215385               -0.00025120                0.11716513                0.00137582
               6.49858389                6.02885740               33.96607213                0.72126880                0.02551004                0.02567040               -0.08530415               -0.00028165                0.11897593               -0.00013974
               7.49915033                6.02886015               33.88286247                0.72237988                0.08777296                0.08791965               -0.29279049               -0.00023607                0.11216530               -0.00173813
               8.50033935                6.02885081               33.79955386                0.72556153                0.15002017                0.15021634               -0.50029804               -0.00012793                0.09677326               -0.00376149
               9.50215073                6.02882973               33.71606862                0.73083173                0.21223695                0.21258606               -0.70781497               -0.00000083                0.07269540               -0.00657099
              10.50458409                6.02879666               33.63232741                0.73822045                0.27442641                0.27500975               -0.91531827                0.00005774                0.03972574               -0.01051637
              11.50763926                6.02875061               33.54824841                0.87210358                0.30551639                0.33738306               -1.12276810                0.00068382                0.01872092               -0.01584964
               1.50469712                7.02579203               34.38198212                0.87242555               -0.25293092               -0.28481918                0.94737600               -0.00052785                0.01481614                0.01652289
               2.50216781                7.02648426               34.29779186                0.73820095               -0.22193463               -0.22230334                0.73995086                0.00019746                0.04714056                0.00938180
               3.50025843                7.02716526               34.21418059                0.73037866               -0.15989341               -0.15979563                0.53268484                0.00006098                0.09056017                0.00558128
               4.49896994                7.02783141               34.13080785                0.72525435               -0.09773359               -0.09749788                0.32532295               -0.00020815                0.11145007                0.00310622
               5.49830376                7.02848276               34.04758017                0.72222662               -0.03548082               -0.03528166                0.11790330               -0.00034448                0.12255194                0.00135869
               6.49826033                7.02912045               33.96441196                0.72127377                0.02679406                0.02693522               -0.08955638               -0.00036183                0.12442763               -0.00010382
               7.49883964                7.02974561               33.88122098                0.72238650                0.08906955                0.08916897               -0.29704602               -0.00028854                0.11730323               -0.00165595
               8.50004172                7.03035915               33.79792618                0.72556957                0.15133547                0.15143838               -0.50455764               -0.00012993                0.10119270               -0.00369089
               9.50186635                7.03096178               33.71444561                0.73084033                0.21355751                0.21379525               -0.71207922                0.00008534                0.07596385               -0.00669302
              10.50431287                7.03155320               33.63069554                0.73823006                0.27571724                0.27628981               -0.91958844                0.00018402                0.04145885               -0.01125612
              11.50738069                7.03213121               33.54659086                0.87210891                0.30678234                0.33879049               -1.12704717                0.00076983                0.01959523               -0.01787761
               1.50368785                8.02294926               34.38027640                0.87242054               -0.25163951               -0.28388194                0.94310902               -0.00039417                0.01591450                0.01624327
               2.50117146                8.02426799               34.29605259                0.73819369               -0.22072208               -0.22082418                0.73567158                0.00027011                0.05017599                0.00783167
               3.49927341                8.02557446               34.21244687                0.73037610               -0.15871563               -0.15836034                0.52841478               -0.00008251                0.09626650                0.00444757
               4.49799714                8.02686314               34.12909433                0.72525634               -0.09646081               -0.09621568                0.32106156               -0.00035111                0.11823415                0.00244457
               5.49734419                8.02813631               34.04589409                0.72223252               -0.03416671               -0.03402383                0.11364831               -0.00041728                0.12981169                0.00106667
               6.49731381                8.02939611               33.96275593                0.72128230                0.02808346                0.02819382               -0.09380699               -0.00039038                0.13174643               -0.00006696
               7.49790586                8.03064353               33.87959393                0.72239672                0.09033857                0.09042772               -0.30129372               -0.00032327                0.12429552               -0.00128276
               8.49912058                8.03187958               33.79632301                0.72558028                0.15262601                0.15267465               -0.50880356               -0.00017929                0.10738821               -0.00294092
               9.50095838                8.03310564               33.71285582                0.73085100                0.21488836                0.21495982               -0.71632484                0.00007995                0.08071637               -0.00555368
              10.50341835                8.03432245               33.62910113                0.73824033                0.27701280                0.27749760               -0.92383726                0.00031430                0.04405751               -0.01002707
              11.50649864                8.03552642               33.54496713                0.87211423                0.30802908                0.34037093               -1.13130630                0.00091370                0.02094175               -0.01767401
               1.50205177                9.02011439               34.37851789                0.87241574               -0.25037661               -0.28337074                0.93881434               -0.00045731                0.01747458                0.01198268
               2.49954801                9.02206778               34.29425675                0.73818741               -0.21950732               -0.21906677                0.73136167                0.00000737                0.05477507                0.00403439
               3.49766163                9.02399805               34.21067482                0.73037656               -0.15734688               -0.15719837                0.52412389               -0.00030365                0.10453083                0.00241937
               4.49640107                9.02590710               34.12735856                0.72526220               -0.09495915               -0.09501637                0.31678667               -0.00040145                0.12734280                0.00131759
               5.49576244                9.02780228               34.04419943                0.72224262               -0.03278826               -0.03279384                0.10938706               -0.00032021                0.13923553                0.00057399
               6.49574530                9.02968433               33.96110426                0.72129525                0.02936272                0.02945809               -0.09805617               -0.00027893                0.14120140               -0.00002994
               7.49634970                9.03155416               33.87798435                0.72241107                0.09153597                0.09171845               -0.30553195               -0.00024482                0.13348590               -0.00068425
               8.49757602                9.03341264               33.79475147                0.72559477                0.15376871                0.15397489               -0.51303189               -0.00020166                0.11591705               -0.00160802
               9.49942507                9.03526098               33.71131345                0.73086423                0.21611723                0.21623465               -0.72054487               -0.00001719                0.08781452               -0.00314684
              10.50189837                9.03710315               33.62756849                0.73825172                0.27829766                0.27854944               -0.92805371                0.00027600                0.04820883               -0.00603224
              11.50499102                9.03893863               33.54340508                0.87211961                0.30926575                0.34228743               -1.13553268                0.00091520                0.02312018               -0.01290013
               1.49977193               10.01728184               34.37665127                0.93620643               -0.24839889               -0.28325503                0.93446987                0.03249729                0.02290494                0.01035774
               2.49728794               10.01988665               34.29238287                0.86909236               -0.21719585               -0.21811244                0.72701311                0.03142656                0.06342606                0.00304088
               3.49542802               10.02243050               34.20885863                0.86518938               -0.15515297               -0.15675547                0.51980683                0.03044703                0.11625310                0.00229529
               4.49418489               10.02496281               34.12559723                0.86263426               -0.09337302               -0.09442847                0.31249313                0.03087877                0.13899639                0.00128649
               5.49356056               10.02748044               34.04249490                0.86112596               -0.03142678               -0.03218417                0.10511637                0.03093413                0.15099316                0.00049333
               6.49355635               10.02998527               33.95945708                0.86065327                0.03060500                0.03009387               -0.10230471                0.03097766                0.15294565               -0.00022813
               7.49417266               10.03247790               33.87639407                0.86121156                0.09266900                0.09237383               -0.30975892                0.03098639                0.14510965               -0.00097732
               8.49540973               10.03495908               33.79321643                0.86280342                0.15474348                0.15464390               -0.51723763                0.03099230                0.12725904               -0.00187494
               9.49726753               10.03743033               33.70982997                0.86543750                0.21682449                0.21693530               -0.72473015                0.03096367                0.09857816               -0.00313014
              10.49974622               10.03989344               33.62612892                0.86913021                0.27892338                0.27902908               -0.93222075                0.03187728                0.05654894               -0.00513802
              11.50284599               10.04237217               33.54196873                0.93606171                0.30997743                0.34335462               -1.13969590                0.03336988                0.02941516               -0.01123979
               1.57959594                0.04766218               35.40339049                0.93621408               -0.25770094               -0.29065591                0.96378300               -0.03306735                0.01875478               -0.00487923
               2.57701893                0.04397452               35.31725628                0.86922051               -0.22706174               -0.22679034                0.75916690               -0.03126265                0.04416405               -0.00483539
               3.57505471                0.04030984               35.23156012                0.86536057               -0.16591106               -0.16587669                0.55466750               -0.03040809                0.08051211               -0.00226387
               4.57370071                0.03663435               35.14609948                0.86272270               -0.10483308               -0.10443589                0.35015397               -0.03060712                0.10111101               -0.00133793
               5.57295805                0.03294791               35.06077860                0.86115713               -0.04365095               -0.04305795                0.14562343               -0.03063427                0.11211597               -0.00060458
               6.57282769                0.02924883               34.97551808                0.86065734                0.01759531                0.01833748               -0.05892327               -0.03065912                0.11454443                0.00001781
               7.57330995                0.02553663               34.89024252                0.86122070                0.07886131                0.07973425               -0.26348831               -0.03066116                0.10866765                0.00059971
               8.57440492                0.02181077               34.80487798                0.86284889                0.14011819                0.14112283               -0.46807454               -0.03066910                0.09451365                0.00119005
               9.57611232                0.01806974               34.71934960                0.86554770                0.20137389                0.20256060               -0.67268231               -0.03060795                0.07188990                0.00184396
              10.57843240                0.01431265               34.63357957                0.86932794                0.26255502                0.26370232               -0.87730719               -0.03140980                0.04015723                0.00258976
              11.58136342                0.01051693               34.54748028                0.93619586                0.29310195                0.32742293               -1.08194795               -0.03148421                0.01967088                0.00423621
               1.58295293                1.04475563               35.40171430                0.87226153               -0.25704521               -0.28949701                0.95966419               -0.00079808                0.01546613               -0.00394000
               2.58038248                1.04170662               35.31556162                0.73808625               -0.22661104               -0.22636527                0.75503947               -0.00017355                0.04214472               -0.00496042
               3.57842071                1.03865107               35.22987254                0.73042807               -0.16534369               -0.16510808                0.55053572                0.00005761                0.07893814               -0.00234436
               4.57707561                1.03558999               35.14440240                0.72530026               -0.10381226               -0.10376637                0.34600100                0.00018303                0.09859256               -0.00125787
               5.57634447                1.03251733               35.05906995                0.72226135               -0.04244317               -0.04240791                0.14144769                0.00012936                0.10941473               -0.00065196
               6.57622674                1.02943220               34.97379658                0.72129404                0.01889530                0.01896848               -0.06312222                0.00009252                0.11173282               -0.00027270
               7.57672237                1.02633397               34.88850759                0.72239119                0.08024642                0.08035109               -0.26771070                0.00006269                0.10580303                0.00000918
               8.57783167                1.02322199               34.80312951                0.72555682                0.14164621                0.14173439               -0.47232075                0.00002850                0.09164478                0.00029180
               9.57955530                1.02009535               34.71758801                0.73080519                0.20315159                0.20313761               -0.67695263               -0.00016791                0.06905362                0.00067571
              10.58189470                1.01694967               34.63180556                0.73816231                0.26444959                0.26460975               -0.88160118               -0.00025347                0.03775077                0.00130086
              11.58484429                1.01379116               34.54570230                0.87206283                0.29495852                0.32748218               -1.08624989                0.00067023                0.01766148                0.00261930
               1.58567799                2.04187224               35.39997775                0.87209346               -0.25579788               -0.28750753                0.95553386               -0.00086190                0.01265696               -0.00287937
               2.58312002                2.03944722               35.31380274                0.73772917               -0.22527556               -0.22544838                0.75090920               -0.00034372                0.04166746               -0.00379115
               3.58117248                2.03700768               35.22813832                0.73013271               -0.16409502               -0.16380943                0.54643020               -0.00012356                0.08008305               -0.00226260
               4.57983812                2.03455903               35.14267869                0.72515342               -0.10270297               -0.10247057                0.34187632                0.00008597                0.09862291               -0.00121469
               5.57911842                2.03209975               35.05734890                0.72220717               -0.04126064               -0.04112401                0.13729130                0.00012738                0.10885778               -0.00067115
               6.57901290                2.02962820               34.97207461                0.72127252                0.02014953                0.02023666               -0.06731475                0.00009051                0.11089353               -0.00039669
               7.57952141                2.02714365               34.88678297                0.72234096                0.08156042                0.08161037               -0.27194105                0.00002909                0.10484667               -0.00026586
               8.58064411                2.02464545               34.80140198                0.72541680                0.14299334                0.14300257               -0.47658915               -0.00009340                0.09071610               -0.00018159
               9.58238128                2.02213249               34.71585876                0.73051720                0.20437002                0.20444764               -0.68125677               -0.00029080                0.06834530               -0.00004118
              10.58473151                2.01960484               34.63007819                0.73767202                0.26562769                0.26619701               -0.88593116               -0.00040364                0.03745816                0.00030412
              11.58769384                2.01706658               34.54398183                0.87173588                0.29623241                0.32803274               -1.09057884                0.00035928                0.01760235                0.00092098
               1.58778575                3.03900547               35.39824425                0.87208844               -0.25455770               -0.28597644                0.95138583               -0.00074404                0.01300076                0.00200227
               2.58524017                3.03719765               35.31207000                0.73771953               -0.22396599               -0.22436089                0.74676826               -0.00025060                0.04206565                0.00091662
               3.58330643                3.03537488               35.22640777                0.73012286               -0.16274601               -0.16272148                0.54228878               -0.00023065                0.08074815                0.00036231
               4.58198525                3.03354058               35.14095462                0.72514377               -0.10142942               -0.10125162                0.33772616               -0.00006598                0.09935764                0.00018878
               5.58127784                3.03169485               35.05562878                0.72219825               -0.04002990               -0.03986500                0.13312136                0.00000407                0.10934284               -0.00001474
               6.58118465                3.02983694               34.97035632                0.72126521                0.02139283                0.02151177               -0.07151001               -0.00000612                0.11117993               -0.00032022
               7.58170570                3.02796618               34.88506500                0.72233633                0.08281518                0.08290263               -0.27616386               -0.00006872                0.10498788               -0.00074271
               8.58284096                3.02608205               34.79968328                0.72541566                0.14421969                0.14433268               -0.48083902               -0.00017409                0.09076329               -0.00129445
               9.58459009                3.02418430               34.71413885                0.73052015                0.20557940                0.20586139               -0.68552971               -0.00028959                0.06835602               -0.00197627
              10.58695255                3.02227361               34.62835714                0.73767940                0.26689555                0.26750608               -0.89021775               -0.00025466                0.03746210               -0.00278510
              11.58992800                3.02035182               34.54225977                0.87174079                0.29754570                0.32909784               -1.09486587                0.00049566                0.01759396               -0.00373891
               1.58927876                4.03615272               35.39652726                0.87208343               -0.25331660               -0.28462616                0.94722786               -0.00067935                0.01321757                0.00716496
               2.58674560                4.03496000               35.31034409                0.73771052               -0.22269117               -0.22314320                0.74261119               -0.00013639                0.04270467                0.00440431
               3.58482494                4.03375325               35.22468174                0.73011495               -0.16143826               -0.16156257                0.53813017               -0.00017729                0.08195892                0.00275370
               4.58351683                4.03253399               35.13923147                0.72513669               -0.10013931               -0.10005127                0.33356037               -0.00013028                0.10078151                0.00155384
               5.58282215                4.03130245               35.05391013                0.72219247               -0.03876892               -0.03861666                0.12894254               -0.00010225                0.11081748                0.00062252
               6.58274145                4.03005843               34.96864192                0.72126129                0.02263897                0.02278465               -0.07570646               -0.00011058                0.11256554               -0.00024569
               7.58327493                4.02880170               34.88335367                0.72233477                0.08405269                0.08419706               -0.28038002               -0.00014215                0.10620150               -0.00120454
               8.58442251                4.02753211               34.79797310                0.72541718                0.14544970                0.14565851               -0.48507432               -0.00018293                0.09173941               -0.00238552
               9.58618393                4.02624972               34.71242732                0.73052499                0.20681972                0.20719087               -0.68978080               -0.00019850                0.06904086               -0.00390501
              10.58855890                4.02495496               34.62664128                0.73768743                0.26817044                0.26876398               -0.89447861               -0.00014046                0.03781431               -0.00585986
              11.59154733                4.02364853               34.54053625                0.87174559                0.29884339                0.33028059               -1.09912839                0.00056515                0.01776214               -0.00831379
               1.59015760                5.03331295               35.39481934                0.87207847               -0.25206835               -0.28335288                0.94306027               -0.00063791                0.01357452                0.01150555
               2.58763691                5.03273479               35.30862026                0.73770201               -0.22143537               -0.22189385                0.73844079               -0.00003495                0.04369574                0.00721560
               3.58572889                5.03214363               35.22295502                0.73010825               -0.16017343               -0.16032966                0.53395852               -0.00008375                0.08386681                0.00455461
               4.58443344                5.03153956               35.13750753                0.72513177               -0.09887661               -0.09881097                0.32938424               -0.00013344                0.10312547                0.00261317
               5.58375136                5.03092251               35.05219237                0.72218955               -0.03751264               -0.03736177                0.12475793               -0.00017620                0.11337299                0.00112426
               6.58368319                5.03029263               34.96693152                0.72126028                0.02389124                0.02405051               -0.07990293               -0.00019694                0.11511301               -0.00018363
               7.58422918                5.02965012               34.88164964                0.72233617                0.08530438                0.08547198               -0.28459004               -0.00018980                0.10853812               -0.00157132
               8.58538928                5.02899522               34.79627255                0.72542054                0.14670421                0.14694045               -0.48929781               -0.00015488                0.09368282               -0.00328432
               9.58716327                5.02832812               34.71072563                0.73053090                0.20808222                0.20846938               -0.69401570               -0.00010040                0.07043236               -0.00555624
              10.58955092                5.02764889               34.62493239                0.73769571                0.26944497                0.27002528               -0.89872140               -0.00004427                0.03853587               -0.00859034
              11.59255216                5.02695743               34.53881317                0.87175051                0.30012414                0.33152527               -1.10337498                0.00061724                0.01811686               -0.01252040
               1.59042233                6.03048566               35.39311186                0.87207358               -0.25081164               -0.28213479                0.93888270               -0.00059317                0.01409320                0.01478886
               2.58791422                6.03052212               35.30689008                0.73769374               -0.22019203               -0.22063228                0.73425698                0.00007115                0.04515665                0.00901269
               3.58601849                6.03054665               35.22122134                0.73010251               -0.15894692               -0.15903430                0.52977533                0.00001124                0.08668896                0.00558988
               4.58473528                6.03055777               35.13577872                0.72512890               -0.09764682               -0.09752236                0.32519966               -0.00013763                0.10661304                0.00317729
               5.58406556                6.03055521               35.05047372                0.72218914               -0.03626836               -0.03609208                0.12056913               -0.00024776                0.11721200                0.00139087
               6.58400991                6.03053944               34.96522510                0.72126223                0.02514965                0.02530746               -0.08409854               -0.00027763                0.11899111               -0.00013839
               7.58456855                6.03051114               34.87995450                0.72233977                0.08657489                0.08671971               -0.28879411               -0.00023269                0.11215234               -0.00175202
               8.58574141                6.03047092               34.79458473                0.72542635                0.14798471                0.14817870               -0.49351062               -0.00012617                0.09673688               -0.00379108
               9.58752824                6.03041911               34.70903824                0.73053814                0.20936467                0.20970961               -0.69823656               -0.00000089                0.07264831               -0.00661612
              10.58992870                6.03035547               34.62323591                0.73770459                0.27071784                0.27129367               -0.90294924                0.00005696                0.03969457               -0.01057694
              11.59294260                6.03027904               34.53709633                0.87175561                0.30138976                0.33282809               -1.10760912                0.00067459                0.01869432               -0.01592673
               1.59007281                7.02767026               35.39139265                0.87206882               -0.24954661               -0.28100584                0.93469232               -0.00052074                0.01483853                0.01658946
               2.58757734                7.02832214               35.30514204                0.73768613               -0.21896725               -0.21933109                0.73005722                0.00019459                0.04726156                0.00942311
               3.58569346                7.02896295               35.21947201                0.73009851               -0.15776042               -0.15766441                0.52557940                0.00005983                0.09072743                0.00561478
               4.58442213                7.02958911               35.13403957                0.72512826               -0.09643644               -0.09620479                0.32100649               -0.00020536                0.11155117                0.00313122
               5.58376473                7.03020067               35.04875160                0.72219175               -0.03502093               -0.03482530                0.11637657               -0.00033941                0.12261008                0.00137302
               6.58372171                7.03079878               34.96352270                0.72126734                0.02641614                0.02655502               -0.08829274               -0.00035629                0.12445200               -0.00010223
               7.58429305                7.03138451               34.87827075                0.72234657                0.08785374                0.08795205               -0.29299161               -0.00028403                0.11729818               -0.00166859
               8.58547879                7.03195879               34.79291474                0.72543399                0.14928200                0.14938422               -0.49771223               -0.00012779                0.10116344               -0.00371858
               9.58727869                7.03252231               34.70737287                0.73054655                0.21066721                0.21090252               -0.70244287                0.00008426                0.07592286               -0.00673665
              10.58969213                7.03307476               34.62156163                0.73771407                0.27199106                0.27255640               -0.90716137                0.00018155                0.04143169               -0.01131803
              11.59271852                7.03361399               34.53539627                0.87176087                0.30263842                0.33421633               -1.11182970                0.00075942                0.01957113               -0.01796269
               1.58910815                8.02486554               35.38964454                0.87206414               -0.24827288               -0.28008144                0.93048355               -0.00038890                0.01594129                0.01630875
               2.58662542                8.02613550               35.30336027                0.73767920               -0.21777138               -0.21787179                0.72583631                0.00026616                0.05031207                0.00786442
               3.58475272                8.02739337               35.21769589                0.73009626               -0.15659878               -0.15624878                0.52136757               -0.00008179                0.09645921                0.00447537
               4.58349344                8.02863368               35.13228371                0.72513071               -0.09518101               -0.09494019                0.31680316               -0.00034620                0.11835920                0.00246577
               5.58284910                8.02985871               35.04702325                0.72219762               -0.03372480               -0.03358463                0.11217961               -0.00041094                0.12989156                0.00107900
               6.58281895                8.03107054               34.96182446                0.72127577                0.02768788                0.02779648               -0.09248537               -0.00038417                0.13179071               -0.00006520
               7.58340286                8.03227018               34.87660151                0.72235658                0.08910543                0.08919367               -0.29718140               -0.00031796                0.12430902               -0.00129278
               8.58460106                8.03345860               34.79126940                0.72544481                0.15055489                0.15060371               -0.50190027               -0.00017612                0.10737622               -0.00296370
               9.58641396                8.03463716               34.70574092                0.73055691                0.21197978                0.21205141               -0.70663057                0.00007918                0.08069006               -0.00559052
              10.58884065                8.03580660               34.61992502                0.73772394                0.27326887                0.27374794               -0.91135226                0.00030999                0.04403953               -0.01008206
              11.59187933                8.03696337               34.53373024                0.87176609                0.30386812                0.33577524               -1.11603082                0.00090125                0.02092313               -0.01775748
               1.58752511                9.02206863               35.38784338                0.87205942               -0.24702726               -0.27957752                0.92624728               -0.00045126                0.01750767                0.01203130
               2.58505484                9.02396471               35.30152162                0.73767342               -0.21657324               -0.21613764                0.72158498                0.00000637                0.05493437                0.00404972
               3.58319365                9.02583797               35.21588122                0.73009677               -0.15524867               -0.15510304                0.51713519               -0.00030007                0.10476223                0.00243627
               4.58194986                9.02769031               35.13050550                0.72513660               -0.09369992               -0.09375721                0.31258664               -0.00039581                0.12750372                0.00133064
               5.58131965                9.02952898               35.04528627                0.72220770               -0.03236542               -0.03237132                0.10797649               -0.00031525                0.13934922                0.00058173
               6.58130256                9.03135471               34.96013059                0.72128874                0.02894958                0.02904355               -0.09667660               -0.00027439                0.14127810               -0.00002857
               7.58189864                9.03316838               34.87494983                0.72237110                0.09028657                0.09046677               -0.30136183               -0.00024070                0.13353063               -0.00069000
               8.58310829                9.03497086               34.78965586                0.72545905                0.15168214                0.15188614               -0.50607085               -0.00019818                0.11593491               -0.00162152
               9.58493228                9.03676334               34.70415663                0.73057012                0.21319184                0.21330882               -0.71079285               -0.00001645                0.08781487               -0.00316917
              10.58737212                9.03854972               34.61835050                0.73773511                0.27453608                0.27478579               -0.91551112                0.00027250                0.04820824               -0.00606670
              11.59042300                9.04032950               34.53212622                0.87177115                0.30508789                0.33766556               -1.12019984                0.00090278                0.02311203               -0.01296050
               1.58530697               10.01927399               35.38593361                0.93602825               -0.24507623               -0.27946362                0.92196182                0.03206107                0.02296039                0.01040332
               2.58285620               10.02181275               35.29960455                0.86883537               -0.21429242               -0.21519586                0.71729548                0.03100221                0.06362518                0.00305389
               3.58102112               10.02429130               35.21402215                0.86504967               -0.15308436               -0.15466649                0.51287688                0.03003649                0.11653770                0.00231162
               4.57979452               10.02675853               35.12870152                0.86257156               -0.09213620               -0.09317724                0.30835167                0.03046396                0.13920614                0.00129797
               5.57917839               10.02921128               35.04353933                0.86110864               -0.03102304               -0.03176989                0.10376405                0.03051862                0.15115497                0.00049949
               6.57917406               10.03165142               34.95844121                0.86064994                0.03017472                0.02967070               -0.10086719                0.03056161                0.15306972               -0.00022795
               7.57978189               10.03407952               34.87331756                0.86119152                0.09140423                0.09111316               -0.30553101                0.03057027                0.14520117               -0.00098361
               8.58100214               10.03649632               34.78807906                0.86273546                0.15264402                0.15254595               -0.51021914                0.03057613                0.12732297               -0.00188798
               9.58283477               10.03890334               34.70263158                0.86529033                0.21389014                0.21399981               -0.71492110                0.03054808                0.09862304               -0.00315076
              10.58527994               10.04130231               34.61686954                0.86887182                0.27515360                0.27525910               -0.91962115                0.03144889                0.05658477               -0.00516815
              11.58833784               10.04371668               34.53064851                0.93588752                0.30578974                0.33871812               -1.12430593                0.03292006                0.02943639               -0.01129344
               1.66694106                0.04931013               36.41296269                0.93603330               -0.25418353               -0.28668697                0.95062123               -0.03261410                0.01880786               -0.00488677
               2.66439922                0.04564148               36.32479632                0.86895614               -0.22396439               -0.22369604                0.74881041               -0.03083351                0.04429502               -0.00483339
               3.66246177                0.04199552               36.23706914                0.86521372               -0.16365230               -0.16361860                0.54711479               -0.02999104                0.08070929               -0.00224839
               4.66112618                0.03833888               36.14957735                0.86265610               -0.10341192               -0.10301993                0.34540519               -0.03018788                0.10130342               -0.00132554
               5.66039353                0.03467143               36.06222514                0.86113848               -0.04306844               -0.04248343                0.14367878               -0.03021466                0.11229810               -0.00059674
               6.66026481                0.03099151               35.97493314                0.86065386                0.01733840                0.01807037               -0.05806361               -0.03023919                0.11471105                0.00002073
               7.66074030                0.02729866               35.88762592                0.86120005                0.07776468                0.07862547               -0.25982406               -0.03024120                0.10881171                0.00059755
               8.66182010                0.02359233               35.80022950                0.86277857                0.13818194                0.13917249               -0.46160536               -0.03024904                0.09462890                0.00118253
               9.66350394                0.01987105               35.71266902                0.86539505                0.19859807                0.19976812               -0.66340810               -0.03018872                0.07197383                0.00183105
              10.66579206                0.01613394               35.62486674                0.86906015                0.25894032                0.26007164               -0.86522766               -0.03097922                0.04020823                0.00257177
              11.66868275                0.01235875               35.53673504                0.93601538                0.28906822                0.32291849               -1.06706268               -0.03105209                0.01969293                0.00422892
               1.67028357                1.04644326               36.41124561                0.87190458               -0.25353708               -0.28554375                0.94655987               -0.00078649                0.01549512               -0.00393091
               2.66774820                1.04340452               36.32306066                0.73756770               -0.22352026               -0.22327729                0.74474049               -0.00017084                0.04225363               -0.00494228
               3.66581316                1.04035933               36.23534053                0.73014250               -0.16309270               -0.16286071                0.54304063                0.00005666                0.07910700               -0.00230278
               4.66448634                1.03730868               36.14783903                0.72517146               -0.10240460               -0.10235997                0.34131006                0.00018001                0.09874743               -0.00122300
               5.66376507                1.03424660               36.06047502                0.72222542               -0.04187694               -0.04184259                0.13956113                0.00012677                0.10955822               -0.00063065
               6.66364880                1.03117222               35.97316995                0.72128731                0.01862052                0.01869252               -0.06220418                0.00009032                0.11186033               -0.00026732
               7.66413748                1.02808491               35.88584906                0.72235117                0.07913045                0.07923380               -0.26398779                0.00006089                0.10590756               -0.00000218
               8.66523141                1.02498406               35.79843886                0.72541999                0.13968838                0.13977576               -0.46579269                0.00002727                0.09172016                0.00026341
               9.66693125                1.02186874               35.71086503                0.73050837                0.20035044                0.20033741               -0.66761924               -0.00016627                0.06909764                0.00063152
              10.66923842                1.01873466               35.62305008                0.73764102                0.26080812                0.26096689               -0.86946219               -0.00025009                0.03776966                0.00124601
              11.67214741                1.01558794               35.53491433                0.87171129                0.29089887                0.32297665               -1.07130520                0.00066154                0.01765906                0.00257481
               1.67300281                2.04359926               36.40946804                0.87174134               -0.25230703               -0.28358158                0.94248719               -0.00084986                0.01267526               -0.00286260
               2.67047974                2.04117594               36.32126077                0.73722084               -0.22220318               -0.22237366                0.74066789               -0.00033912                0.04177778               -0.00376219
               3.66855875                2.03873830               36.23356554                0.72985592               -0.16186127               -0.16158017                0.53899249               -0.00012217                0.08024361               -0.00221278
               4.66724251                2.03629168               36.14607435                0.72502871               -0.10131065               -0.10108242                0.33724288                0.00008409                0.09874135               -0.00116997
               5.66653253                2.03383458               36.05871270                0.72217227               -0.04071069               -0.04057673                0.13546261                0.00012450                0.10895632               -0.00064319
               6.66642830                2.03136536               35.97140634                0.72126592                0.01985740                0.01994300               -0.06633843                0.00008794                0.11097300               -0.00039028
               7.66692968                2.02888333               35.88408243                0.72230179                0.08042617                0.08047563               -0.26815940                0.00002739                0.10490211               -0.00028279
               8.66803682                2.02638785               35.79666894                0.72528412                0.14101666                0.14102653               -0.47000196               -0.00009319                0.09074331               -0.00022173
               9.66975001                2.02387780               35.70909304                0.73022886                0.20155176                0.20162946               -0.67186373               -0.00028746                0.06834715               -0.00010133
              10.67206786                2.02135328               35.62127971                0.73716494                0.26196982                0.26253234               -0.87373242               -0.00039840                0.03745294                0.00023368
              11.67498941                2.01881829               35.53315086                0.87139382                0.29215519                0.32351962               -1.07557491                0.00035410                0.01758891                0.00086012
               1.67511321                3.04077163               36.40769335                0.87173650               -0.25108411               -0.28207198                0.93839708               -0.00073365                0.01301977                0.00202737
               2.67260237                3.03895705               36.31948691                0.73721155               -0.22091177               -0.22130148                0.73658472               -0.00024733                0.04217291                0.00094970
               3.67069498                3.03712773               36.23179386                0.72984617               -0.16053097               -0.16050737                0.53490883               -0.00022785                0.08089768                0.00039854
               4.66939175                3.03528703               36.14430907                0.72501912               -0.10005485               -0.09988037                0.33315062               -0.00006566                0.09945527                0.00022134
               5.66869388                3.03343506               36.05695117                0.72216344               -0.03949708               -0.03933524                0.13135073                0.00000309                0.10941227                0.00000579
               6.66860181                3.03157108               35.96964639                0.72125874                0.02108345                0.02120037               -0.07047536               -0.00000710                0.11122642               -0.00031664
               7.66911555                3.02969442               35.88232252                0.72229725                0.08166352                0.08174992               -0.27232355               -0.00006880                0.10500937               -0.00075814
               8.67023508                3.02780459               35.79490804                0.72528269                0.14222603                0.14233810               -0.47419282               -0.00017250                0.09075859               -0.00132821
               9.67196007                3.02590132               35.70733069                0.73023157                0.20274451                0.20302343               -0.67607747               -0.00028604                0.06833253               -0.00202464
              10.67428997                3.02398530               35.61951610                0.73717215                0.26322026                0.26382296               -0.87795974               -0.00025122                0.03744276               -0.00284040
              11.67722447                3.02205833               35.53138623                0.87139851                0.29345037                0.32457025               -1.07980272                0.00048877                0.01757289               -0.00379036
               1.67661730                4.03795782               36.40593507                0.87173153               -0.24986033               -0.28074066                0.93429723               -0.00066989                0.01323572                0.00720217
               2.67411870                4.03674991               36.31771972                0.73720258               -0.21965472               -0.22010084                0.73248570               -0.00013469                0.04280974                0.00444001
               3.67222421                4.03552816               36.23002654                0.72983825               -0.15924144               -0.15936458                0.53080827               -0.00017524                0.08210221                0.00278749
               4.67093387                4.03429407               36.14254456                0.72501226               -0.09878272               -0.09869669                0.32904293               -0.00012898                0.10086718                0.00158158
               5.67024855                4.03304787               36.05519102                0.72215794               -0.03825362               -0.03810422                0.12723006               -0.00010143                0.11086962                0.00063936
               6.67016880                4.03178937               35.96789031                0.72125493                0.02231228                0.02245556               -0.07461346               -0.00010972                0.11259124               -0.00024368
               7.67069480                4.03051833               35.88056931                0.72229570                0.08288384                0.08302633               -0.27648113               -0.00014081                0.10620142               -0.00121918
               8.67182647                4.02923461               35.79315579                0.72528403                0.14343902                0.14364542               -0.47836933               -0.00018091                0.09171514               -0.00241633
               9.67356358                4.02793827               35.70557694                0.73023602                0.20396778                0.20433432               -0.68026974               -0.00019606                0.06900229               -0.00394919
              10.67590583                4.02662974               35.61775792                0.73717986                0.26447756                0.26506328               -0.88216154               -0.00013860                0.03778680               -0.00591259
              11.67885313                4.02530969               35.52962038                0.87140322                0.29473005                0.32573654               -1.08400578                0.00055729                0.01773697               -0.00836892
               1.67751563                5.03515682               36.40418576                0.87172678               -0.24862946               -0.27948515                0.93018767               -0.00062907                0.01359269                0.01155482
               2.67502934                5.03455503               36.31595447                0.73719430               -0.21841645               -0.21886890                0.72837345               -0.00003462                0.04380147                0.00725527
               3.67314730                5.03394044               36.22825839                0.72983172               -0.15799427               -0.15814880                0.52669474               -0.00008293                0.08400993                0.00458900
               4.67186945                5.03331310               36.14077914                0.72500761               -0.09753760               -0.09747358                0.32492484               -0.00013193                0.10320735                0.00263972
               5.67119655                5.03267298               36.05343171                0.72215483               -0.03701482               -0.03686675                0.12310360               -0.00017405                0.11341752                0.00113963
               6.67112916                5.03202019               35.96613824                0.72125398                0.02354713                0.02370382               -0.07875157               -0.00019449                0.11512851               -0.00018226
               7.67166750                5.03135495               35.87882348                0.72229684                0.08411817                0.08428353               -0.28063268               -0.00018743                0.10852694               -0.00158554
               8.67281152                5.03067749               35.79141331                0.72528748                0.14467616                0.14490952               -0.48253416               -0.00015296                0.09364838               -0.00331416
               9.67456102                5.02998801               35.70383320                0.73024189                0.20521280                0.20559504               -0.68444583               -0.00009921                0.07038638               -0.00560033
              10.67691578                5.02928657               35.61600689                0.73718786                0.26573446                0.26630707               -0.88634557               -0.00004381                0.03850467               -0.00864623
              11.67987571                5.02857306               35.52785512                0.87140795                0.29599311                0.32696398               -1.08819365                0.00060865                0.01808983               -0.01258563
               1.67780829                6.03236812               36.40243680                0.87172215               -0.24739024               -0.27828398                0.92606819               -0.00058499                0.01411259                0.01484861
               2.67533439                6.03237253               36.31418275                0.73718651               -0.21719042               -0.21762486                0.72424783                0.00007003                0.04526702                0.00905505
               3.67346448                6.03236518               36.22648317                0.72982655               -0.15678486               -0.15687147                0.52256978                0.00001084                0.08683897                0.00562495
               4.67219869                6.03234460               36.13900878                0.72500469               -0.09632495               -0.09620292                0.32079849               -0.00013590                0.10669918                0.00320344
               5.67153798                6.03231054               36.05167146                0.72215454               -0.03578787               -0.03561473                0.11897307               -0.00024433                0.11725811                0.00140575
               6.67148293                6.03226345               35.96439016                0.72125589                0.02478804                0.02494330               -0.08288886               -0.00027364                0.11900603               -0.00013703
               7.67203374                6.03220400               35.87708659                0.72230051                0.08537102                0.08551396               -0.28477837               -0.00022932                0.11213952               -0.00176578
               8.67319035                6.03213280               35.78968365                0.72529291                0.14593885                0.14613063               -0.48668855               -0.00012437                0.09670088               -0.00382040
               9.67495252                6.03205017               35.70210389                0.73024891                0.20647742                0.20681809               -0.68860815               -0.00000093                0.07260146               -0.00666088
              10.67731990                6.03195588               35.61426843                0.73719655                0.26698970                0.26755792               -0.89051494                0.00005608                0.03966331               -0.01063709
              11.68029231                6.03184897               35.52609623                0.87141298                0.29724126                0.32824883               -1.09236932                0.00066519                0.01866750               -0.01600301
               1.67749510                7.02959114               36.40067597                0.87171757               -0.24614284               -0.27717071                0.92193614               -0.00051361                0.01486057                0.01665528
               2.67503368                7.03020254               36.31239300                0.73717914               -0.21598275               -0.21634168                0.72010653                0.00019176                0.04738108                0.00946407
               3.67317545                7.03080301               36.22469218                0.72982240               -0.15561492               -0.15552068                0.51843231                0.00005875                0.09089251                0.00564799
               4.67192138                7.03138904               36.13722798                0.72500429               -0.09513141               -0.09490378                0.31666372               -0.00020258                0.11165071                0.00315589
               5.67127282                7.03196068               36.04990771                0.72215706               -0.03455779               -0.03436561                0.11483884               -0.00033438                0.12266733                0.00138720
               6.67123022                7.03251905               35.96264611                0.72126073                0.02603691                0.02617354               -0.08702480               -0.00035080                0.12447603               -0.00010064
               7.67179356                7.03306523               35.87536115                0.72230727                0.08663206                0.08672921               -0.28891754               -0.00027953                0.11729314               -0.00168106
               8.67296286                7.03360011               35.78797194                0.72530059                0.14721806                0.14731953               -0.49083185               -0.00012568                0.10113446               -0.00374600
               9.67473792                7.03412437               35.70039675                0.73025734                0.20776179                0.20799460               -0.69275607                0.00008318                0.07588215               -0.00677995
              10.67711810                7.03463773               35.61255231                0.73720560                0.26824518                0.26880322               -0.89466851                0.00017903                0.04140467               -0.01137934
              11.68010282                7.03513804               35.52435427                0.87141804                0.29847255                0.32961787               -1.09653139                0.00074891                0.01954724               -0.01804663
               1.67657522                8.02682470               36.39888607                0.87171301               -0.24488682               -0.27625918                0.91778569               -0.00038364                0.01596792                0.01637327
               2.67412635                8.02804570               36.31056932                0.73717256               -0.21480360               -0.21490232                0.71594415                0.00026215                0.05044660                0.00789660
               3.67227915                8.02925477               36.22287422                0.72982058               -0.15446954               -0.15412478                0.51427899               -0.00008110                0.09664941                0.00450279
               4.67103696                8.03044653               36.13543039                0.72500661               -0.09389346               -0.09365686                0.31251877               -0.00034130                0.11848247                0.00248664
               5.67040128                8.03162323               36.04813768                0.72216305               -0.03327972               -0.03314221                0.11070021               -0.00040462                0.12997042                0.00109117
               6.67037137                8.03278692               35.96090622                0.72126923                0.02729093                0.02739776               -0.09115916               -0.00037799                0.13183449               -0.00006346
               7.67094710                8.03393859               35.87365030                0.72231720                0.08786633                0.08795361               -0.29304911               -0.00031268                0.12432233               -0.00130270
               8.67212869                8.03507919               35.78628500                0.72531101                0.14847319                0.14852215               -0.49496167               -0.00017302                0.10736418               -0.00298616
               9.67391656                8.03621006               35.69872321                0.73026731                0.20905602                0.20912779               -0.69688572                0.00007839                0.08066378               -0.00562700
              10.67630982                8.03733194               35.61087409                0.73721532                0.26950517                0.26997844               -0.89880132                0.00030579                0.04402170               -0.01013664
              11.67930667                8.03844133               35.52264651                0.87142306                0.29968513                0.33115509               -1.10067422                0.00088886                0.02090494               -0.01784028
               1.67504544                9.02406595               36.39704283                0.87170833               -0.24365863               -0.27576258                0.91360829               -0.00044521                0.01754045                0.01207942
               2.67260885                9.02590449               36.30868845                0.73716697               -0.21362218               -0.21319158                0.71175172                0.00000529                0.05509194                0.00406470
               3.67077300                9.02772051               36.22101752                0.72982126               -0.15313813               -0.15299530                0.51010525               -0.00029653                0.10499080                0.00245289
               4.66954609                9.02951590               36.13361030                0.72501289               -0.09243301               -0.09249027                0.30836078               -0.00039016                0.12766245                0.00134364
               5.66892434                9.03129784               36.04635896                0.72217331               -0.03193947               -0.03194566                0.10655550               -0.00031024                0.13946147                0.00058939
               6.66890730                9.03306701               35.95917073                0.72128231                0.02853495                0.02862756               -0.09529212               -0.00026983                0.14135389               -0.00002725
               7.66949504                9.03482430               35.87195712                0.72233144                0.08903107                0.08920901               -0.29717147               -0.00023662                0.13357490               -0.00069567
               8.67068792                9.03657055               35.78463005                0.72532530                0.14958494                0.14978671               -0.49907430               -0.00019470                0.11595251               -0.00163482
               9.67248673                9.03830693               35.69709759                0.73028031                0.21025127                0.21036774               -0.70099015               -0.00001570                0.08781483               -0.00319120
              10.67489295                9.04003730               35.60925826                0.73722628                0.27075465                0.27100223               -0.90290235                0.00026897                0.04820737               -0.00610070
              11.67790183                9.04176114               35.52100109                0.87142799                0.30088784                0.33301901               -1.10478510                0.00089029                0.02310393               -0.01302043
               1.67288925               10.02130945               36.39509051                0.93585284               -0.24173450               -0.27565054                0.90938241                0.03162242                0.02301489                0.01044866
               2.67047190               10.02378186               36.30672878                0.86858238               -0.21137220               -0.21226245                0.70752166                0.03057551                0.06382191                0.00306664
               3.66866180               10.02619486               36.21911617                0.86491193               -0.15100353               -0.15256512                0.50590603                0.02962367                0.11681902                0.00232764
               4.66745183               10.02859672               36.13176427                0.86250965               -0.09089172               -0.09191826                0.30418462                0.03004685                0.13941321                0.00130957
               5.66684397               10.03098431               36.04457018                0.86109128               -0.03061626               -0.03135250                0.10240154                0.03010084                0.15131462                0.00050563
               6.66683951               10.03335947               35.95743974                0.86064678                0.02974284                0.02924602               -0.09942446                0.03014328                0.15319237               -0.00022783
               7.66743883               10.03572277               35.87028345                0.86117178                0.09013328                0.08984641               -0.30128264                0.03015183                0.14529172               -0.00098972
               8.66864217               10.03807492               35.78301205                0.86266863                0.15053385                0.15043729               -0.50316486                0.03015770                0.12738607               -0.00190090
               9.67044950               10.04041742               35.69553154                0.86514538                0.21094047                0.21104898               -0.70506073                0.03013021                0.09866722               -0.00317114
              10.67286098               10.04275199               35.60773650                0.86861734                0.27136390                0.27146915               -0.90695489                0.03101798                0.05661994               -0.00519761
              11.67587678               10.04510171               35.51948261                0.93571584                0.30157989                0.33405686               -1.10883402                0.03246774                0.02945697               -0.01134660
               1.75630485                0.05099862               37.42240291                0.93585519               -0.25064631               -0.28269581                0.93738577               -0.03215836                0.01886049               -0.00489399
               2.75379839                0.04734917               37.33223249                0.86869581               -0.22084953               -0.22058428                0.73839540               -0.03040212                0.04442445               -0.00483138
               3.75188786                0.04372209               37.24250241                0.86506893               -0.16138063               -0.16134755                0.53951891               -0.02957175                0.08090407               -0.00223294
               4.75057078                0.04008448               37.15300759                0.86259076               -0.10198236               -0.10159560                0.34062844               -0.02976635                0.10149349               -0.00131323
               5.74984821                0.03643621               37.06365217                0.86112013               -0.04248205               -0.04190506                0.14172122               -0.02979279                0.11247794               -0.00058907
               6.74972114                0.03277563               36.97435681                0.86065062                0.01708081                0.01780254               -0.05720171               -0.02981697                0.11487556                0.00002361
               7.75018983                0.02910230               36.88504604                0.86117972                0.07666282                0.07751144               -0.25614244               -0.02981896                0.10895400                0.00059550
               8.75125439                0.02541570               36.79564587                0.86270930                0.13623594                0.13721240               -0.45510380               -0.02982669                0.09474277                0.00117513
               9.75291455                0.02171435               36.70608143                0.86524480                0.19580793                0.19696129               -0.65408626               -0.02976719                0.07205672                0.00181811
              10.75517055                0.01799740               36.61627502                0.86879628                0.25530682                0.25642209               -0.85308546               -0.03054628                0.04025865                0.00255396
              11.75802069                0.01424293               36.52613903                0.93583753                0.28501353                0.31839060               -1.05209997               -0.03061771                0.01971481                0.00422166
               1.75963273                1.04817166               37.42064550                0.87155296               -0.25000928               -0.28156842                0.93338236               -0.00077482                0.01552378               -0.00392169
               2.75713263                1.04514332               37.33045642                0.73705692               -0.22041205               -0.22017190                0.73438347               -0.00016820                0.04236126               -0.00492425
               3.75522448                1.04210862               37.24073335                0.72986158               -0.16082882               -0.16060044                0.53550266                0.00005565                0.07927383               -0.00226154
               4.75391606                1.03906853               37.15122860                0.72504466               -0.10098865               -0.10094524                0.33659142                0.00017697                0.09890032               -0.00118850
               5.75320471                1.03601716               37.06186117                0.72218995               -0.04130695               -0.04127348                0.13766194                0.00012417                0.10969981               -0.00060965
               6.75308992                1.03295366               36.97255250                0.72128090                0.01834497                0.01841581               -0.06128361                0.00008816                0.11198623               -0.00026200
               7.75357161                1.02987742               36.88322784                0.72231165                0.07800919                0.07811119               -0.26024721                0.00005918                0.10601080               -0.00001341
               8.75465010                1.02678782               36.79381365                0.72528553                0.13772072                0.13780728               -0.45923185                0.00002610                0.09179449                0.00023535
               9.75632602                1.02368396               36.70423562                0.73021616                0.19753490                0.19752278               -0.65823787               -0.00016461                0.06914106                0.00058779
              10.75860080                1.02056162               36.61441631                0.73712768                0.25714772                0.25730506               -0.85726012               -0.00024655                0.03778844                0.00119165
              11.76146898                1.01742684               36.52427619                0.87136502                0.28681807                0.31844755               -1.05628243                0.00065292                0.01765678                0.00253051
               1.76234604                2.04536725               37.41882749                0.87139453               -0.24879667               -0.27963378                0.92936779               -0.00083775                0.01269322               -0.00284586
               2.75985807                2.04294573               37.32861609                0.73672012               -0.21911351               -0.21928164                0.73036896               -0.00033451                0.04188676               -0.00373348
               3.75796377                2.04051008               37.23891817                0.72958299               -0.15961472               -0.15933813                0.53151228               -0.00012082                0.08040215               -0.00216360
               4.75666578                2.03806558               37.14942355                0.72490585               -0.09991011               -0.09968601                0.33258205                0.00008218                0.09885813               -0.00112584
               5.75596557                2.03561074               37.06005815                0.72213787               -0.04015705               -0.04002575                0.13362157                0.00012166                0.10905351               -0.00061555
               6.75586264                2.03314395               36.97074784                0.72125958                0.01956445                0.01964849               -0.06535928                0.00008543                0.11105143               -0.00038394
               7.75635686                2.03066453               36.88141979                0.72226356                0.07928653                0.07933549               -0.26435979                0.00002578                0.10495681               -0.00029959
               8.75744837                2.02817184               36.79200194                0.72515334                0.13903002                0.13904048               -0.46338149               -0.00009292                0.09077010               -0.00026140
               9.75913746                2.02566481               36.70242149                0.72994467                0.19871907                0.19879675               -0.66242250               -0.00028409                0.06834881               -0.00016062
              10.76142275                2.02314350               36.61260354                0.73666568                0.25829300                0.25884853               -0.86147035               -0.00039306                0.03744758                0.00016400
              11.76430332                2.02061188               36.52247033                0.87105698                0.28805671                0.31898271               -1.06049206                0.00034898                0.01757538                0.00079970
               1.76445902                3.04257899               37.41701219                0.87138978               -0.24759106               -0.27814571                0.92533576               -0.00072321                0.01303844                0.00205233
               2.76198311                3.04075769               37.32680169                0.73671096               -0.21784038               -0.21822481                0.72634382               -0.00024401                0.04227874                0.00098250
               3.76010222                3.03892185               37.23710594                0.72957367               -0.15830326               -0.15828054                0.52748662               -0.00022503                0.08104529                0.00043439
               4.75881705                3.03707481               37.14761763                0.72489645               -0.09867210               -0.09850094                0.32854787               -0.00006534                0.09955164                0.00025355
               5.75812877                3.03521664               37.05825580                0.72212915               -0.03896060               -0.03880184                0.12956804                0.00000216                0.10948076                0.00002607
               6.75803783                3.03334663               36.96894681                0.72125252                0.02077315                0.02088805               -0.06943761               -0.00000805                0.11127223               -0.00031310
               7.75854424                3.03146413               36.87961853                0.72225864                0.08050637                0.08059174               -0.26846501               -0.00006888                0.10503057               -0.00077330
               8.75964796                3.02956863               36.79019942                0.72515183                0.14022232                0.14033345               -0.46751315               -0.00017090                0.09075402               -0.00136151
               9.76134868                3.02765990               36.70061730                0.72994736                0.19989509                0.20017086               -0.66657668               -0.00028245                0.06830920               -0.00207262
              10.76364586                3.02573859               36.61079795                0.73667245                0.25952592                0.26012064               -0.86563804               -0.00024786                0.03742338               -0.00289512
              11.76653920                3.02380649               36.52066371                0.87106148                0.28933369                0.32001887               -1.06466044                0.00048176                0.01755178               -0.00384109
               1.76597417                4.03980434               37.41521321                0.87138506               -0.24638464               -0.27683340                0.92129420               -0.00066039                0.01325348                0.00723913
               2.76351033                4.03858123               37.32499381                0.73670247               -0.21660114               -0.21704126                0.72230308               -0.00013298                0.04291346                0.00447557
               3.76164215                4.03734447               37.23529790                0.72956594               -0.15703203               -0.15715395                0.52344434               -0.00017312                0.08224364                0.00282131
               4.76036968                4.03609556               37.14581233                0.72488972               -0.09741806               -0.09733398                0.32449844               -0.00012764                0.10095151                0.00160910
               5.75969379                4.03483470               37.05645473                0.72212342               -0.03773481               -0.03758822                0.12550576               -0.00010062                0.11092091                0.00065594
               6.75961499                4.03356171               36.96714965                0.72124856                0.02198455                0.02212546               -0.07351707               -0.00010886                0.11261665               -0.00024167
               7.76013348                4.03227636               36.87782404                0.72225700                0.08170944                0.08185005               -0.27256370               -0.00013950                0.10620135               -0.00123358
               8.76124918                4.03097851               36.78840571                0.72515298                0.14141826                0.14162223               -0.47163069               -0.00017889                0.09169087               -0.00244673
               9.76296184                4.02966822               36.69882192                0.72995162                0.20110120                0.20146310               -0.67070987               -0.00019359                0.06896395               -0.00399303
              10.76527120                4.02834591               36.60899805                0.73667975                0.26076556                0.26134341               -0.86978072               -0.00013677                0.03775973               -0.00596499
              11.76817716                4.02701226               36.51885613                0.87106598                0.29059540                0.32116885               -1.06880454                0.00054936                0.01771231               -0.00842353
               1.76689203                5.03704232               37.41342310                0.87138030               -0.24517128               -0.27559578                0.91724314               -0.00062022                0.01361071                0.01160348
               2.76444032                5.03641686               37.32318773                0.73669451               -0.21538046               -0.21582685                0.71824929               -0.00003433                0.04390608                0.00729457
               3.76258442                5.03577878               37.23348891                0.72955951               -0.15580258               -0.15595543                0.51938931               -0.00008207                0.08415107                0.00462303
               4.76132427                5.03512813               37.14400602                0.72488496               -0.09619065               -0.09612820                0.32043885               -0.00013038                0.10328771                0.00266589
               5.76066061                5.03446488               37.05465445                0.72212056               -0.03651358               -0.03636827                0.12143780               -0.00017188                0.11346138                0.00115484
               6.76059400                5.03378914               36.96535649                0.72124762                0.02320193                0.02335605               -0.07759657               -0.00019199                0.11514386               -0.00018089
               7.76112465                5.03310113               36.87603698                0.72225828                0.08292631                0.08308943               -0.27665647               -0.00018501                0.10851591               -0.00159966
               8.76225252                5.03240107               36.78662187                0.72515611                0.14263792                0.14286840               -0.47573658               -0.00015100                0.09361422               -0.00334374
               9.76397741                5.03168916               36.69703672                0.72995734                0.20232866                0.20270595               -0.67482692               -0.00009795                0.07034057               -0.00564378
              10.76629910                5.03096546               36.60720548                0.73668779                0.26200473                0.26256958               -0.87390563               -0.00004321                0.03847367               -0.00870154
              11.76921750                5.03022987               36.51704929                0.87107083                0.29184061                0.32237890               -1.07293314                0.00060000                0.01806326               -0.01265026
               1.76721268                6.03429242               37.41163323                0.87137594               -0.24394961               -0.27441160                0.91318197               -0.00057683                0.01413183                0.01490753
               2.76477318                6.03426469               37.32137504                0.73668686               -0.21417183               -0.21460040                0.71418206                0.00006886                0.04537608                0.00909675
               3.76292924                6.03422536               37.23167274                0.72955449               -0.15461034               -0.15469616                0.51532272                0.00001044                0.08698692                0.00565940
               4.76168098                6.03417300               37.14219469                0.72488246               -0.09499517               -0.09487556                0.31637095               -0.00013409                0.10678401                0.00322927
               5.76102934                6.03410733               37.05285318                0.72212054               -0.03530401               -0.03513401                0.11736581               -0.00024081                0.11730359                0.00142051
               6.76097490                6.03402883               36.96356733                0.72124948                0.02442524                0.02457797               -0.08167525               -0.00026959                0.11902075               -0.00013575
               7.76151784                6.03393815               36.87425893                0.72226204                0.08416139                0.08430244               -0.28074338               -0.00022589                0.11212679               -0.00177939
               8.76265812                6.03383588               36.78485096                0.72516153                0.14388272                0.14407224               -0.47983215               -0.00012252                0.09666521               -0.00384948
               9.76439550                6.03372234               36.69526608                0.72996405                0.20357539                0.20391171               -0.67893037               -0.00000095                0.07255498               -0.00670509
              10.76672963                6.03359731               36.60542561                0.73669612                0.26324215                0.26380269               -0.87801580                0.00005527                0.03963229               -0.01069646
              11.76966034                6.03345984               36.51524894                0.87107547                0.29307099                0.32364547               -1.07704941                0.00065576                0.01864110               -0.01607870
               1.76693595                7.03155409               37.40983137                0.87137140               -0.24271989               -0.27331402                0.90910838               -0.00050647                0.01488242                0.01672031
               2.76450876                7.03212486               37.31954417                0.73667995               -0.21298130               -0.21333527                0.71009927                0.00018887                0.04749924                0.00950446
               3.76267633                7.03268485               37.22984066                0.72955074               -0.15345700               -0.15336449                0.51124372                0.00005767                0.09105548                0.00568085
               4.76143962                7.03323062               37.14037284                0.72488204               -0.09381854               -0.09359489                0.31229471               -0.00019971                0.11174877                0.00318041
               5.76079996                7.03376220               37.05104838                0.72212306               -0.03409137               -0.03390263                0.11329014               -0.00032929                0.12272372                0.00140125
               6.76075779                7.03428070               36.96178221                0.72125446                0.02565639                0.02579079               -0.08575261               -0.00034528                0.12449976               -0.00009912
               7.76131309                7.03478718               36.87249240                0.72226844                0.08540453                0.08550054               -0.28482401               -0.00027502                0.11728815               -0.00169344
               8.76246588                7.03528252               36.78309811                0.72516924                0.14514373                0.14524439               -0.48391672               -0.00012351                0.10110572               -0.00377314
               9.76421596                7.03576740               36.69351775                0.72997231                0.20484146                0.20507169               -0.68301949                0.00008209                0.07584175               -0.00682280
              10.76656271                7.03624151               36.60366826                0.73670513                0.26447983                0.26503047               -0.88211064                0.00017642                0.04137754               -0.01144000
              11.76950556                7.03670278               36.51346564                0.87108036                0.29428488                0.32499520               -1.08115271                0.00073830                0.01952303               -0.01813002
               1.76606101                8.02882614               37.40800026                0.87136704               -0.24148174               -0.27241548                0.90501680               -0.00037831                0.01599428                0.01643724
               2.76364620                8.02999799               37.31767915                0.73667343               -0.21181897               -0.21191600                0.70599583                0.00025814                0.05057964                0.00792850
               3.76182464                8.03115807               37.22798147                0.72954892               -0.15232792               -0.15198847                0.50714929               -0.00008039                0.09683733                0.00452991
               4.76059964                8.03230110               37.13853409                0.72488464               -0.09259812               -0.09236578                0.30820856               -0.00033638                0.11860397                0.00250736
               5.75997267                8.03342928               37.04923726                0.72212910               -0.03283145               -0.03269657                0.10921017               -0.00039830                0.13004808                0.00110326
               6.75994301                8.03454465               36.96000128                0.72126308                0.02689260                0.02699769               -0.08982841               -0.00037182                0.13187767               -0.00006173
               7.76051052                8.03564816               36.87074052                0.72227841                0.08662129                0.08670764               -0.28889711               -0.00030745                0.12433549               -0.00131257
               8.76167544                8.03674077               36.78137017                0.72517934                0.14638104                0.14643009               -0.48798818               -0.00016995                0.10735222               -0.00300850
               9.76343815                8.03782378               36.69180320                0.72998215                0.20611723                0.20618906               -0.68709062                0.00007762                0.08063759               -0.00566326
              10.76579778                8.03889791               36.60194900                0.73671428                0.26572189                0.26618931               -0.88618498                0.00030153                0.04400362               -0.01019069
              11.76875258                8.03995974               36.51171675                0.87108524                0.29548030                0.32651080               -1.08523726                0.00087634                0.02088626               -0.01792196
               1.76458470                9.02610578               37.40611554                0.87136260               -0.24027103               -0.27192624                0.90089844               -0.00043906                0.01757272                0.01212719
               2.76218199                9.02788654               37.31575666                0.73666825               -0.21065437               -0.21022885                0.70186269                0.00000432                0.05524756                0.00407966
               3.76037161                9.02964508               37.22608332                0.72955012               -0.15101533               -0.15087534                0.50303459               -0.00029296                0.10521655                0.00246940
               4.75916168                9.03138330               37.13667271                0.72489091               -0.09115841               -0.09121566                0.30410939               -0.00038451                0.12781907                0.00135644
               5.75854844                9.03310826               37.04741738                0.72213946               -0.03151042               -0.03151688                0.10512417               -0.00030527                0.13957217                0.00059697
               6.75853147                9.03482065               36.95822474                0.72127604                0.02811887                0.02821011               -0.09390281               -0.00026533                0.14142864               -0.00002589
               7.75911082                9.03652133               36.86900641                0.72229269                0.08776957                0.08794523               -0.29296100               -0.00023255                0.13361849               -0.00070134
               8.76028686                9.03821112               36.77967438                0.72519358                0.14747719                0.14767673               -0.49204262               -0.00019128                0.11596972               -0.00164812
               9.76206036                9.03989118               36.69013683                0.72999478                0.20729560                0.20741153               -0.69113715               -0.00001498                0.08781473               -0.00321306
              10.76443278                9.04156530               36.60029245                0.73672522                0.26695357                0.26719895               -0.89022798                0.00026558                0.04820649               -0.00613442
              11.76739943                9.04323299               36.51003051                0.87109014                0.29666586                0.32834817               -1.08928974                0.00087789                0.02309591               -0.01307957
               1.76249072               10.02338762               37.40412126                0.93568008               -0.23837390               -0.27181603                0.89673222                0.03118138                0.02306865                0.01049358
               2.76010698               10.02579341               37.31375499                0.86833305               -0.20843542               -0.20931246                0.69769235                0.03014665                0.06401632                0.00307942
               3.75832201               10.02814057               37.22414027                0.86477639               -0.14891062               -0.15045152                0.49889459                0.02920869                0.11709674                0.00234371
               4.75712877               10.03047679               37.13478521                0.86244890               -0.08963966               -0.09065161                0.29999218                0.02962743                0.13961742                0.00132089
               5.75652922               10.03279894               37.04558736                0.86107438               -0.03020646               -0.03093205                0.10102901                0.02968072                0.15147226                0.00051163
               6.75652464               10.03510885               36.95645272                0.86064350                0.02930946                0.02881984               -0.09797663                0.02972260                0.15331342               -0.00022764
               7.75711541               10.03740707               36.86729191                0.86115232                0.08885626                0.08857357               -0.29701395                0.02973112                0.14538105               -0.00099589
               8.75830176               10.03969430               36.77801576                0.86260278                0.14841301                0.14831803               -0.49607507                0.02973698                0.12744844               -0.00191375
               9.76008367               10.04197201               36.68853037                0.86500261                0.20797570                0.20808305               -0.69514993                0.02970997                0.09871079               -0.00319111
              10.76246128               10.04424189               36.59873045                0.86836664                0.26755452                0.26765945               -0.89422291                0.03058487                0.05665447               -0.00522683
              11.76543476               10.04652670               36.50847183                0.93554692                0.29734797                0.32937112               -1.09328057                0.03201308                0.02947720               -0.01139937
               1.84765911                0.05272707               38.43171041                0.93567976               -0.24708968               -0.27868277                0.92407789               -0.03170023                0.01891236               -0.00490096
               2.84518821                0.04909699               38.33956422                0.86843932               -0.21771748               -0.21745535                0.72792291               -0.02996844                0.04455234               -0.00482916
               3.84330476                0.04548898               38.24785952                0.86492653               -0.15909618               -0.15906372                0.53188042               -0.02915024                0.08109651               -0.00221780
               4.84200629                0.04187058               38.15638992                0.86252638               -0.10054447               -0.10016294                0.33582388               -0.02934256                0.10168103               -0.00130123
               5.84129387                0.03824165               38.06505957                0.86110200               -0.04189183               -0.04132287                0.13975084               -0.02936864                0.11265543               -0.00058146
               6.84116845                0.03460060               37.97378911                0.86064717                0.01682257                0.01753402               -0.05633764               -0.02939249                0.11503805                0.00002645
               7.84163032                0.03094698               37.88250307                0.86115978                0.07555584                0.07639220               -0.25244368               -0.02939445                0.10909447                0.00059341
               8.84267957                0.02728027               37.79112742                0.86264111                0.13428033                0.13524258               -0.44857009               -0.02940209                0.09485518                0.00116789
               9.84431593                0.02359904               37.69958730                0.86509677                0.19300369                0.19414025               -0.64471736               -0.02934342                0.07213855                0.00180552
              10.84653964                0.01990243               37.60780503                0.86853658                0.25165473                0.25275390               -0.84088118               -0.03011108                0.04030817                0.00253653
              11.84934902                0.01616886               37.51569304                0.93566241                0.28093799                0.31383941               -1.03706015               -0.03018104                0.01973592                0.00421488
               1.85097219                1.04994025               38.42991325                0.87120692               -0.24646202               -0.27757124                0.92013246               -0.00076315                0.01555194               -0.00391243
               2.84850757                1.04692243               38.33774833                0.73655417               -0.21728662               -0.21704930                0.72396903               -0.00016550                0.04246746               -0.00490622
               3.84662646                1.04389835               38.24605058                0.72958470               -0.15855221               -0.15832741                0.52792222                0.00005472                0.07943847               -0.00222074
               4.84533653                1.04086895               38.15457086                0.72491974               -0.09956446               -0.09952223                0.33184524                0.00017398                0.09905117               -0.00115444
               5.84463517                1.03782842               38.06322826                0.72215481               -0.04073323               -0.04070061                0.13575026                0.00012163                0.10983960               -0.00058887
               6.84452186                1.03477594               37.97194427                0.72127447                0.01806867                0.01813836               -0.06036057                0.00008605                0.11211057               -0.00025677
               7.84499654                1.03171090               37.88064411                0.72227282                0.07688270                0.07698335               -0.25648918                0.00005747                0.10611273               -0.00002452
               8.84605952                1.02863269               37.78925422                0.72515277                0.13574334                0.13582906               -0.45263859                0.00002492                0.09186797                0.00020780
               9.84771141                1.02554044               37.69770027                0.72992833                0.19470515                0.19469390               -0.64880910               -0.00016284                0.06918394                0.00054459
              10.84995362                1.02242997               37.60590488                0.73662205                0.25346865                0.25362450               -0.84499572               -0.00024297                0.03780676                0.00113789
              11.85278078                1.01930725               37.51378868                0.87102419                0.28271636                0.31389519               -1.04118245                0.00064419                0.01765424                0.00248700
               1.85367947                2.04717565               38.42805539                0.87105308               -0.24526686               -0.27566422                0.91617609               -0.00082556                0.01271087               -0.00282923
               2.85122680                2.04475600               38.33586815                0.73622717               -0.21600667               -0.21617242                0.72001272               -0.00032984                0.04199433               -0.00370494
               3.84935934                2.04232244               38.24419578                0.72931440               -0.15735554               -0.15708341                0.52398983               -0.00011941                0.08055855               -0.00211476
               4.84807969                2.03988014               38.15272600                0.72478501               -0.09850142               -0.09828143                0.32789402                0.00008030                0.09897326               -0.00108216
               5.84738931                2.03742764               38.06138513                0.72210426               -0.03959975               -0.03947109                0.13176832                0.00011888                0.10914938               -0.00058824
               6.84728770                2.03496337               37.97009915                0.72125365                0.01927062                0.01935315               -0.06437735                0.00008301                0.11112884               -0.00037772
               7.84777472                2.03248664               37.87879523                0.72222547                0.07814153                0.07819002               -0.26054238                0.00002421                0.10501093               -0.00031616
               8.84885053                2.02999685               37.78740131                0.72502434                0.13703364                0.13704465               -0.45672851               -0.00009262                0.09079653               -0.00030053
               9.85051539                2.02749292               37.69584459                0.72966501                0.19587217                0.19594975               -0.65293370               -0.00028062                0.06835021               -0.00021940
              10.85276797                2.02497492               37.60405030                0.73617423                0.25459736                0.25514587               -0.84914546               -0.00038757                0.03744226                0.00009492
              11.85560734                2.02244676               37.51194102                0.87072538                0.28393711                0.31442247               -1.04533145                0.00034390                0.01756227                0.00073981
               1.85579498                3.04442696               38.42620006                0.87104841               -0.24407874               -0.27419788                0.91220264               -0.00071270                0.01305687                0.00207701
               2.85335419                3.04259899               38.33401378                0.73621828               -0.21475193               -0.21513108                0.71604612               -0.00024072                0.04238334                0.00101497
               3.85149994                3.04075668               38.24234360                0.72930537               -0.15606299               -0.15604117                0.52002263               -0.00022223                0.08119090                0.00046989
               4.85023293                3.03890332               38.15088003                0.72477567               -0.09728128               -0.09711343                0.32391818               -0.00006497                0.09964645                0.00028534
               5.84955431                3.03703900               38.05954253                0.72209547               -0.03842055               -0.03826483                0.12777334                0.00000129                0.10954819                0.00004611
               6.84946452                3.03516301               37.96825764                0.72124629                0.02046190                0.02057481               -0.06839678               -0.00000893                0.11131740               -0.00030961
               7.84996355                3.03327470               37.87695322                0.72222077                0.07934378                0.07942812               -0.26458838               -0.00006880                0.10505152               -0.00078835
               8.85105139                3.03137359               37.78555777                0.72502299                0.13820877                0.13831891               -0.46080058               -0.00016909                0.09074936               -0.00139463
               9.85272773                3.02945943               37.69399916                0.72966734                0.19703138                0.19730390               -0.65702813               -0.00027883                0.06828588               -0.00211999
              10.85499202                3.02753289               37.60220333                0.73618059                0.25581270                0.25639939               -0.85325337               -0.00024454                0.03740403               -0.00294940
              11.85784398                3.02559570               37.51009302                0.87072966                0.28519581                0.31544399               -1.04943990                0.00047474                0.01753081               -0.00389195
               1.85732117                4.04169169               38.42436095                0.87104383               -0.24288978               -0.27290467                0.90821967               -0.00065089                0.01327107                0.00727582
               2.85489227                4.04045338               38.33216578                0.73620994               -0.21353062               -0.21396471                0.71206393               -0.00013127                0.04301592                0.00451070
               3.85305056                4.03920161               38.24049542                0.72929781               -0.15481014               -0.15493080                0.51603872               -0.00017097                0.08238305                0.00285455
               4.85179607                4.03793787               38.14903452                0.72476891               -0.09604539               -0.09596325                0.31992725               -0.00012619                0.10103453                0.00163629
               5.85112965                4.03666234               38.05770114                0.72208987               -0.03721250               -0.03706870                0.12376980               -0.00009975                0.11097150                0.00067238
               6.85105182                4.03537487               37.96641997                0.72124238                0.02165584                0.02179437               -0.07241736               -0.00010794                0.11264164               -0.00023972
               7.85156277                4.03407521               37.87511804                0.72221902                0.08052958                0.08066826               -0.26862801               -0.00013806                0.10620118               -0.00124786
               8.85266241                4.03276323               37.78372318                0.72502405                0.13938751                0.13958898               -0.46485865               -0.00017671                0.09166695               -0.00247692
               9.85435052                4.03143899               37.69216275                0.72967173                0.19822009                0.19857729               -0.66110138               -0.00019108                0.06892581               -0.00403637
              10.85662681                4.03010291               37.60036231                0.73618780                0.25703456                0.25760446               -0.85733645               -0.00013505                0.03773223               -0.00601677
              11.85949121                4.02875564               37.50824429                0.87073423                0.28643952                0.31657756               -1.05352487                0.00054130                0.01768693               -0.00847773
               1.85825858                5.03896887               38.42253063                0.87103943               -0.24169390               -0.27168495                0.90422711               -0.00061133                0.01362818                0.01165182
               2.85584164                5.03831969               38.33031946                0.73620233               -0.21232754               -0.21276781                0.70806860               -0.00003401                0.04400914                0.00733346
               3.85401203                5.03765806               38.23864617                0.72929163               -0.15359846               -0.15374955                0.51204225               -0.00008116                0.08429029                0.00465674
               4.85276968                5.03698406               38.14718792                0.72476442               -0.09483576               -0.09477487                0.31592642               -0.00012878                0.10336697                0.00269192
               5.85211532                5.03629763               38.05586047                0.72208709               -0.03600895               -0.03586636                0.11976066               -0.00016969                0.11350452                0.00116988
               6.85204950                5.03559889               37.96458630                0.72124131                0.02285562                0.02300721               -0.07643800               -0.00018948                0.11515894               -0.00017958
               7.85257243                5.03488807               37.87329035                0.72222018                0.08172889                0.08188975               -0.27266172               -0.00018259                0.10850496               -0.00161352
               8.85368407                5.03416537               37.78189858                0.72502696                0.14058962                0.14081715               -0.46890539               -0.00014909                0.09358037               -0.00337291
               9.85538422                5.03343098               37.69033666                0.72967694                0.19942991                0.19980219               -0.66515925               -0.00009670                0.07029519               -0.00568694
              10.85767267                5.03268498               37.59852878                0.73619530                0.25825587                0.25881293               -0.86140185               -0.00004264                0.03844265               -0.00875610
              11.86054934                5.03192725               37.50639646                0.87073858                0.28766677                0.31777019               -1.05759394                0.00059131                0.01803628               -0.01271381
               1.85860730                6.03625799               38.42070044                0.87103502               -0.24048991               -0.27051784                0.90022465               -0.00056859                0.01415058                0.01496588
               2.85620240                6.03619802               38.32846639                0.73619486               -0.21113641               -0.21155906                0.70406019                0.00006771                0.04548368                0.00913806
               3.85438457                6.03612662               38.23678963                0.72928686               -0.15242348               -0.15250849                0.50803450                0.00001002                0.08713291                0.00569355
               4.85315393                6.03604237               38.14533620                0.72476199               -0.09365758               -0.09354034                0.31191727               -0.00013235                0.10686748                0.00325480
               5.85251142                6.03594502               38.05401877                0.72208689               -0.03481686               -0.03464993                0.11574745               -0.00023733                0.11734825                0.00143506
               6.85245759                6.03583501               37.96275665                0.72124328                0.02406126                0.02421150               -0.08045779               -0.00026556                0.11903531               -0.00013445
               7.85299264                6.03571300               37.87147172                0.72222375                0.08294611                0.08308527               -0.27668963               -0.00022251                0.11211427               -0.00179286
               8.85411651                6.03557957               37.78008701                0.72503224                0.14181644                0.14200368               -0.47294188               -0.00012074                0.09662978               -0.00387810
               9.85582897                6.03543504               37.68852529                0.72968370                0.20065867                0.20099066               -0.66920370               -0.00000097                0.07250891               -0.00674886
              10.85812969                6.03527917               37.59670811                0.73620343                0.25947547                0.26002830               -0.86545286                0.00005446                0.03960151               -0.01075523
              11.86101848                6.03511105               37.50455524                0.87074321                0.28887941                0.31901850               -1.06165089                0.00064631                0.01861470               -0.01615323
               1.85836715                7.03355851               38.41885814                0.87103092               -0.23927797               -0.26943609                0.89620982               -0.00049927                0.01490376                0.01678472
               2.85597437                7.03408851               38.32659499                0.73618827               -0.20996314               -0.21031212                0.70003627                0.00018600                0.04761576                0.00954445
               3.85416789                7.03460789               38.23491705                0.72928304               -0.15128687               -0.15119608                0.50401441                0.00005658                0.09121625                0.00571332
               4.85294863                7.03511325               38.14347388                0.72476157               -0.09249794               -0.09227824                0.30789992               -0.00019690                0.11184540                0.00320459
               5.85231793                7.03560463               38.05217351                0.72208958               -0.03362172               -0.03343638                0.11173062               -0.00032424                0.12277925                0.00141514
               6.85227620                7.03608312               37.96093105                0.72124835                0.02527462                0.02540678               -0.08447622               -0.00033976                0.12452312               -0.00009757
               7.85282342                7.03654977               37.86966467                0.72223030                0.08417126                0.08426611               -0.28071133               -0.00027054                0.11728327               -0.00170575
               8.85395962                7.03700544               37.77829360                0.72503959                0.14305919                0.14315903               -0.47696757               -0.00012140                0.10107726               -0.00380004
               9.85568460                7.03745079               37.68673636                0.72969168                0.20190641                0.20213402               -0.67323372                0.00008100                0.07580156               -0.00686509
              10.85799775                7.03788554               37.59491010                0.73621210                0.26069522                0.26123843               -0.86948856                0.00017391                0.04135077               -0.01150009
              11.86089851                7.03830762               37.50273121                0.87074806                0.29007572                0.32034873               -1.06569498                0.00072769                0.01949945               -0.01821255
               1.85753731                8.03086927               38.41698641                0.87102644               -0.23805773               -0.26855060                0.89217735               -0.00037295                0.01601998                0.01650038
               2.85515674                8.03199178               38.32468923                0.73618203               -0.20881769               -0.20891307                0.69599207                0.00025415                0.05071083                0.00796003
               3.85336096                8.03310270               38.23301721                0.72928168               -0.15017417               -0.14984000                0.49997908               -0.00007964                0.09702271                0.00455682
               4.85215325                8.03419680               38.14159456                0.72476418               -0.09129515               -0.09106700                0.30387281               -0.00033146                0.11872375                0.00252785
               5.85153506                8.03527629               38.05032188                0.72209578               -0.03238002               -0.03224776                0.10770959               -0.00039201                0.13012465                0.00111522
               6.85150565                8.03634315               37.95910966                0.72125685                0.02649293                0.02659626               -0.08849316               -0.00036568                0.13192020               -0.00006002
               7.85206492                8.03739832               37.86787236                0.72224018                0.08537042                0.08545580               -0.28472559               -0.00030221                0.12434840               -0.00132227
               8.85321306                8.03844275               37.77652524                0.72504981                0.14427858                0.14432768               -0.48098027               -0.00016688                0.10734038               -0.00303068
               9.85495049                8.03947772               37.68498140                0.72970126                0.20316367                0.20323549               -0.67724621                0.00007676                0.08061157               -0.00569917
              10.85727634                8.04050394               37.59315039                0.73622134                0.26191928                0.26238074               -0.87350413                0.00029723                0.04398551               -0.01024424
              11.86018887                8.04151802               37.50094177                0.87075270                0.29125383                0.32184243               -1.06972046                0.00086379                0.02086764               -0.01800313
               1.85611467                9.02818750               38.41506080                0.87102222               -0.23686459               -0.26806873                0.88811840               -0.00043291                0.01760456                0.01217418
               2.85374603                9.02991025               38.32272570                0.73617714               -0.20766998               -0.20724963                0.69191850                0.00000340                0.05540130                0.00409435
               3.85196127                9.03161109               38.23107822                0.72928266               -0.14888050               -0.14874330                0.49592377               -0.00028930                0.10543940                0.00248559
               4.85076842                9.03329191               38.13969248                0.72477082               -0.08987629               -0.08993347                0.29983282               -0.00037885                0.12797351                0.00136909
               5.85016375                9.03495967               38.04846144                0.72210612               -0.03107829               -0.03108502                0.10368258               -0.00030034                0.13968138                0.00060452
               6.85014685                9.03661505               37.95729268                0.72126967                0.02770138                0.02779124               -0.09250877               -0.00026086                0.14150247               -0.00002459
               7.85071777                9.03825889               37.86609790                0.72225429                0.08650218                0.08667550               -0.28873082               -0.00022850                0.13366154               -0.00070688
               8.85187689                9.03989199               37.77478920                0.72506380                0.14535904                0.14555625               -0.48497608               -0.00018786                0.11598653               -0.00166118
               9.85362495                9.04151550               37.68327485                0.72971384                0.20432502                0.20444031               -0.68123426               -0.00001435                0.08781432               -0.00323490
              10.85596339                9.04313316               37.59145370                0.73623160                0.26313310                0.26337619               -0.87748886                0.00026194                0.04820528               -0.00616783
              11.85888762                9.04474447               37.49921529                0.87075755                0.29242228                0.32365327               -1.07371464                0.00086530                0.02308762               -0.01313766
               1.85408316               10.02550790               38.41302515                0.93550992               -0.23499456               -0.26796033                0.88401199                0.03073791                0.02312171                0.01053791
               2.85173321               10.02784679               38.32068263                0.86808745               -0.20548222               -0.20634603                0.68780797                0.02971559                0.06420823                0.00309193
               3.84997351               10.03012783               38.22909406                0.86464290               -0.14680585               -0.14832588                0.49184337                0.02879154                0.11737099                0.00235915
               4.84879710               10.03239814               38.13776411                0.86238881               -0.08838014               -0.08937747                0.29577502                0.02920576                0.13981915                0.00133204
               5.84820591               10.03465459               38.04659076                0.86105780               -0.02979363               -0.03050855                0.09964649                0.02925835                0.15162784                0.00051768
               6.84820122               10.03689897               37.95548020                0.86064049                0.02887458                0.02839222               -0.09652381                0.02929966                0.15343298               -0.00022750
               7.84878340               10.03913183               37.86434317                0.86113312                0.08757324                0.08729475               -0.29272525                0.02930810                0.14546939               -0.00100194
               8.84995269               10.04135388               37.77309055                0.86253787                0.14628170                0.14618822               -0.48895026                0.02931396                0.12750974               -0.00192626
               9.85170904               10.04356652               37.68162855                0.86486213                0.20499589                0.20510203               -0.68518899                0.02928748                0.09875352               -0.00321114
              10.85405261               10.04577146               37.58985204                0.86811990                0.26372571                0.26383028               -0.88142605                0.03014934                0.05668892               -0.00525569
              11.85698355               10.04799109               37.49761700                0.93538047                0.29309451                0.32466144               -1.07764785                0.03155604                0.02949798               -0.01145031
               1.94097547                0.05449491               39.44088447                0.93550711               -0.24351378               -0.27464806                0.91069826               -0.03123971                0.01896360               -0.00490798
               2.93854033                0.05088437               39.34679095                0.86818694               -0.21456838               -0.21430942                0.71739347               -0.02953246                0.04467855               -0.00482724
               3.93668410                0.04729561               39.25314002                0.86478631               -0.15679909               -0.15676724                0.52419961               -0.02872649                0.08128628               -0.00220291
               4.93540435                0.04369658               39.15972406                0.86246301               -0.09909833               -0.09872211                0.33099182               -0.02891656                0.10186605               -0.00128928
               5.93470213                0.04008718               39.06644719                0.86108416               -0.04129779               -0.04073695                0.13776785               -0.02894229                0.11283061               -0.00057395
               6.93457839                0.03646583               38.97323006                0.86064405                0.01656369                0.01726482               -0.05547141               -0.02896579                0.11519838                0.00002925
               7.93503341                0.03283209               38.87999717                0.86114000                0.07444378                0.07526786               -0.24872803               -0.02896771                0.10923319                0.00059141
               8.93606727                0.02918545               38.78667447                0.86257394                0.13231521                0.13326322               -0.44200472               -0.02897525                0.09496615                0.00116066
               9.93767971                0.02552452               38.69318709                0.86495109                0.19018553                0.19130523               -0.63530200               -0.02891740                0.07221925                0.00179295
              10.93987098                0.02184843               38.59945740                0.86828088                0.24798426                0.24906724               -0.82861556               -0.02967355                0.04035718                0.00251915
              11.94263940                0.01813594               38.50539783                0.93549007                0.27684184                0.30926506               -1.02194404               -0.02974208                0.01975707                0.00420766
               1.94427361                1.05174843               39.43904815                0.87086618               -0.24289549               -0.27355250                0.90681097               -0.00075145                0.01557976               -0.00390331
               2.94184466                1.04874128               39.34493581                0.73605895               -0.21414414               -0.21390973                0.71349785               -0.00016276                0.04257233               -0.00488855
               3.93999073                1.04572794               39.25129179                0.72931208               -0.15626302               -0.15604183                0.52029992                0.00005382                0.07960101               -0.00218039
               4.93871940                1.04270936               39.15786551                0.72479665               -0.09813215               -0.09809109                0.32707196                0.00017097                0.09920004               -0.00112071
               5.93802809                1.03967981               39.06457618                0.72212039               -0.04015579               -0.04012402                0.13382623                0.00011907                0.10997752               -0.00056838
               6.93791628                1.03663848               38.97134529                0.72126815                0.01779164                0.01786019               -0.05943512                0.00008393                0.11223327               -0.00025158
               7.93838392                1.03358477               38.87809805                0.72223447                0.07575103                0.07585034               -0.25271397                0.00005579                0.10621336               -0.00003543
               8.93943130                1.03051809               38.78476088                0.72502241                0.13375638                0.13384122               -0.44601335                0.00002383                0.09194041                0.00018035
               9.94105905                1.02743757               38.69125944                0.72964500                0.19186140                0.19185101               -0.63933365               -0.00016105                0.06922615                0.00050178
              10.94326853                1.02433911               38.59751640                0.73612454                0.24977108                0.24992544               -0.83266969               -0.00023944                0.03782480                0.00108477
              11.94605447                1.02122859               38.50345255                0.87068857                0.27859390                0.30931975               -1.02600586                0.00063536                0.01765166                0.00244369
               1.94697475                2.04902386               39.43715101                0.87071692               -0.24171786               -0.27167326                0.90291307               -0.00081336                0.01272828               -0.00281256
               2.94455757                2.04660618               39.34301635                0.73574188               -0.21288287               -0.21304626                0.70960004               -0.00032514                0.04210061               -0.00367656
               3.94271709                2.04417477               39.24939796                0.72905010               -0.15508387               -0.15481622                0.51642581               -0.00011795                0.08071301               -0.00206641
               4.94145589                2.04173476               39.15598143                0.72466584               -0.09708471               -0.09686880                0.32317914                0.00007850                0.09908674               -0.00103900
               5.94077540                2.03928470               39.06269352                0.72207088               -0.03903886               -0.03891279                0.12990301                0.00011611                0.10924391               -0.00056131
               6.94067511                2.03682304               38.96946030                0.72124739                0.01897600                0.01905702               -0.06339274                0.00008057                0.11120526               -0.00037154
               7.94115492                2.03434909               38.87620894                0.72218818                0.07699136                0.07703930               -0.25670755                0.00002268                0.10506414               -0.00033251
               8.94221494                2.03186228               38.78286737                0.72489773                0.13502760                0.13503909               -0.45004323               -0.00009217                0.09082241               -0.00033929
               9.94385547                2.02936154               38.68936281                0.72938963                0.19301108                0.19308857               -0.64339772               -0.00027705                0.06835168               -0.00027754
              10.94607516                2.02684694               38.59562063                0.73569017                0.25088317                0.25142465               -0.83675877               -0.00038214                0.03743694                0.00002661
              11.94887313                2.02432234               38.50156370                0.87039884                0.27979681                0.30983930               -1.03009442                0.00033872                0.01754899                0.00068074
               1.94909272                3.04631497               39.43525624                0.87071258               -0.24054723               -0.27022867                0.89899833               -0.00070218                0.01307502                0.00210175
               2.94668724                3.04448035               39.34112261                0.73573344               -0.21164657               -0.21202041                0.70569201               -0.00023739                0.04248652                0.00104734
               3.94485978                3.04263161               39.24750640                0.72904111               -0.15381031               -0.15378930                0.51251701               -0.00021933                0.08133444                0.00050500
               4.94361104                3.04077199               39.15409600                0.72465662               -0.09588255               -0.09571791                0.31926189               -0.00006453                0.09973981                0.00031676
               5.94294213                3.03890156               39.06081126                0.72206209               -0.03787704               -0.03772428                0.12596689                0.00000047                0.10961471                0.00006591
               6.94285350                3.03701962               38.96757888                0.72123996                0.02014977                0.02026069               -0.06735300               -0.00000976                0.11136203               -0.00030619
               7.94334513                3.03512555               38.87432677                0.72218340                0.07817596                0.07825918               -0.26069410               -0.00006872                0.10507210               -0.00080324
               8.94441702                3.03321887               38.78098341                0.72489593                0.13618551                0.13629457               -0.45405550               -0.00016733                0.09074457               -0.00142707
               9.94606884                3.03129934               38.68747674                0.72939206                0.19415339                0.19442264               -0.64743194               -0.00027507                0.06826275               -0.00216663
              10.94830008                3.02936760               38.59373288                0.73569647                0.25208077                0.25265945               -0.84080639               -0.00024096                0.03738504               -0.00300312
              11.95111045                3.02742538               38.49967492                0.87040318                0.28103707                0.31084608               -1.03414263                0.00046774                0.01751041               -0.00394207
               1.95062993                4.04361929               39.43337760                0.87070806               -0.23937581               -0.26895462                0.89507420               -0.00064130                0.01328829                0.00731203
               2.94823618                4.04236577               39.33923509                0.73572526               -0.21044324               -0.21087127                0.70176856               -0.00012955                0.04311686                0.00454544
               3.94642107                4.04109899               39.24561868                0.72903391               -0.15257591               -0.15269525                0.50859185               -0.00016883                0.08252045                0.00288749
               4.94518466                4.03982040               39.15221088                0.72465022               -0.09466488               -0.09458459                0.31532978               -0.00012476                0.10111626                0.00166319
               5.94452777                4.03853021               39.05893013                0.72205666               -0.03668679               -0.03654571                0.12202232               -0.00009878                0.11102127                0.00068863
               6.94445092                4.03722825               38.96570130                0.72123614                0.02132612                0.02146232               -0.07131443               -0.00010693                0.11266630               -0.00023782
               7.94495429                4.03591428               38.87245148                0.72218151                0.07934430                0.07948105               -0.26467427               -0.00013659                0.10620112               -0.00126199
               8.94603781                4.03458817               38.77910854                0.72489659                0.13734699                0.13754589               -0.45805391               -0.00017457                0.09164331               -0.00250661
               9.94770123                4.03324999               38.68559990                0.72939591                0.19532481                0.19567720               -0.65144552               -0.00018851                0.06888791               -0.00407906
              10.94994430                4.03190013               38.59185132                0.73570352                0.25328473                0.25384666               -0.84482935               -0.00013310                0.03770499               -0.00606802
              11.95276693                4.03053926               38.49778564                0.87040741                0.28226241                0.31196288               -1.03816711                0.00053330                0.01766214               -0.00853158
               1.95158693                5.04093587               39.43150764                0.87070368               -0.23819760               -0.26775293                0.89114050               -0.00060236                0.01364560                0.01169938
               2.94920496                5.04026293               39.33734910                0.73571787               -0.20925793               -0.20969204                0.69783222               -0.00003371                0.04411098                0.00737184
               3.94740177                5.03957771               39.24372976                0.72902797               -0.15138211               -0.15153138                0.50465432               -0.00008031                0.08442757                0.00469005
               4.94617731                5.03888029               39.15032455                0.72464573               -0.09347306               -0.09341367                0.31138778               -0.00012721                0.10344487                0.00271754
               5.94553231                5.03817064               39.05704966                0.72205416               -0.03550095               -0.03536104                0.11807216               -0.00016746                0.11354690                0.00118473
               6.94546729                5.03744887               38.96382773                0.72123534                0.02250824                0.02265730               -0.07527583               -0.00018691                0.11517372               -0.00017829
               7.94598248                5.03671517               38.87058375                0.72218253                0.08052598                0.08068455               -0.26864863               -0.00018010                0.10849419               -0.00162732
               8.94707781                5.03596979               38.77724376                0.72489986                0.13853145                0.13875595               -0.46204115               -0.00014704                0.09354695               -0.00340188
               9.94875311                5.03521288               38.68373353                0.72940127                0.19651686                0.19688403               -0.65544368               -0.00009546                0.07025009               -0.00572972
              10.95100815                5.03444453               38.58997744                0.73571076                0.25448811                0.25503735               -0.84883506               -0.00004223                0.03841176               -0.00881024
              11.95384287                5.03366464               38.49589741                0.87041173                0.28347165                0.31313799               -1.04217649                0.00058253                0.01800969               -0.01277706
               1.95196378                6.03826423               39.42963772                0.87069934               -0.23701139               -0.26660303                0.88719716               -0.00056028                0.01416930                0.01502347
               2.94959367                6.03817193               39.33545624                0.73571067               -0.20808439               -0.20850110                0.69388294                0.00006655                0.04558996                0.00917885
               3.94780209                6.03806836               39.24183343                0.72902307               -0.15022447               -0.15030862                0.50070563                0.00000960                0.08727680                0.00572732
               4.94658918                6.03795213               39.14843304                0.72464327               -0.09231224               -0.09219736                0.30743777               -0.00013061                0.10694967                0.00328004
               5.94595585                6.03782299               39.05516813                0.72205383               -0.03432640               -0.03416255                0.11411807               -0.00023387                0.11739226                0.00144944
               6.94590265                6.03768139               38.96195817                0.72123704                0.02369614                0.02384386               -0.07923645               -0.00026154                0.11904954               -0.00013317
               7.94642977                6.03752797               38.86872514                0.72218620                0.08172529                0.08186251               -0.27261734               -0.00021908                0.11210186               -0.00180616
               8.94753716                6.03736329               38.77539213                0.72490499                0.13974017                0.13992506               -0.46601821               -0.00011891                0.09659474               -0.00390661
               9.94922458                6.03718767               38.68188200                0.72940757                0.19772746                0.19805504               -0.65942847               -0.00000109                0.07246307               -0.00679217
              10.95149171                6.03700088               38.58811655                0.73571855                0.25568979                0.25623493               -0.85282667                0.00005348                0.03957075               -0.01081330
              11.95433837                6.03680202               38.49401592                0.87041621                0.28466658                0.31436811               -1.04617430                0.00063676                0.01858844               -0.01622724
               1.95176033                7.03560381               39.42775557                0.87069532               -0.23581732               -0.26553718                0.88324147               -0.00049201                0.01492508                0.01684827
               2.94940216                7.03609290               39.33354490                0.73570414               -0.20692846               -0.20727245                0.68991833                0.00018313                0.04773100                0.00958391
               3.94762176                7.03657153               39.23992095                0.72901981               -0.14910464               -0.14901557                0.49674486                0.00005550                0.09137490                0.00574547
               4.94642007                7.03703635               39.14653084                0.72464308               -0.09116969               -0.09095394                0.30347966               -0.00019406                0.11194052                0.00322863
               5.94579837                7.03748739               39.05328299                0.72205632               -0.03314887               -0.03296692                0.11016044               -0.00031919                0.12283399                0.00142887
               6.94575709                7.03792574               38.96009268                0.72124204                0.02489163                0.02502156               -0.08319579               -0.00033427                0.12454620               -0.00009605
               7.94629620                7.03835242               38.86687817                0.72219275                0.08293238                0.08302599               -0.27657980               -0.00026605                0.11727831               -0.00171783
               8.94741574                7.03876829               38.77355876                0.72491226                0.14096455                0.14106350               -0.46998469               -0.00011933                0.10104908               -0.00382665
               9.94911549                7.03917398               38.68005307                0.72941528                0.19895676                0.19918177               -0.66339943                0.00007985                0.07576183               -0.00690701
              10.95139487                7.03956923               38.58627849                0.73572693                0.25689162                0.25742740               -0.85680321                0.00017133                0.04132381               -0.01155935
              11.95425332                7.03995200               38.49215175                0.87042068                0.28584538                0.31567888               -1.05015925                0.00071704                0.01947534               -0.01829386
               1.95097576                8.03295349               39.42584381                0.87069107               -0.23461510               -0.26466479                0.87926831               -0.00036757                0.01604566                0.01656295
               2.94862961                8.03402648               39.33159900                0.73569842               -0.20579998               -0.20589371                0.68593358                0.00025013                0.05084058                0.00799125
               3.94685976                8.03508805               39.23798105                0.72901833               -0.14800839               -0.14767952                0.49276888               -0.00007886                0.09720575                0.00458339
               4.94566944                8.03613305               39.14461155                0.72464603               -0.08998461               -0.08976064                0.29951181               -0.00032650                0.11884177                0.00254817
               5.94506007                8.03716366               39.05139145                0.72206267               -0.03192551               -0.03179580                0.10619858               -0.00038570                0.13020010                0.00112707
               6.94503093                8.03818183               38.95823141                0.72125056                0.02609195                0.02619355               -0.08715361               -0.00035953                0.13196226               -0.00005836
               7.94558191                8.03918849               38.86504601                0.72220236                0.08411387                0.08419819               -0.28053499               -0.00029699                0.12436114               -0.00133193
               8.94671321                8.04018456               38.77175056                0.72492243                0.14216594                0.14221501               -0.47393826               -0.00016380                0.10732844               -0.00305251
               9.94842523                8.04117130               38.67825828                0.72942491                0.20019542                0.20026722               -0.66735285                0.00007595                0.08058571               -0.00573473
              10.95071712                8.04214943               38.58447891                0.73573592                0.25809759                0.25855306               -0.86075967                0.00029292                0.04396764               -0.01029721
              11.95358718                8.04311560               38.49032235                0.87042549                0.28700611                0.31715050               -1.05412528                0.00085113                0.02084927               -0.01808296
               1.94960700                9.03031052               39.42387791                0.87068705               -0.23343962               -0.26419032                0.87526912               -0.00042671                0.01763599                0.01222081
               2.94727260                9.03197503               39.32959503                0.73569355               -0.20466923               -0.20425412                0.68191983                0.00000254                0.05555312                0.00410886
               3.94551361                9.03361794               39.23600180                0.72901978               -0.14673372               -0.14659930                0.48877320               -0.00028558                0.10565940                0.00250176
               4.94433793                9.03524113               39.14266937                0.72465266               -0.08858668               -0.08864376                0.29553129               -0.00037318                0.12812579                0.00138168
               5.94374188                9.03685147               39.04949103                0.72207327               -0.03064314               -0.03065008                0.10223080               -0.00029540                0.13978901                0.00061195
               6.94372506                9.03844961               38.95637457                0.72126340                0.02728250                0.02737099               -0.09111011               -0.00025636                0.14157533               -0.00002331
               7.94428753                9.04003639               38.86323179                0.72221658                0.08522900                0.08539996               -0.28448133               -0.00022448                0.13370409               -0.00071248
               8.94542964                9.04161259               38.76997485                0.72493596                0.14323064                0.14342548               -0.47787533               -0.00018446                0.11600310               -0.00167418
               9.94715214                9.04317933               38.67651214                0.72943725                0.20133967                0.20145429               -0.67128209               -0.00001366                0.08781376               -0.00325626
              10.94945644                9.04474029               38.58274267                0.73574596                0.25929340                0.25953415               -0.86468557                0.00025830                0.04820400               -0.00620098
              11.95233801                9.04629501               38.48855622                0.87042999                0.28815725                0.31893457               -1.05806064                0.00085259                0.02307943               -0.01319576
               1.94763820               10.02766968               39.42180150                0.93534226               -0.23159680               -0.26408373                0.87122277                0.03029209                0.02317409                0.01058158
               2.94532223               10.02994140               39.32751115                0.86784583               -0.20251285               -0.20336341                0.67786951                0.02928240                0.06439799                0.00310409
               3.94358795               10.03215606               39.23397714                0.86451137               -0.14468930               -0.14618833                0.48475287                0.02837232                0.11764196                0.00237482
               4.94242845               10.03436018               39.14070071                0.86232972               -0.08711323               -0.08809586                0.29153314                0.02878187                0.14001793                0.00134325
               5.94184568               10.03655065               39.04758029                0.86104145               -0.02937784               -0.03008202                0.09825408                0.02883375                0.15178122                0.00052357
               6.94184089               10.03872925               38.95452224                0.86063741                0.02843826                0.02796316               -0.09506606                0.02887453                0.15355100               -0.00022736
               7.94241445               10.04089649               38.86143741                0.86111424                0.08628436                0.08601009               -0.28841690                0.02888285                0.14555655               -0.00100800
               8.94356658               10.04305307               38.76823676                0.86247399                0.14414006                0.14404813               -0.48179112                0.02888864                0.12757043               -0.00193885
               9.94529725               10.04520039               38.67482659                0.86472368                0.20200123                0.20210618               -0.67517866                0.02886270                0.09879558               -0.00323065
              10.94760660               10.04734011               38.58110192                0.86787696                0.25987761                0.25998173               -0.86856477                0.02971151                0.05672204               -0.00528448
              11.95049480               10.04949429               38.48691888                0.93521664                0.28881961                0.31992789               -1.06193634                0.03109671                0.02951718               -0.01150222
               2.03622542                0.05630155               40.44992437                0.93533712               -0.23991885               -0.27059198                0.89724772               -0.03077681                0.01901408               -0.00491486
               3.03382623                0.05271073               40.35391209                0.86793849               -0.21140242               -0.21114669                0.70680767               -0.02909435                0.04480308               -0.00482518
               4.03199737                0.04914138               40.25834351                0.86464833               -0.15448949               -0.15445824                0.51647710               -0.02830062                0.08147358               -0.00218795
               5.03073644                0.04556190               40.16300975                0.86240059               -0.09764405               -0.09727315                0.32613272               -0.02848831                0.10204862               -0.00127738
               6.03004449                0.04197220               40.06781492                0.86106670               -0.04070000               -0.04014730                0.13577237               -0.02851370                0.11300345               -0.00056654
               7.02992244                0.03837072               39.97267968                0.86064084                0.01630419                0.01699494               -0.05460306               -0.02853690                0.11535659                0.00003200
               8.03037057                0.03475704               39.87752851                0.86112063                0.07332672                0.07413846               -0.24499561               -0.02853878                0.10936996                0.00058945
               9.03138897                0.03113066               39.78228733                0.86250798                0.13034069                0.13127444               -0.43540798               -0.02854617                0.09507560                0.00115369
              10.03297739                0.02749019               39.68688126                0.86480760                0.18735356                0.18845638               -0.62584070               -0.02848917                0.07229892                0.00178063
              11.03513605                0.02383481               39.59123272                0.86802918                0.24429571                0.24536244               -0.81628957               -0.02923382                0.04040541                0.00250210
              12.03786330                0.02014358               39.49525415                0.93532045                0.27272549                0.30466806               -1.00675300               -0.02930094                0.01977767                0.00420091
               2.03950847                1.05359563               40.44804947                0.87053076               -0.23931004               -0.26951250                0.89341902               -0.00073968                0.01560727               -0.00389415
               3.03711537                1.05059926               40.35201829                0.73557175               -0.21098485               -0.21075339                0.70297075               -0.00016006                0.04267590               -0.00487086
               4.03528878                1.04759680               40.25645658                0.72904425               -0.15396135               -0.15374377                0.51263607                0.00005287                0.07976138               -0.00214032
               5.03403615                1.04458917               40.16111230                0.72467571               -0.09669177               -0.09665185                0.32227177                0.00016799                0.09934677               -0.00108735
               6.03335494                1.04157073               40.06590479                0.72208650               -0.03957472               -0.03954374                0.13188996                0.00011656                0.11011352               -0.00054813
               7.03324465                1.03854067               39.97075557                0.72126183                0.01751388                0.01758131               -0.05850726                0.00008185                0.11235431               -0.00024649
               8.03370522                1.03549842               39.87558983                0.72219638                0.07461430                0.07471226               -0.24892185                0.00005417                0.10631264               -0.00004625
               9.03473694                1.03244340               39.78033395                0.72489397                0.13175995                0.13184392               -0.43935658                0.00002277                0.09201188                0.00015347
              10.03634042                1.02937475               39.68491360                0.72936615                0.18900375                0.18899419               -0.62981186               -0.00015922                0.06926783                0.00045959
              11.03851701                1.02628843               39.58925149                0.73563474                0.24605530                0.24620812               -0.82028291               -0.00023588                0.03784266                0.00103212
              12.04126152                1.02319026               39.49326856                0.87035849                0.27445109                0.30472161               -1.01075394                0.00062645                0.01764922                0.00240080
               2.04220337                2.05091130               40.44611365                0.87038598               -0.23815007               -0.26766120                0.88957996               -0.00080107                0.01274562               -0.00279607
               3.03982187                2.04849566               40.35006015                0.73526435               -0.20974240               -0.20990341                0.69913184               -0.00032040                0.04220560               -0.00364851
               4.03800852                2.04606650               40.25452430                0.72878976               -0.15279980               -0.15253666                0.50882054               -0.00011647                0.08086530               -0.00201865
               5.03676587                2.04362887               40.15918958                0.72454852               -0.09566000               -0.09544813                0.31843762                0.00007667                0.09919847               -0.00099636
               6.03609532                2.04118133               40.06398319                0.72203808               -0.03847441               -0.03835087                0.12802576                0.00011337                0.10933706               -0.00053469
               7.03599638                2.03872235               39.96883130                0.72124137                0.01868057                0.01876011               -0.06240550                0.00007825                0.11128061               -0.00036549
               8.03646893                2.03625128               39.87366108                0.72215157                0.07583600                0.07588343               -0.25285557                0.00002126                0.10511681               -0.00034873
               9.03751310                2.03376753               39.77840045                0.72477281                0.13301195                0.13302395               -0.44332602               -0.00009174                0.09084799               -0.00037754
              10.03912917                2.03127007               39.68297663                0.72911861                0.19013606                0.19021339               -0.63381513               -0.00027348                0.06835274               -0.00033484
              11.04131582                2.02875897               39.58731513                0.73521406                0.24715070                0.24768500               -0.82431105               -0.00037664                0.03743138               -0.00004103
              12.04407218                2.02623801               39.49133913                0.87007771                0.27563602                0.30523327               -1.01478164                0.00033353                0.01753586                0.00062179
               2.04432374                3.04824241               40.44418003                0.87038170               -0.23699703               -0.26623845                0.88572421               -0.00069162                0.01309305                0.00212607
               3.04195377                3.04640120               40.34812762                0.73525609               -0.20852463               -0.20889310                0.69528259               -0.00023399                0.04258845                0.00107915
               4.04015324                3.04454606               40.25259394                0.72878103               -0.15154535               -0.15152519                0.50497063               -0.00021636                0.08147611                0.00053960
               5.03892286                3.04268021               40.15726527                0.72453951               -0.09447590               -0.09431451                0.31457941               -0.00006410                0.09983184                0.00034775
               6.03826373                3.04080371               40.06206187                0.72202951               -0.03732996               -0.03718021                0.12414877               -0.00000034                0.10968020                0.00008542
               7.03817626                3.03891588               39.96691058                0.72123410                0.01983678                0.01994570               -0.06630632               -0.00001050                0.11140594               -0.00030283
               8.03866046                3.03701609               39.87173934                0.72214685                0.07700281                0.07708496               -0.25678218               -0.00006858                0.10509241               -0.00081796
               9.03971632                3.03510388               39.77647666                0.72477091                0.13415252                0.13426055               -0.44727813               -0.00016552                0.09073996               -0.00145942
              10.04134351                3.03317902               39.68105052                0.72912088                0.19126139                0.19152734               -0.63778906               -0.00027127                0.06823974               -0.00221298
              11.04354154                3.03124213               39.58538721                0.73522005                0.24833048                0.24890101               -0.82829803               -0.00023746                0.03736566               -0.00305605
              12.04631012                3.02929492               39.48941016                0.87008183                0.27685776                0.30622522               -1.01876935                0.00046064                0.01748953               -0.00399149
               2.04587196                4.04558654               40.44226244                0.87037752               -0.23584317               -0.26498358                0.88185894               -0.00063167                0.01330539                0.00734802
               3.04351353                4.04431780               40.34620115                0.73524814               -0.20733935               -0.20776122                0.69141803               -0.00012777                0.04321665                0.00457988
               4.04172518                4.04303600               40.25066726                0.72877391               -0.15032952               -0.15044750                0.50110446               -0.00016663                0.08265607                0.00292001
               5.04050694                4.04174258               40.15534112                0.72453289               -0.09327658               -0.09319815                0.31070643               -0.00012330                0.10119676                0.00168966
               6.03985965                4.04043772               40.06014159                0.72202407               -0.03615759               -0.03601930                0.12026341               -0.00009783                0.11107028                0.00070460
               7.03978379                4.03912126               39.96499368                0.72123019                0.02099549                0.02112928               -0.07020826               -0.00010592                0.11269053               -0.00023592
               8.04027956                4.03779298               39.86982455                0.72214481                0.07815367                0.07828847               -0.26070264               -0.00013511                0.10620086               -0.00127592
               9.04134686                4.03645274               39.77456210                0.72477164                0.13529670                0.13549305               -0.45121676               -0.00017237                0.09161978               -0.00253611
              10.04298549                4.03510062               39.67913384                0.72912464                0.19241534                0.19276296               -0.64174260               -0.00018594                0.06885060               -0.00412149
              11.04519517                4.03373699               39.58346572                0.73522660                0.24951645                0.25007034               -0.83226069               -0.00013127                0.03767823               -0.00611853
              12.04797582                4.03236251               39.48748095                0.87008579                0.27806480                0.30732536               -1.02273362                0.00052524                0.01763771               -0.00858424
               2.04684857                5.04294274               40.44035344                0.87037329               -0.23468267               -0.26379996                0.87798439               -0.00059336                0.01366274                0.01174673
               3.04450175                5.04224597               40.34427610                0.73524108               -0.20617187               -0.20659971                0.68754092               -0.00003340                0.04421139                0.00740996
               4.04272513                5.04153711               40.24873926                0.72876837               -0.14915368               -0.14930109                0.49722608               -0.00007945                0.08456286                0.00472299
               5.04151867                5.04081625               40.15341567                0.72452882               -0.09210267               -0.09204474                0.30682352               -0.00012559                0.10352159                0.00274293
               6.04088308                5.04008332               40.05822191                0.72202142               -0.03498959               -0.03485238                0.11637256               -0.00016519                0.11358873                0.00119938
               7.04081888                5.03933846               39.96308079                0.72122913                0.02215986                0.02230635               -0.07411022               -0.00018434                0.11518830               -0.00017699
               8.04132628                5.03858186               39.86791738                0.72214586                0.07931765                0.07947389               -0.26461737               -0.00017759                0.10848335               -0.00164093
               9.04240523                5.03781374               39.77265775                0.72477469                0.13646340                0.13668491               -0.45514409               -0.00014504                0.09351379               -0.00343034
              10.04405555                5.03703428               39.67722779                0.72912960                0.19358953                0.19395164               -0.64568074               -0.00009426                0.07020571               -0.00577168
              11.04627702                5.03624354               39.58155208                0.73523354                0.25070189                0.25124321               -0.83620662               -0.00004172                0.03838148               -0.00886367
              12.04906958                5.03544143               39.48555293                0.87009009                0.27925605                0.30848293               -1.02668328                0.00057377                0.01798366               -0.01283956
               2.04725363                6.04031054               40.43844438                0.87036912               -0.23351432               -0.26266737                0.87410043               -0.00055196                0.01418752                0.01508055
               3.04491849                6.04018581               40.34234405                0.73523410               -0.20501599               -0.20542670                0.68365102                0.00006533                0.04569469                0.00921928
               4.04315331                6.04004998               40.24680374                0.72876359               -0.14801342               -0.14809672                0.49333675                0.00000915                0.08741871                0.00576075
               5.04195822                6.03990168               40.15148495                0.72452664               -0.09095927               -0.09084672                0.30293284               -0.00012880                0.10703054                0.00330509
               6.04133413                6.03974067               40.05630113                0.72202123               -0.03383269               -0.03367189                0.11247783               -0.00023030                0.11743554                0.00146370
               7.04128157                6.03956739               39.96117192                0.72123118                0.02332991                0.02347510               -0.07801140               -0.00025743                0.11906356               -0.00013196
               8.04180073                6.03938246               39.86601938                0.72214924                0.08049892                0.08063420               -0.26852650               -0.00021562                0.11208954               -0.00181934
               9.04289155                6.03918644               39.77076665                0.72477954                0.13765395                0.13783652               -0.45906149               -0.00011709                0.09656024               -0.00393454
              10.04455380                6.03897965               39.67533672                0.72913565                0.19478198                0.19510516               -0.64960586               -0.00000113                0.07241787               -0.00683495
              11.04678718                6.03876185               39.57965158                0.73524121                0.25188557                0.25242289               -0.84013847                0.00005269                0.03954022               -0.01087095
              12.04959152                6.03853217               39.48363176                0.87009443                0.28043307                0.30969466               -1.03062123                0.00062727                0.01856235               -0.01630060
               2.04708699                7.03768939               40.43652297                0.87036508               -0.23233830               -0.26161756                0.87020439               -0.00048474                0.01494590                0.01691113
               3.04476361                7.03813744               40.34039335                0.73522789               -0.20387751               -0.20421646                0.67974612                0.00018020                0.04784454                0.00962299
               4.04300944                7.03857518               40.24485195                0.72876055               -0.14691043               -0.14682311                0.48943545                0.00005439                0.09153127                0.00577724
               5.04182540                7.03899931               40.14954347                0.72452671               -0.08983381               -0.08962205                0.29903412               -0.00019119                0.11203419                0.00325230
               6.04121277                7.03940989               40.05437672                0.72202415               -0.03267280               -0.03249425                0.10857960               -0.00031407                0.12288778                0.00144247
               7.04117194                7.03980796               39.95926714                0.72123612                0.02450742                0.02463514               -0.08191132               -0.00032873                0.12456885               -0.00009460
               8.04170291                7.04019454               39.86413308                0.72215575                0.08168781                0.08178029               -0.27242958               -0.00026151                0.11727352               -0.00172985
               9.04280570                7.04057047               39.76889391                0.72478689                0.13885987                0.13895798               -0.46296844               -0.00011716                0.10102117               -0.00385292
              10.04448011                7.04093638               39.67346837                0.72914335                0.19599280                0.19621512               -0.65351733                0.00007876                0.07572225               -0.00694851
              11.04672556                7.04129200               39.57777404                0.73524954                0.25306935                0.25359755               -0.84405545                0.00016883                0.04129714               -0.01161820
              12.04954150                7.04163532               39.48172803                0.87009885                0.28159414                0.31098575               -1.03454616                0.00070636                0.01945167               -0.01837455
               2.04634785                8.03507819               40.43457177                0.87036123               -0.23115412               -0.26075829                0.86629076               -0.00036218                0.01607075                0.01662466
               3.04403630                8.03610148               40.33840790                0.73522250               -0.20276605               -0.20285809                0.67582099                0.00024616                0.05096844                0.00802201
               4.04229253                8.03711352               40.24287259                0.72875920               -0.14583071               -0.14550717                0.48551908               -0.00007803                0.09738615                0.00460967
               5.04111969                8.03810924               40.14758480                0.72452961               -0.08866653               -0.08844677                0.29512577               -0.00032153                0.11895802                0.00256822
               6.04051919                8.03909079               40.05244585                0.72203017               -0.03146783               -0.03134072                0.10467720               -0.00037940                0.13027440                0.00113873
               7.04049033                8.04006009               39.95736658                0.72124459                0.02568969                0.02578956               -0.08580975               -0.00035340                0.13200364               -0.00005669
               8.04103299                8.04101807               39.86226166                0.72216546                0.08285157                0.08293493               -0.27632544               -0.00029177                0.12437375               -0.00134151
               9.04214737                8.04196560               39.76704648                0.72479669                0.14004318                0.14009228               -0.46686265               -0.00016072                0.10731675               -0.00307425
              10.04383385                8.04290395               39.67163434                0.72915273                0.19721275                0.19728445               -0.65741127                0.00007516                0.08055989               -0.00576978
              11.04609162                8.04383381               39.57593520                0.73525834                0.25425710                0.25470648               -0.84795239                0.00028862                0.04394957               -0.01034943
              12.04891899                8.04475189               39.47985926                0.87010328                0.28273735                0.31243524               -1.03845255                0.00083839                0.02083087               -0.01816208
               2.04503316                9.03247423               40.43256619                0.87035716               -0.22999631               -0.26029119                0.86235131               -0.00042045                0.01766684                0.01226666
               3.04273320                9.03408028               40.33636410                0.73521777               -0.20165231               -0.20124247                0.67186721                0.00000168                0.05570295                0.00412316
               4.04100012                9.03566504               40.24085368                0.72876092               -0.14457515               -0.14444347                0.48158332               -0.00028184                0.10587641                0.00251775
               5.03984170                9.03723038               40.14560311                0.72453639               -0.08728967               -0.08734661                0.29120501               -0.00036745                0.12827583                0.00139410
               6.03925432                9.03878307               40.05050606                0.72204094               -0.03020493               -0.03021212                0.10076897               -0.00029045                0.13989512                0.00061931
               7.03923760                9.04032375               39.95547047                0.72125747                0.02686228                0.02694936               -0.08970685               -0.00025190                0.14164715               -0.00002204
               8.03979157                9.04185324               39.86040827                0.72217940                0.08395002                0.08411863               -0.28021253               -0.00022048                0.13374598               -0.00071794
               9.04091660                9.04337232               39.76523169                0.72481054                0.14109206                0.14128454               -0.47074071               -0.00018106                0.11601950               -0.00168715
              10.04261341                9.04488207               39.66984921                0.72916489                0.19833983                0.19845373               -0.66128159               -0.00001296                0.08781314               -0.00327768
              11.04488340                9.04638613               39.57415999                0.73526806                0.25543481                0.25567312               -0.85181923                0.00025471                0.04820238               -0.00623358
              12.04772211                9.04788403               39.47805408                0.87010776                0.28387110                0.31419242               -1.04232879                0.00083987                0.02307092               -0.01325285
               2.04312734               10.02987236               40.43044961                0.93517755               -0.22818099               -0.26018646                0.85836569                0.02984404                0.02322588                0.01062461
               3.04084553               10.03207663               40.33424002                0.86760803               -0.19952755               -0.20036475                0.66787764                0.02884698                0.06458538                0.00311625
               4.03913679               10.03422465               40.23878912                0.86438194               -0.14256107               -0.14403893                0.47762314                0.02795093                0.11790920                0.00239029
               5.03799431               10.03636231               40.14359477                0.86227153               -0.08583894               -0.08680683                0.28726675                0.02835580                0.14021396                0.00135423
               6.03742001               10.03848655               40.04855584                0.86102531               -0.02895907               -0.02965252                0.09685191                0.02840698                0.15193254                0.00052948
               7.03741512               10.04059908               39.95357888                0.86063430                0.02800049                0.02753267               -0.09360340                0.02844716                0.15366740               -0.00022725
               8.03798002               10.04270044               39.85857483                0.86109582                0.08498963                0.08471958               -0.28408903                0.02845539                0.14564249               -0.00101387
               9.03911492               10.04479129               39.76345473                0.86241106                0.14198818                0.14189780               -0.47459760                0.02846119                0.12763006               -0.00195141
              10.04081978               10.04687303               39.66812497                0.86458752                0.19899201                0.19909576               -0.66511956                0.02843577                0.09883707               -0.00325047
              11.04309476               10.04894727               39.57248074                0.86763805                0.25601052                0.25611417               -0.85564003                0.02927146                0.05675493               -0.00531277
              12.04593999               10.05103573               39.47637827                0.93505557                0.28452342                0.31517075               -1.04614604                0.03063499                0.02953611               -0.01155295
               2.13338031                0.05814642               41.45882942                0.93516996               -0.23630509               -0.26651476                0.88372713               -0.03031153                0.01906393               -0.00492162
               3.13101726                0.05457548               41.36092710                0.86769409               -0.20821982               -0.20796739                0.69616625               -0.02865406                0.04492595               -0.00482324
               4.12921591                0.05102571               41.26346956                0.86451239               -0.15216759               -0.15213697                0.50871351               -0.02787267                0.08165831               -0.00217350
               5.12797390                0.04746595               41.16624672                0.86233910               -0.09618176               -0.09581625                0.32124697               -0.02805795                0.10222868               -0.00126578
               6.12729228                0.04389612               41.06916264                0.86104943               -0.04009847               -0.03955401                0.13376454               -0.02808294                0.11317393               -0.00055925
               7.12717194                0.04031469               40.97213800                0.86063777                0.01604411                0.01672439               -0.05373266               -0.02810580                0.11551264                0.00003473
               8.12761316                0.03672123               40.87509726                0.86110173                0.07220471                0.07300403               -0.24124667               -0.02810765                0.10950496                0.00058738
               9.12861603                0.03311527               40.77796631                0.86244295                0.12835689                0.12927627               -0.42878025               -0.02811495                0.09518352                0.00114658
              10.13018030                0.02949545               40.68067027                0.86466670                0.18450800                0.18559381               -0.61633391               -0.02805882                0.07237726                0.00176858
              11.13230619                0.02586095               40.58313160                0.86778166                0.24058919                0.24163960               -0.80390356               -0.02879190                0.04045295                0.00248540
              12.13499208                0.02219115               40.48526277                0.93515363                0.26858899                0.30004855               -0.99148759               -0.02885755                0.01979816                0.00419404
               2.13664813                1.05548127               41.45691653                0.87020070               -0.23570584               -0.26545148                0.87995735               -0.00072790                0.01563423               -0.00388507
               3.13429107                1.05249581               41.35899522                0.73509211               -0.20780898               -0.20758050                0.69238840               -0.00015743                0.04277790               -0.00485337
               4.13249195                1.04950434               41.26154452                0.72878012               -0.15164743               -0.15143344                0.50493144                0.00005188                0.07991950               -0.00210084
               5.13125812                1.04650779               41.16431094                0.72455666               -0.09524345               -0.09520466                0.31744514                0.00016501                0.09949159               -0.00105445
               6.13058708                1.04350058               41.06721398                0.72205298               -0.03898998               -0.03895983                0.12994161                0.00011411                0.11024772               -0.00052814
               7.13047832                1.04048193               40.97017514                0.72125582                0.01723546                0.01730173               -0.05757709                0.00007983                0.11247363               -0.00024146
               8.13093179                1.03745127               40.87311962                0.72215967                0.07347253                0.07356912               -0.24511284                0.00005256                0.10641050               -0.00005696
               9.13194777                1.03440804               40.77597375                0.72476747                0.12975413                0.12983724               -0.43266853                0.00002170                0.09208245                0.00012675
              10.13352687                1.03135139               40.67866320                0.72909163                0.18613242                0.18612369               -0.62024452               -0.00015738                0.06930883                0.00041795
              11.13567042                1.02827734               40.58111074                0.73515286                0.24232152                0.24247275               -0.80783610               -0.00023233                0.03786004                0.00098025
              12.13837330                1.02519163               40.48323747                0.87003353                0.27028813                0.30010104               -0.99542769                0.00061750                0.01764662                0.00235841
               2.13933667                2.05283739               41.45494261                0.87006051               -0.23456364               -0.26362827                0.87617751               -0.00078873                0.01276253               -0.00277950
               3.13699104                2.05042387               41.35699899                0.73479489               -0.20658541               -0.20674401                0.68860852               -0.00031562                0.04230903               -0.00362058
               4.13520496                2.04799704               41.25957437                0.72853371               -0.15050353               -0.15024485                0.50117457               -0.00011495                0.08101541               -0.00197125
               5.13398097                2.04556186               41.16235018                0.72443323               -0.09422740               -0.09401958                0.31366990                0.00007490                0.09930865               -0.00095415
               6.13332042                2.04311692               41.06525403                0.72200592               -0.03790636               -0.03778540                0.12613663                0.00011072                0.10942890               -0.00050845
               7.13322284                2.04066072               40.96821219                0.72123542                0.01838436                0.01846241               -0.06141563                0.00007597                0.11135483               -0.00035952
               8.13368810                2.03819261               40.87115183                0.72211545                0.07467549                0.07472242               -0.24898642                0.00001984                0.10516860               -0.00036460
               9.13471635                2.03571202               40.77400085                0.72465001                0.13098687                0.13099941               -0.43657745               -0.00009126                0.09087322               -0.00041524
              10.13630784                2.03321792               40.67668651                0.72885213                0.18724727                0.18732449               -0.62418684               -0.00026989                0.06835384               -0.00039164
              11.13846129                2.03071040               40.57913441                0.73474544                0.24340017                0.24392726               -0.81180305               -0.00037111                0.03742581               -0.00010779
              12.14117584                2.02819317               40.48126806                0.86976174                0.27145506                0.30060487               -0.99939441                0.00032835                0.01752275                0.00056381
               2.14145939                3.05020870               41.45297073                0.87005659               -0.23342821               -0.26222740                0.87238078               -0.00068093                0.01311049                0.00215031
               3.13912510                3.04836093               41.35502827                0.73478623               -0.20538626               -0.20574931                0.68481838               -0.00023047                0.04268881                0.00111073
               4.13735166                3.04649944               41.25760581                0.72852526               -0.14926829               -0.14924893                0.49738389               -0.00021337                0.08161570                0.00057393
               5.13613974                3.04462740               41.16038759                0.72442444               -0.09306145               -0.09290326                0.30987085               -0.00006365                0.09992235                0.00037849
               6.13549043                3.04274487               41.06329424                0.72199699               -0.03677944               -0.03663265                0.12231905               -0.00000109                0.10974464                0.00010466
               7.13540415                3.04085118               40.96625275                0.72122822                0.01952288                0.01962984               -0.06525671               -0.00001124                0.11144930               -0.00029952
               8.13588089                3.03894572               40.86919112                0.72211058                0.07582446                0.07590554               -0.25285291               -0.00006835                0.10511242               -0.00083239
               9.13692064                3.03702802               40.77203785                0.72464806                0.13211004                0.13221701               -0.44046904               -0.00016361                0.09073510               -0.00149118
              10.13852309                3.03509788               40.67472095                0.72885401                0.18835556                0.18861819               -0.62810007               -0.00026750                0.06821689               -0.00225865
              11.14068775                3.03315589               40.57716692                0.73475127                0.24456207                0.24512442               -0.81572926               -0.00023394                0.03734680               -0.00310842
              12.14341433                3.03120373               40.47929953                0.86976572                0.27265819                0.30158188               -1.00332121                0.00045358                0.01746924               -0.00404062
               2.14301861                4.04759284               41.45101478                0.87005233               -0.23229200               -0.26099183                0.86857467               -0.00062202                0.01332203                0.00738332
               3.14069569                4.04630888               41.35306345                0.73477893               -0.20421914               -0.20463481                0.68101315               -0.00012598                0.04331493                0.00461381
               4.13893423                4.04501206               41.25564077                0.72851822               -0.14807112               -0.14818776                0.49357718               -0.00016437                0.08278978                0.00295215
               5.13773427                4.04370379               41.15842500                0.72441813               -0.09188053               -0.09180395                0.30605720               -0.00012179                0.10127592                0.00171584
               6.13709661                4.04238427               41.06133540                0.72199182               -0.03562505               -0.03548947                0.11849318               -0.00009686                0.11111841                0.00072041
               7.13702176                4.04105332               40.96429714                0.72122406                0.02066387                0.02079532               -0.06909893               -0.00010488                0.11271448               -0.00023410
               8.13750989                4.03971072               40.86723743                0.72210864                0.07695778                0.07709060               -0.25671341               -0.00013353                0.10620063               -0.00128974
               9.13856092                4.03835636               40.77008420                0.72464868                0.13323678                0.13343053               -0.44434729               -0.00017007                0.09159647               -0.00256515
              10.14017463                4.03699029               40.67276504                0.72885767                0.18949194                0.18983470               -0.63199300               -0.00018329                0.06881350               -0.00416316
              11.14235076                4.03561289               40.57520611                0.73475782                0.24572998                0.24627573               -0.81963134               -0.00012938                0.03765135               -0.00616869
              12.14508923                4.03422481               40.47733096                0.86976971                0.27384684                0.30266520               -1.00722492                0.00051714                0.01761297               -0.00863711
               2.14401485                5.04498887               41.44906733                0.87004817               -0.23114930               -0.25982641                0.86475967               -0.00058439                0.01367969                0.01179328
               3.14170336                5.04426823               41.35109992                0.73477200               -0.20306952               -0.20349111                0.67719539               -0.00003313                0.04431053                0.00744753
               4.13995346                5.04353569               41.25367428                0.72851291               -0.14691328               -0.14705884                0.48975806               -0.00007849                0.08469630                0.00475554
               5.13876509                5.04279132               41.15646102                0.72441357               -0.09072466               -0.09066820                0.30223396               -0.00012389                0.10359708                0.00276786
               6.13813897                5.04203508               41.05937711                0.72198930               -0.03447495               -0.03434041                0.11466196               -0.00016291                0.11362980                0.00121385
               7.13807560                5.04126709               40.96234552                0.72122309                0.02181043                0.02195439               -0.07294121               -0.00018172                0.11520269               -0.00017577
               8.13857518                5.04048753               40.86529140                0.72210931                0.07810396                0.07825791               -0.26056834               -0.00017506                0.10847284               -0.00165439
               9.13963768                5.03969663               40.76814088                0.72465146                0.13438569                0.13460414               -0.44821466               -0.00014300                0.09348105               -0.00345853
              10.14126289                5.03889457               40.67081992                0.72886247                0.19064822                0.19100516               -0.63587094               -0.00009291                0.07016137               -0.00581342
              11.14345064                5.03808140               40.57325331                0.73476466                0.24689732                0.24743063               -0.82351684               -0.00004107                0.03835074               -0.00891675
              12.14620084                5.03725704               40.47536375                0.86977370                0.27501990                0.30380511               -1.01111421                0.00056505                0.01795683               -0.01290155
               2.14444819                6.04239631               41.44711973                0.87004418               -0.22999885               -0.25871116                0.86093524               -0.00054363                0.01420561                0.01513707
               3.14214820                6.04223906               41.34912926                0.73476548               -0.20193136               -0.20233604                0.67336505                0.00006416                0.04579811                0.00925928
               4.14040957                6.04207089               41.25170016                0.72850833               -0.14579051               -0.14587287                0.48592818                0.00000876                0.08755854                0.00579376
               5.13923239                6.04189043               41.15449169                0.72441177               -0.08959877               -0.08948851                0.29840274               -0.00012698                0.10711011                0.00332971
               6.13861759                6.04169746               41.05741768                0.72198943               -0.03333575               -0.03317800                0.11082686               -0.00022673                0.11747814                0.00147772
               7.13856568                6.04149241               40.96039794                0.72122511                0.02296256                0.02310525               -0.07678268               -0.00025333                0.11907742               -0.00013072
               8.13907684                6.04127588               40.86335461                0.72211293                0.07926712                0.07940047               -0.26441762               -0.00021218                0.11207743               -0.00183236
               9.14015102                6.04104844               40.76621090                0.72465663                0.13555800                0.13573817               -0.45207214               -0.00011527                0.09652587               -0.00396235
              10.14178800                6.04081039               40.66888989                0.72886831                0.19182248                0.19214112               -0.63973629               -0.00000111                0.07237279               -0.00687738
              11.14398747                6.04056150               40.57131378                0.73477201                0.24806294                0.24859232               -0.82738880                0.00005195                0.03950963               -0.01092781
              12.14674926                6.04030091               40.47340350                0.86977780                0.27617892                0.30499827               -1.01499176                0.00061772                0.01853587               -0.01637271
               2.14431848                7.03981464               41.44515965                0.87004041               -0.22884082               -0.25767740                0.85709884               -0.00047742                0.01496637                0.01697328
               3.14203007                7.04022151               41.34713982                0.73475937               -0.20081036               -0.20114426                0.66951986                0.00017733                0.04795652                0.00966155
               4.14030227                7.04061823               41.24970966                0.72850539               -0.14470446               -0.14461880                0.48208666                0.00005333                0.09168532                0.00580863
               5.13913598                7.04100155               41.15251152                0.72441178               -0.08849055               -0.08828266                0.29456370               -0.00018831                0.11212633                0.00327573
               6.13853246                7.04137152               41.05545458                0.72199224               -0.03219361               -0.03201842                0.10698825               -0.00030896                0.12294077                0.00145589
               7.13849211                7.04172919               40.95845446                0.72123013                0.02412203                0.02424752               -0.08062287               -0.00032320                0.12459118               -0.00009312
               8.13901490                7.04207554               40.86142958                0.72211942                0.08043779                0.08052904               -0.26826090               -0.00025708                0.11726866               -0.00174172
               9.14010086                7.04241140               40.76429939                0.72466320                0.13674543                0.13684259               -0.45591934               -0.00011510                0.10099347               -0.00387888
              10.14174981                7.04273739               40.66698273                0.72887589                0.19301470                0.19323424               -0.64358785                0.00007766                0.07568299               -0.00698943
              11.14396116                7.04305325               40.56939738                0.73477991                0.24922850                0.24974907               -0.83124567                0.00016619                0.04127049               -0.01167609
              12.14673438                7.04335700               40.47146082                0.86978240                0.27732212                0.30626963               -1.01885651                0.00069549                0.01942800               -0.01845367
               2.14362491                8.03724276               41.44316962                0.87003652               -0.22767483               -0.25683134                0.85324506               -0.00035670                0.01609541                0.01668551
               3.14134816                8.03821618               41.34511542                0.73475406               -0.19971602               -0.19980643                0.66565480                0.00024218                0.05109464                0.00805227
               4.13963059                8.03917851               41.24769143                0.72850442               -0.14364135               -0.14332309                0.47823025               -0.00007720                0.09756408                0.00463565
               5.13847534                8.04012478               41.15051406                0.72441483               -0.08734112               -0.08712549                0.29071521               -0.00031650                0.11907250                0.00258813
               6.13788377                8.04105709               41.05348499                0.72199860               -0.03100712               -0.03088258                0.10314563               -0.00037304                0.13034758                0.00115033
               7.13785520                8.04197736               40.95651522                0.72123855                0.02528613                0.02538429               -0.08446162               -0.00034726                0.13204443               -0.00005506
               8.13838949                8.04288646               40.85951950                0.72212882                0.08158367                0.08166604               -0.27209713               -0.00028658                0.12438617               -0.00135097
               9.13948687                8.04378529               40.76241331                0.72467310                0.13791058                0.13795966               -0.45975421               -0.00015771                0.10730503               -0.00309564
              10.14114770                8.04467507               40.66511005                0.72888507                0.19421587                0.19428744               -0.64742238                0.00007421                0.08053425               -0.00580451
              11.14337119                8.04555648               40.56751986                0.73478815                0.25039800                0.25084127               -0.83508309                0.00028417                0.04393181               -0.01040103
              12.14615566                8.04642630               40.46955329                0.86978639                0.27844785                0.30769709               -1.02270368                0.00082562                0.02081292               -0.01824000
               2.14236451                9.03467802               41.44112494                0.87003290               -0.22653480               -0.25637163                0.84936568               -0.00041415                0.01769725                0.01231217
               3.14009917                9.03622538               41.34303237                0.73474957               -0.19861940               -0.19821492                0.66176139                0.00000092                0.05585086                0.00413739
               4.13839213                9.03775177               41.24563347                0.72850627               -0.14240497               -0.14227599                0.47435469               -0.00027803                0.10609055                0.00253355
               5.13725107                9.03925904               41.14849347                0.72442197               -0.08598537               -0.08604213                0.28685436               -0.00036170                0.12842366                0.00140644
               6.13667242                9.04075387               41.05150641                0.72200910               -0.02976376               -0.02977117                0.09929724               -0.00028548                0.13999965                0.00062660
               7.13665579                9.04223688               40.95458043                0.72125157                0.02644066                0.02652637               -0.08829906               -0.00024742                0.14171796               -0.00002075
               8.13720123                9.04370886               40.85762754                0.72214293                0.08266535                0.08283161               -0.27592473               -0.00021638                0.13378733               -0.00072347
               9.13830910                9.04517059               40.76056004                0.72468706                0.13894348                0.13913358               -0.46357268               -0.00017760                0.11603543               -0.00169995
              10.13998010                9.04662314               40.66328651                0.72889693                0.19532566                0.19543882               -0.65123331               -0.00001243                0.08781226               -0.00329867
              11.14221561                9.04807007               40.56570629                0.73479792                0.25155762                0.25179349               -0.83889092                0.00025104                0.04820085               -0.00626594
              12.14501125                9.04951094               40.46770965                0.86979087                0.27956422                0.30942729               -1.02652058                0.00082716                0.02306283               -0.01330961
               2.14052190               10.03211533               41.43896881                0.93501528               -0.22474700               -0.25626867                0.84544073                0.02939360                0.02327657                0.01066765
               3.13827443               10.03425188               41.34086870                0.86737413               -0.19652640               -0.19735022                0.65783258                0.02840949                0.06477010                0.00312848
               4.13659137               10.03633299               41.24352960                0.86425473               -0.14042144               -0.14187789                0.47045503                0.02752750                0.11817287                0.00240549
               5.13546600               10.03840393               41.14644605                0.86221444               -0.08455748               -0.08551051                0.28297631                0.02792755                0.14040719                0.00136510
               6.13490022               10.04046167               41.04951733                0.86100933               -0.02853741               -0.02922007                0.09544006                0.02797798                0.15208171                0.00053526
               7.13489525               10.04250788               40.95265017                0.86063126                0.02756132                0.02710078               -0.09213595                0.02801761                0.15378221               -0.00022705
               8.13545145               10.04454310               40.85575563                0.86107748                0.08368914                0.08342333               -0.27974189                0.02802585                0.14572732               -0.00101990
               9.13656904               10.04656796               40.75874480                0.86234911                0.13982614                0.13973732               -0.46737014                0.02803161                0.12768897               -0.00196367
              10.13824797               10.04858385               40.66152420                0.86445354                0.19596836                0.19607088               -0.65501211                0.02800660                0.09887765               -0.00326956
              11.14048840               10.05059235               40.56398912                0.86740278                0.25212479                0.25222795               -0.84265294                0.02882918                0.05678697               -0.00534082
              12.14329047               10.05261485               40.46599595                0.93489695                0.28020643                0.31039047               -1.03027875                0.03017094                0.02955491               -0.01160331
               2.23241134                0.06002891               42.46759892                0.93500539               -0.23267284               -0.26241674                0.87013763               -0.02984402                0.01911305               -0.00492812
               3.23008461                0.05647803               42.36783542                0.86745364               -0.20502080               -0.20477172                0.68547007               -0.02821154                0.04504724               -0.00482094
               4.22831092                0.05294800               42.26851778                0.86437902               -0.14983345               -0.14980348                0.50090917               -0.02744250                0.08184064               -0.00215894
               5.22708794                0.04940814               42.16943469                0.86227879               -0.09471152               -0.09435142                0.31633470               -0.02762542                0.10240615               -0.00125437
               6.22641669                0.04585834               42.07049021                0.86103243               -0.03949331               -0.03895707                0.13174453               -0.02765004                0.11334193               -0.00055205
               7.22629807                0.04229712               41.97160503                0.86063451                0.01578339                0.01645321               -0.05286024               -0.02767251                0.11566655                0.00003739
               8.22673236                0.03872407               41.87270358                0.86108297                0.07107782                0.07186469               -0.23748151               -0.02767434                0.10963806                0.00058542
               9.22771963                0.03513871               41.77371172                0.86237896                0.12636397                0.12726893               -0.42212214               -0.02768157                0.09529002                0.00113971
              10.22925964                0.03153969               41.67455458                0.86452777                0.18164905                0.18271782               -0.60678261               -0.02762629                0.07245473                0.00175634
              11.23135261                0.02792624               41.57515465                0.86753803                0.23686504                0.23789903               -0.79145870               -0.02834773                0.04049980                0.00246854
              12.23399694                0.02427806               41.47542440                0.93498939                0.26443275                0.29540690               -0.97614917               -0.02841200                0.01981818                0.00418717
               2.23566377                1.05740474               42.46564862                0.86987626               -0.23208305               -0.26136965                0.86642676               -0.00071611                0.01566098               -0.00387581
               3.23334294                1.05443031               42.36586606                0.73462101               -0.20461663               -0.20439121                0.68175128               -0.00015468                0.04287866               -0.00483591
               4.23157144                1.05144997               42.26655521                0.72852059               -0.14932134               -0.14911100                0.49718636                0.00005100                0.08007541               -0.00206175
               5.23035652                1.04846462               42.16746120                0.72443955               -0.09378731               -0.09374963                0.31259237                0.00016206                0.09963417               -0.00102197
               6.22969570                1.04546877               42.06850362                0.72202020               -0.03840171               -0.03837234                0.12798134                0.00011168                0.11037992               -0.00050845
               7.22958848                1.04246165               41.96960403                0.72124994                0.01695631                0.01702145               -0.05664461                0.00007789                0.11259137               -0.00023651
               8.23003482                1.03944271               41.87068758                0.72212309                0.07232578                0.07242098               -0.24128727                0.00005105                0.10650704               -0.00006751
               9.23103500                1.03641139               41.77168058                0.72464336                0.12773911                0.12782127               -0.42594965                0.00002072                0.09215186                0.00010045
              10.23258960                1.03336687               41.67250871                0.72882185                0.18324763                0.18323965               -0.61063221               -0.00015549                0.06934923                0.00037669
              11.23469995                1.03030523               41.57309476                0.73467910                0.23856996                0.23871953               -0.79532998               -0.00022870                0.03787722                0.00092870
              12.23736100                1.02723213               41.47336001                0.86971422                0.26610523                0.29545823               -0.98002778                0.00060851                0.01764398                0.00231614
               2.23834587                2.05480152               42.46363720                0.86974056               -0.23095859               -0.25957459                0.86270603               -0.00077638                0.01277898               -0.00276326
               3.23603629                2.05239021               42.36383232                0.73433274               -0.20341201               -0.20356822                0.67803053               -0.00031087                0.04241098               -0.00359309
               4.23427763                2.04996579               42.26454779                0.72828217               -0.14819520               -0.14794102                0.49348844               -0.00011344                0.08116342               -0.00192452
               5.23307238                2.04753314               42.16546298                0.72431987               -0.09278707               -0.09258325                0.30887625                0.00007320                0.09941707               -0.00091256
               6.23242189                2.04509089               42.06650593                0.72197410               -0.03733486               -0.03721641                0.12423583                0.00010813                0.10951930               -0.00048255
               7.23232568                2.04263755               41.96760299                0.72122953                0.01808737                0.01816393               -0.06042318                0.00007374                0.11142806               -0.00035363
               8.23278364                2.04017249               41.86868135                0.72208012                0.07350994                0.07355633               -0.24510039                0.00001852                0.10521967               -0.00038039
               9.23379588                2.03769513               41.76966890                0.72452916                0.12895248                0.12896544               -0.42979762               -0.00009064                0.09089791               -0.00045251
              10.23536269                2.03520449               41.67049290                0.72858981                0.18434496                0.18442188               -0.61451318               -0.00026620                0.06835464               -0.00044755
              11.23748278                2.03270063               41.57107907                0.73428492                0.23963178                0.24015153               -0.79923538               -0.00036560                0.03741992               -0.00017394
              12.24015532                2.03018722               41.47135124                0.86945096                0.26725402                0.29595414               -0.98393289                0.00032311                0.01750924                0.00050605
               2.24047087                3.05221325               42.46162764                0.86973631               -0.22984097               -0.25819579                0.85896892               -0.00067026                0.01312793                0.00217387
               3.23817246                3.05035895               42.36182399                0.73432490               -0.20223157               -0.20258922                0.67429983               -0.00022712                0.04278801                0.00114188
               4.23642624                3.04849115               42.26254161                0.72827380               -0.14697918               -0.14696062                0.48975690               -0.00021042                0.08175331                0.00060793
               5.23523287                3.04661296               42.16346269                0.72431088               -0.09163931               -0.09148429                0.30513655               -0.00006311                0.10001141                0.00040866
               6.23459345                3.04472444               42.06450825                0.72196559               -0.03622554               -0.03608165                0.12047795               -0.00000178                0.10980812                0.00012364
               7.23450836                3.04282493               41.96560544                0.72122225                0.01920813                0.01931314               -0.06420431               -0.00001192                0.11149199               -0.00029627
               8.23497761                3.04091384               41.86668228                0.72207488                0.07464102                0.07472099               -0.24890668               -0.00006811                0.10513213               -0.00084674
               9.23600118                3.03899070               41.76766728                0.72452719                0.13005818                0.13016402               -0.43362865               -0.00016168                0.09073040               -0.00152252
              10.23757878                3.03705531               41.66848851                0.72859173                0.18543605                0.18569527               -0.61836533               -0.00026366                0.06819409               -0.00230371
              11.23970991                3.03510826               41.56907262                0.73429036                0.24077570                0.24132983               -0.80310049               -0.00023041                0.03732752               -0.00316008
              12.24239429                3.03315121               41.46934374                0.86945474                0.26843853                0.29691636               -0.98779901                0.00044646                0.01744844               -0.00408879
               2.24204107                4.04963760               42.45963393                0.86973239               -0.22872259               -0.25697967                0.85522258               -0.00061227                0.01333892                0.00741853
               3.23975384                4.04833842               42.35982142                0.73431745               -0.20108271               -0.20149222                0.67055428               -0.00012417                0.04341228                0.00464744
               4.23801942                4.04702657               42.26053880                0.72826714               -0.14580072               -0.14591600                0.48600974               -0.00016213                0.08292140                0.00298386
               5.23683783                4.04570346               42.16146226                0.72430474               -0.09047686               -0.09040208                0.30138246               -0.00012030                0.10135359                0.00174174
               6.23620988                4.04436926               42.06251145                0.72196004               -0.03508917               -0.03495629                0.11671187               -0.00009584                0.11116588                0.00073597
               7.23613605                4.04302381               41.96361170                0.72121849                0.02033132                0.02046043               -0.06798654               -0.00010377                0.11273805               -0.00023232
               8.23661650                4.04166691               41.86469029                0.72207310                0.07575665                0.07588754               -0.25270688               -0.00013197                0.10620046               -0.00130345
               9.23765118                4.04029841               41.76567516                0.72452745                0.13116740                0.13135856               -0.43744637               -0.00016781                0.09157349               -0.00259390
              10.23923985                4.03891839               41.66649398                0.72859472                0.18655485                0.18689275               -0.62219777               -0.00018053                0.06877669               -0.00420445
              11.24138228                4.03752723               41.56707309                0.73429642                0.24192551                0.24246316               -0.80694204               -0.00012723                0.03762475               -0.00621791
              12.24407836                4.03612555               41.46733645                0.86945863                0.26960870                0.29798285               -0.99164197                0.00050913                0.01758868               -0.00868859
               2.24305698                5.04707366               42.45764863                0.86972848               -0.22759774               -0.25583249                0.85146714               -0.00057526                0.01369619                0.01183968
               3.24078100                5.04632910               42.35782001                0.73431064               -0.19995109               -0.20036640                0.66679622               -0.00003271                0.04440820                0.00748467
               4.23905796                5.04557283               42.25853442                0.72826159               -0.14466102               -0.14480476                0.48225052               -0.00007753                0.08482779                0.00478747
               5.23788778                5.04480491               42.15946035                0.72430090               -0.08933906               -0.08928407                0.29761902               -0.00012226                0.10367126                0.00279266
               6.23727118                5.04402531               42.06051515                0.72195764               -0.03395705               -0.03382515                0.11294043               -0.00016063                0.11367012                0.00122814
               7.23720864                5.04323414               41.96162196                0.72121732                0.02145997                0.02160141               -0.07176880               -0.00017913                0.11521676               -0.00017456
               8.23770038                5.04243159               41.86270601                0.72207359                0.07688497                0.07703662               -0.25650167               -0.00017252                0.10846234               -0.00166774
               9.23874634                5.04161787               41.76369346                0.72453031                0.13229847                0.13251386               -0.44125360               -0.00014084                0.09344880               -0.00348642
              10.24034635                5.04079317               41.66451037                0.72859967                0.18769321                0.18804490               -0.62601543               -0.00009142                0.07011783               -0.00585460
              11.24250021                5.03995753               41.56508174                0.73430343                0.24307456                0.24359988               -0.81076657               -0.00004037                0.03832067               -0.00896904
              12.24520784                5.03911087               41.46533065                0.86946254                0.27076322                0.29910470               -0.99546965                0.00055617                0.01793081               -0.01296245
               2.24351867                6.04452095               42.45566308                0.86972458               -0.22646531               -0.25473463                0.84770249               -0.00053519                0.01422316                0.01519276
               3.24125402                6.04433109               42.35581135                0.73430415               -0.19883077               -0.19922936                0.66302581                0.00006302                0.04589992                0.00929868
               4.23954205                6.04413048               42.25652230                0.72825746               -0.14355583               -0.14363733                0.47848057                0.00000841                0.08769642                0.00582637
               5.23838290                6.04391778               42.15745301                0.72429859               -0.08823078               -0.08812285                0.29384775               -0.00012514                0.10718844                0.00335407
               6.23777744                6.04369276               42.05851767                0.72195769               -0.03283567               -0.03268091                0.10916525               -0.00022321                0.11751998                0.00149157
               7.23772619                6.04345584               41.95963627                0.72121903                0.02259411                0.02273432               -0.07555032               -0.00024928                0.11909100               -0.00012953
               8.23822932                6.04320764               41.86073102                0.72207705                0.07803002                0.07816139               -0.26029099               -0.00020872                0.11206553               -0.00184515
               9.23928679                6.04294869               41.76172520                0.72453510                0.13345250                0.13363021               -0.44505085               -0.00011338                0.09649207               -0.00398964
              10.24089837                6.04267929               41.66254199                0.72860560                0.18884906                0.18916308               -0.62982005               -0.00000121                0.07232824               -0.00691926
              11.24306377                6.04239923               41.56310380                0.73431021                0.24422192                0.24474338               -0.81457778                0.00005094                0.03947965               -0.01098411
              12.24578281                6.04210764               41.46333192                0.86946660                0.27190413                0.30027921               -0.99928667                0.00060803                0.01851053               -0.01644405
               2.24342599                7.04197896               42.45366494                0.86972090               -0.22532540               -0.25371699                0.84392599               -0.00047006                0.01498644                0.01703456
               3.24117274                7.04234452               42.35378375                0.73429852               -0.19772732               -0.19805611                0.65924060                0.00017445                0.04806699                0.00969968
               4.23947144                7.04270008               42.25449368                0.72825469               -0.14248679               -0.14240282                0.47469892                0.00005230                0.09183732                0.00583974
               5.23832300                7.04304246               42.15543475                0.72429911               -0.08713989               -0.08693588                0.29006862               -0.00018541                0.11221702                0.00329887
               6.23772865                7.04337170               42.05651648                0.72196074               -0.03171138               -0.03153947                0.10538662               -0.00030387                0.12299288                0.00146915
               7.23768877                7.04368883               41.95765468                0.72122424                0.02373547                0.02385876               -0.07933056               -0.00031768                0.12461326               -0.00009169
               8.23820336                7.04399482               41.85876786                0.72208347                0.07918235                0.07927237               -0.26407423               -0.00025257                0.11726403               -0.00175340
               9.23927242                7.04429048               41.75977552                0.72454193                0.13462127                0.13471745               -0.44883789               -0.00011305                0.10096610               -0.00390476
              10.24089578                7.04457643               41.66059661                0.72861257                0.19002257                0.19023931               -0.63361163                0.00007635                0.07564410               -0.00703001
              11.24307287                7.04485240               41.56114912                0.73431788                0.24536938                0.24588231               -0.81837503                0.00016344                0.04124432               -0.01173343
              12.24580317                7.04511645               41.46135090                0.86947071                0.27302970                0.30153094               -1.00309196                0.00068467                0.01940507               -0.01853273
               2.24277816                8.03944661               42.45163667                0.86971720               -0.22417764               -0.25288423                0.84013239               -0.00035120                0.01611978                0.01674557
               3.24053639                8.04036997               42.35172100                0.73429336               -0.19665017               -0.19673891                0.65543588                0.00023820                0.05121913                0.00808233
               4.23884516                8.04128242               42.25243719                0.72825356               -0.14144038               -0.14112744                0.47090286               -0.00007634                0.09773951                0.00466139
               5.23770758                8.04217906               42.15339910                0.72430190               -0.08600843               -0.08579691                0.28628035               -0.00031154                0.11918522                0.00260770
               6.23712499                8.04306197               42.05450877                0.72196702               -0.03054344               -0.03042138                0.10160400               -0.00036674                0.13041963                0.00116178
               7.23709671                8.04393302               41.95567735                0.72123241                0.02488137                0.02497777               -0.08310936               -0.00034113                0.13208468               -0.00005344
               8.23762262                8.04479309               41.85681972                0.72209339                0.08031033                0.08039161               -0.26785051               -0.00028139                0.12439825               -0.00136037
               9.23870292                8.04564304               41.75785139                0.72455187                0.13576814                0.13581712               -0.45261278               -0.00015471                0.10729331               -0.00311694
              10.24033798                8.04648408               41.65868589                0.72862181                0.19120484                0.19127630               -0.63738638                0.00007323                0.08050892               -0.00583880
              11.24252701                8.04731687               41.55923353                0.73432621                0.24652058                0.24695770               -0.82215269                0.00027963                0.04391377               -0.01045227
              12.24526839                8.04813826               41.45940519                0.86947479                0.27413790                0.30293620               -1.00687924                0.00081270                0.02079430               -0.01831759
               2.24157225                9.03692128               42.44955350                0.86971355               -0.22305549               -0.25243198                0.83631352               -0.00040783                0.01772745                0.01235669
               3.23934169                9.03840974               42.34959932                0.73428925               -0.19557075               -0.19517170                0.65160319                0.00000017                0.05599689                0.00415129
               4.23766083                9.03987753               42.25034077                0.72825570               -0.14022331               -0.14009702                0.46708783               -0.00027419                0.10630163                0.00254927
               5.23653723                9.04132652               42.15134020                0.72430920               -0.08467391               -0.08473044                0.28247979               -0.00035596                0.12856929                0.00141857
               6.23596735                9.04276327               42.05249200                0.72197780               -0.02931966               -0.02932728                0.09781572               -0.00028052                0.14010272                0.00063380
               7.23595083                9.04418838               41.95370449                0.72124583                0.02601778                0.02610206               -0.08688687               -0.00024294                0.14178778               -0.00001950
               8.23648771                9.04560265               41.85488978                0.72210704                0.08137514                0.08153895               -0.27161828               -0.00021245                0.13382806               -0.00072889
               9.23757833                9.04700682               41.75596024                0.72456519                0.13678500                0.13697268               -0.45637161               -0.00017433                0.11605117               -0.00171226
              10.23922341                9.04840195               41.65682454                0.72863353                0.19229728                0.19240967               -0.64113762               -0.00001187                0.08781114               -0.00331932
              11.24142428                9.04979155               41.55738217                0.73433522                0.24766201                0.24789534               -0.82590102                0.00024721                0.04819882               -0.00629789
              12.24417665                9.05117517               41.45752367                0.86947906                0.27523686                0.30463943               -1.01063694                0.00081421                0.02305428               -0.01336497
               2.23979309               10.03439797               42.44735842                0.93485567               -0.22129528               -0.25233082                0.83244945                0.02894088                0.02332726                0.01070930
               3.23758014               10.03646654               42.34739667                0.86714384               -0.19350966               -0.19432011                0.64773540                0.02796992                0.06495283                0.00314018
               4.23592290               10.03848048               42.24819822                0.86412942               -0.13827046               -0.13970538                0.46324886                0.02710203                0.11843297                0.00242069
               5.23481473               10.04048445               42.14925430                0.86215814               -0.08326890               -0.08420703                0.27866212                0.02749718                0.14059753                0.00137587
               6.23425752               10.04247542               42.05046464                0.86099386               -0.02811286               -0.02878472                0.09401873                0.02754692                0.15222881                0.00054101
               7.23425247               10.04445506               41.95173616                0.86062834                0.02712073                0.02666752               -0.09066383                0.02758596                0.15389545               -0.00022690
               8.23479993               10.04642386               41.85297999                0.86105934                0.08238293                0.08212141               -0.27537572                0.02759398                0.14581116               -0.00102569
               9.23590013               10.04838249               41.75410732                0.86228835                0.13765419                0.13756697               -0.46010995                0.02759965                0.12774709               -0.00197533
              10.23755302               10.05033227               41.65502473                0.86432164                0.19293047                0.19303174               -0.64485746                0.02757527                0.09891746               -0.00328838
              11.23975874               10.05227478               41.55562768                0.86717127                0.24822060                0.24832321               -0.82960428                0.02838472                0.05681877               -0.00536828
              12.24251743               10.05423105               41.45577270                0.93474110                0.27586903                0.30558762               -1.01433667                0.02970481                0.02957395               -0.01165195
               2.33328956                0.06194845               43.47623218                0.93484369               -0.22902231               -0.25829813                0.85647991               -0.02937427                0.01916134               -0.00493479
               3.33099934                0.05841779               43.37463650                0.86721707               -0.20180564               -0.20155991                0.67471990               -0.02776700                0.04516658               -0.00481907
               4.32925345                0.05490767               43.27348775                0.86424749               -0.14748736               -0.14745797                0.49306490               -0.02701027                0.08202016               -0.00214465
               5.32804959                0.05138786               43.17257341                0.86221935               -0.09323343               -0.09287881                0.31139636               -0.02719070                0.10258109               -0.00124297
               6.32738878                0.04785826               43.07179753                0.86101573               -0.03888447               -0.03835657                0.12971248               -0.02721499                0.11350754               -0.00054496
               7.32727190                0.04431743               42.97108079                0.86063165                0.01552211                0.01618138               -0.05198581               -0.02723716                0.11581818                0.00004005
               8.32769922                0.04076494               42.87034763                0.86106437                0.06994615                0.07072054               -0.23370040               -0.02723894                0.10976927                0.00058349
               9.32867083                0.03720034               42.76952387                0.86231626                0.12436201                0.12525254               -0.41543396               -0.02724603                0.09539485                0.00113295
              10.33018646                0.03362232               42.66853462                0.86439125                0.17877688                0.17982855               -0.59718724               -0.02719160                0.07253089                0.00174469
              11.33224636                0.03003009               42.56730243                0.86729853                0.23312355                0.23414109               -0.77895606               -0.02790144                0.04054596                0.00245221
              12.33484893                0.02640368               42.46573978                0.93482793                0.26025712                0.29074345               -0.96073869               -0.02796439                0.01983786                0.00418066
               2.33652648                1.05936546               43.47424506                0.86955692               -0.22844207               -0.25726736                0.85282838               -0.00070432                0.01568715               -0.00386699
               3.33424206                1.05640219               43.37263025                0.73415739               -0.20140815               -0.20118579                0.67106032               -0.00015200                0.04297787               -0.00481889
               4.33249831                1.05343309               43.27148824                0.72826551               -0.14698329               -0.14677653                0.48940131                0.00005012                0.08022913               -0.00202310
               5.33130239                1.05045907               43.17056279                0.72432425               -0.09232341               -0.09228681                0.30771373                0.00015917                0.09977479               -0.00098986
               6.33065185                1.04747470               43.06977360                0.72198816               -0.03780989               -0.03778130                0.12600929                0.00010930                0.11051021               -0.00048902
               7.33054619                1.04447924               42.96904225                0.72124396                0.01667651                0.01674051               -0.05570987                0.00007596                0.11270735               -0.00023162
               8.33098538                1.04147215               42.86829387                0.72208726                0.07117418                0.07126799               -0.23744553                0.00004955                0.10660224               -0.00007790
               9.33196968                1.03845287               42.76745476                0.72452087                0.12571500                0.12579622               -0.41920055                0.00001980                0.09222035                0.00007454
              10.33349968                1.03542060               42.66645056                0.72855659                0.18034950                0.18034226               -0.60097545               -0.00015345                0.06938895                0.00033613
              11.33557667                1.03237150               42.56520414                0.73421306                0.23480091                0.23494879               -0.78276551               -0.00022504                0.03789408                0.00087803
              12.33819569                1.02931112               42.46363691                0.86939991                0.26190278                0.29079366               -0.96455554                0.00059932                0.01764144                0.00227485
               2.33920203                2.05680310               43.47219673                0.86942581               -0.22733546               -0.25550060                0.84916699               -0.00076396                0.01279547               -0.00274689
               3.33692867                2.05439407               43.37055960                0.73387828               -0.20022256               -0.20037634                0.66739902               -0.00030604                0.04251175               -0.00356576
               4.33519757                2.05197214               43.26944414                0.72803452               -0.14587498               -0.14562528                0.48576262               -0.00011185                0.08130940               -0.00187836
               5.33401117                2.04954212               43.16852771                0.72420833               -0.09133905               -0.09113920                0.30405697                0.00007152                0.09952385               -0.00087147
               6.33337079                2.04710264               43.06773875                0.72194279               -0.03675991               -0.03664394                0.12232353                0.00010556                0.10960836               -0.00045700
               7.33327597                2.04465224               42.96700372                0.72122390                0.01778961                0.01786471               -0.05942823                0.00007159                0.11150018               -0.00034785
               8.33372659                2.04219030               42.86624982                0.72204523                0.07233947                0.07238526               -0.24119787                0.00001728                0.10527005               -0.00039593
               9.33472276                2.03971627               42.76540490                0.72441054                0.12690897                0.12692229               -0.42298730               -0.00008999                0.09092223               -0.00048929
              10.33626477                2.03722916               42.66439625                0.72833208                0.18142925                0.18150581               -0.60479472               -0.00026241                0.06835534               -0.00050280
              11.33835135                2.03472906               42.56314970                0.73383186                0.23584575                0.23635806               -0.78660881               -0.00035988                0.03741439               -0.00023912
              12.34098168                2.03221956               42.46158941                0.86914573                0.26303325                0.29128149               -0.96839865                0.00031792                0.01749659                0.00044911
               2.34132925                3.05425545               43.47015010                0.86942193               -0.22623563               -0.25414391                0.84548961               -0.00065960                0.01314474                0.00219794
               3.33906689                3.05239466               43.36851426                0.73387081               -0.19906089               -0.19941309                0.66372788               -0.00022370                0.04288549                0.00117291
               4.33734803                3.05052059               43.26740095                0.72802628               -0.14467830               -0.14466054                0.48209071               -0.00020735                0.08188889                0.00064126
               5.33617333                3.04863628               43.16649032                0.72419947               -0.09020959               -0.09005773                0.30037702               -0.00006253                0.10009921                0.00043851
               6.33554384                3.04674182               43.06570380                0.72193446               -0.03566825               -0.03552726                0.11862556               -0.00000245                0.10987056                0.00014240
               7.33545996                3.04483654               42.96496867                0.72121647                0.01889257                0.01899561               -0.06314912               -0.00001255                0.11153399               -0.00029309
               8.33592169                3.04291985               42.86421299                0.72203977                0.07345255                0.07353138               -0.24494359               -0.00006781                0.10515155               -0.00086085
               9.33692901                3.04099132               42.76336528                0.72440828                0.12799710                0.12810174               -0.42675732               -0.00015971                0.09072565               -0.00155352
              10.33848163                3.03905072               42.66235365                0.72833351                0.18250313                0.18275881               -0.60858570               -0.00025979                0.06817157               -0.00234828
              11.34057907                3.03709866               42.56110491                0.73383744                0.23697161                0.23751735               -0.79041253               -0.00022683                0.03730856               -0.00321137
              12.34322106                3.03513675               42.45954355                0.86914940                0.26419895                0.29222855               -0.97220304                0.00043935                0.01742795               -0.00413713
               2.34291041                4.05172022               43.46811923                0.86941801               -0.22513508               -0.25294731                0.84180324               -0.00060253                0.01335475                0.00745307
               3.34065906                4.05040581               43.36647453                0.73386365               -0.19793031               -0.19833363                0.66004207               -0.00012236                0.04350751                0.00468068
               4.33895181                4.04907893               43.26536096                0.72801985               -0.14351860               -0.14363250                0.47840315               -0.00015984                0.08305105                0.00301535
               5.33778869                4.04774097               43.16445265                0.72419323               -0.08906571               -0.08899273                0.29668290               -0.00011872                0.10143037                0.00176721
               6.33717049                4.04639209               43.06366963                0.72192916               -0.03455003               -0.03441981                0.11491955               -0.00009474                0.11121250                0.00075130
               7.33709769                4.04503215               42.96293741                0.72121246                0.01999785                0.02012465               -0.06687112               -0.00010262                0.11276119               -0.00023054
               8.33757045                4.04366093               42.86218329                0.72203799                0.07455045                0.07467934               -0.24868332               -0.00013036                0.10620023               -0.00131688
               9.33858870                4.04227830               42.76133527                0.72440862                0.12908875                0.12927720               -0.43051440               -0.00016554                0.09155061               -0.00262230
              10.34015222                4.04088434               42.66032109                0.72833679                0.18360420                0.18393714               -0.61235723               -0.00017797                0.06874006               -0.00424541
              11.34226078                4.03947941               42.55906727                0.73384303                0.23810322                0.23863264               -0.79419310               -0.00012544                0.03759808               -0.00626681
              12.34491429                4.03806413               42.45749813                0.86915288                0.26535065                0.29327827               -0.97598531                0.00050097                0.01756415               -0.00873954
               2.34394602                5.04919651               43.46609667                0.86941402               -0.22402817               -0.25181846                0.83810766               -0.00056608                0.01371255                0.01188498
               3.34170573                5.04842799               43.36443584                0.73385723               -0.19681676               -0.19722579                0.65634409               -0.00003227                0.04450453                0.00752139
               4.34000968                5.04764794               43.26331929                0.72801475               -0.14239712               -0.14253896                0.47470400               -0.00007656                0.08495719                0.00481941
               5.33885779                5.04685643               43.16241340                0.72418973               -0.08794606               -0.08789247                0.29297926               -0.00012059                0.10374418                0.00281703
               6.33825076                5.04605342               43.06163592                0.72192668               -0.03343594               -0.03330665                0.11120818               -0.00015825                0.11370984                0.00124218
               7.33818907                5.04523903               42.96091015                0.72121155                0.02110851                0.02124745               -0.07059311               -0.00017642                0.11523066               -0.00017339
               8.33867293                5.04441344               42.86016137                0.72203872                0.07566079                0.07581011               -0.25241760               -0.00016994                0.10845192               -0.00168098
               9.33970229                5.04357686               42.75931581                0.72441139                0.13020179                0.13041408               -0.43426087               -0.00013880                0.09341655               -0.00351404
              10.34127697                5.04272946               42.65829961                0.72834101                0.18472444                0.18507097               -0.61611421               -0.00009015                0.07007455               -0.00589517
              11.34339678                5.04187131               42.55703798                0.73384925                0.23923411                0.23975138               -0.79795731               -0.00003987                0.03829117               -0.00902030
              12.34606165                5.04100231               42.45545436                0.86915691                0.26648701                0.29438244               -0.97975276                0.00054726                0.01790560               -0.01302225
               2.34443612                6.04668385               43.46407378                0.86941059               -0.22291377               -0.25073806                0.83440289               -0.00052670                0.01424070                0.01524784
               3.34220699                6.04646130               43.36238978                0.73385097               -0.19571433               -0.19610686                0.65263377                0.00006196                0.04600045                0.00933769
               4.34052184                6.04622815               43.26126977                0.72801042               -0.14130961               -0.14139017                0.47099428                0.00000807                0.08783209                0.00585850
               5.33938079                6.04598312               43.16036865                0.72418762               -0.08685545               -0.08674976                0.28926811               -0.00012332                0.10726531                0.00337809
               6.33878473                6.04572596               43.05960099                0.72192680               -0.03233240               -0.03218065                0.10749311               -0.00021963                0.11756110                0.00150525
               7.33873415                6.04545710               42.95888694                0.72121356                0.02222458                0.02236231               -0.07431436               -0.00024516                0.11910429               -0.00012839
               8.33922922                6.04517713               42.85814879                0.72204192                0.07678755                0.07691698               -0.25614655               -0.00020527                0.11205361               -0.00185797
               9.34026990                6.04488659               42.75730988                0.72441560                0.13133741                0.13151274               -0.43799785               -0.00011151                0.09645869               -0.00401669
              10.34185597                6.04458576               42.65629349                0.72834709                0.18586187                0.18617141               -0.61985835               -0.00000116                0.07228449               -0.00696041
              11.34398713                6.04427444               42.55502223                0.73385627                0.24036315                0.24087668               -0.80170763                0.00005007                0.03944998               -0.01103971
              12.34666323                6.04395178               42.45341776                0.86916062                0.26760968                0.29553824               -0.98350890                0.00059826                0.01848524               -0.01651496
               2.34438059                7.04418175               43.46203817                0.86940693               -0.22179207               -0.24973660                0.83068655               -0.00046265                0.01500625                0.01709512
               3.34216267                7.04450585               43.36032463                0.73384542               -0.19462856               -0.19495220                0.64890886                0.00017157                0.04817576                0.00973724
               4.34048802                7.04482013               43.25920364                0.72800784               -0.14025768               -0.14017536                0.46727299                0.00005127                0.09198685                0.00587037
               5.33935752                7.04512143               43.15831289                0.72418801               -0.08578194               -0.08558181                0.28554930               -0.00018248                0.11230630                0.00332176
               6.33877238                7.04540981               43.05756232                0.72192964               -0.03122602               -0.03105745                0.10377472               -0.00029878                0.12304421                0.00148223
               7.33873300                7.04568627               42.95686785                0.72121852                0.02334774                0.02346884               -0.07803438               -0.00031219                0.12463485               -0.00009029
               8.33923934                7.04595178               42.85614809                0.72204827                0.07792151                0.07801031               -0.25986958               -0.00024809                0.11725929               -0.00176495
               9.34029143                7.04620711               42.75532263                0.72442247                0.13248752                0.13258275               -0.44172471               -0.00011094                0.10093910               -0.00392991
              10.34188909                7.04645289               42.65431049                0.72835411                0.18701661                0.18723056               -0.62358944                0.00007518                0.07560555               -0.00707004
              11.34403176                7.04668885               42.55302988                0.73386357                0.24149228                0.24199750               -0.80544432                0.00016084                0.04121803               -0.01179033
              12.34671893                7.04691308               42.45139898                0.86916454                0.26871732                0.29677007               -0.98725385                0.00067381                0.01938184               -0.01861047
               2.34377866                8.04168912               43.45997227                0.86940339               -0.22066264               -0.24891714                0.82695338               -0.00034569                0.01614366                0.01680485
               3.34157203                8.04256225               43.35822413                0.73384043               -0.19356865               -0.19365572                0.64516472                0.00023414                0.05134185                0.00811188
               4.33990728                8.04342465               43.25710949                0.72800738               -0.13922799               -0.13892035                0.46353733               -0.00007548                0.09791236                0.00468692
               5.33878747                8.04427148               43.15623967                0.72419126               -0.08466852               -0.08446107                0.28182134               -0.00030646                0.11929610                0.00262725
               6.33821391                8.04510481               43.05551707                0.72193605               -0.03007675               -0.02995719                0.10005238               -0.00036041                0.13049055                0.00117309
               7.33818593                8.04592648               42.95485303                0.72122696                0.02447533                0.02457004               -0.08175298               -0.00033503                0.13212433               -0.00005186
               8.33870342                8.04673734               42.85416249                0.72205771                0.07903148                0.07911175               -0.26358574               -0.00027624                0.12441043               -0.00136953
               9.33976656                8.04753824               42.75336105                0.72443215                0.13361604                0.13366490               -0.44543917               -0.00015179                0.10728176               -0.00313771
              10.34137574                8.04833037               42.65236232                0.72836276                0.18818000                0.18825117               -0.62730398                0.00007232                0.08048346               -0.00587256
              11.34353016                8.04911439               42.55107681                0.73387162                0.24262512                0.24305595               -0.80916199                0.00027539                0.04389611               -0.01050258
              12.34622824                8.04988718               42.44941571                0.86916846                0.26980781                0.29815289               -0.99098060                0.00079994                0.02077665               -0.01839386
               2.34262741                9.03920340               43.45785121                0.86939971               -0.21955850               -0.24847243                0.82319543               -0.00040148                0.01775695                0.01240085
               3.34043183                9.04063274               43.35606443                0.73383662               -0.19250650               -0.19211297                0.64139311               -0.00000068                0.05614082                0.00416509
               4.33877728                9.04204173               43.25497522                0.72800937               -0.13803024               -0.13790664                0.45978303               -0.00027037                0.10650977                0.00256472
               5.33767122                9.04343221               43.15414306                0.72419844               -0.08335530               -0.08341158                0.27808137               -0.00035019                0.12871263                0.00143059
               6.33711018                9.04481067               43.05346273                0.72194708               -0.02887268               -0.02888044                0.09632446               -0.00027560                0.14020410                0.00064095
               7.33709377                9.04617768               42.95284269                0.72124007                0.02559350                0.02567646               -0.08547030               -0.00023852                0.14185664               -0.00001822
               8.33762205                9.04753401               42.85219517                0.72207168                0.08007932                0.08024080               -0.26729344               -0.00020853                0.13386840               -0.00073415
               9.33869536                9.04888041               42.75143261                0.72444552                0.13461687                0.13480205               -0.44913827               -0.00017104                0.11606669               -0.00172492
              10.34031439                9.05021792               42.65046376                0.72837414                0.18925513                0.18936660               -0.63099580               -0.00001121                0.08780991               -0.00333976
              11.34248046                9.05154997               42.54918827                0.73388092                0.24374825                0.24397892               -0.81285049                0.00024364                0.04819657               -0.00632949
              12.34518935                9.05287614               42.44749691                0.86917258                0.27088910                0.29982881               -0.99467800                0.00080141                0.02304541               -0.01342086
               2.34091195               10.03671967               43.45561780                0.93469879               -0.21782625               -0.24837316                0.81939313                0.02848600                0.02337669                0.01075085
               3.33873369               10.03871999               43.35382341                0.86691769               -0.19047758               -0.19127463                0.63758687                0.02752816                0.06513270                0.00315191
               4.33710240               10.04066651               43.25279458                0.86400625               -0.13610819               -0.13752150                0.45600507                0.02667446                0.11868936                0.00243545
               5.33601153               10.04260325               43.15201929                0.86210287               -0.08197324               -0.08289644                0.27432450                0.02706464                0.14078514                0.00138637
               6.33546294               10.04452720               43.05139770                0.86097819               -0.02768551               -0.02834647                0.09258794                0.02711365                0.15237371                0.00054670
               7.33545782               10.04644000               42.95083690                0.86062567                0.02667872                0.02623294               -0.08918707                0.02715210                0.15400712               -0.00022665
               8.33599651               10.04834215               42.85024811                0.86104168                0.08107116                0.08081395               -0.27099095                0.02716005                0.14589361               -0.00103137
               9.33707924               10.05023428               42.74954261                0.86222848                0.13547254                0.13538688               -0.45281716                0.02716576                0.12780434               -0.00198770
              10.33870596               10.05211770               42.64862705                0.86419211                0.18987874                0.18997876               -0.63465646                0.02714187                0.09895676               -0.00330722
              11.34087681               10.05399397               42.54739704                0.86694403                0.24429824                0.24440014               -0.81649470                0.02793806                0.05684911               -0.00539590
              12.34359193               10.05588376               42.44570922                0.93458782                0.27151120                0.30076182               -0.99831877                0.02923638                0.02959074               -0.01170200
               2.43598590                0.06390444               44.48472851                0.93468460               -0.22535368               -0.25415926                0.84275491               -0.02890220                0.01920921               -0.00494081
               3.43373237                0.06039416               44.38132982                0.86698465               -0.19857448               -0.19833221                0.66391623               -0.02732031                0.04528453               -0.00481703
               4.43201441                0.05690412               44.27837908                0.86411829               -0.14512946               -0.14510071                0.48518115               -0.02657605                0.08219720               -0.00213078
               5.43082978                0.05340452               44.17566262                0.86216106               -0.09174766               -0.09139855                0.30643240               -0.02675399                0.10275333               -0.00123183
               6.43017946                0.04989529               44.07308446                0.86099942               -0.03827208               -0.03775253                0.12766852               -0.02677790                0.11367063               -0.00053797
               7.43006434                0.04637500               43.97056531                0.86062862                0.01526025                0.01590892               -0.05110944               -0.02679971                0.11596754                0.00004262
               8.43048467                0.04284325               43.86802957                0.86104629                0.06880976                0.06957156               -0.22990341               -0.02680146                0.10989851                0.00058162
               9.43144053                0.03929958               43.76540304                0.86225434                0.12235122                0.12322722               -0.40871618               -0.02680844                0.09549825                0.00112618
              10.43293169                0.03574271               43.66261084                0.86425714                0.17589169                0.17692616               -0.58754820               -0.02675489                0.07260581                0.00173301
              11.43495837                0.03217187               43.55957553                0.86706316                0.22936481                0.23036581               -0.76639569               -0.02745301                0.04059127                0.00243630
              12.43751899                0.02856742               43.45620963                0.93466939                0.25606214                0.28605839               -0.94525679               -0.02751454                0.01985730                0.00417404
               2.43920715                1.06136284               44.48270519                0.86924336               -0.22478307               -0.25314492                0.83916298               -0.00069245                0.01571289               -0.00385775
               3.43695932                1.05841084               44.37928726                0.73370153               -0.19818375               -0.19796449                0.66031636               -0.00014930                0.04307563               -0.00480185
               4.43524348                1.05545311               44.27634323                0.72801453               -0.14463349               -0.14443034                0.48157723                0.00004919                0.08038059               -0.00198500
               5.43406665                1.05249053               44.17361547                0.72421102               -0.09085192               -0.09081637                0.30280972                0.00015624                0.09991328               -0.00095820
               6.43342644                1.04951777               44.07102381                0.72195623               -0.03721458               -0.03718677                0.12402559                0.00010690                0.11063854               -0.00046986
               7.43332236                1.04653409               43.96848983                0.72123819                0.01639604                0.01645890               -0.05477293                0.00007402                0.11282160               -0.00022682
               8.43375436                1.04353896               43.86593867                0.72205188                0.07001777                0.07011016               -0.23358770                0.00004808                0.10669598               -0.00008812
               9.43472272                1.04053185               43.76329657                0.72440082                0.12368195                0.12376219               -0.41242161                0.00001887                0.09228783                0.00004891
              10.43622800                1.03751197               43.66048920                0.72829542                0.17743828                0.17743174               -0.59127504               -0.00015149                0.06942810                0.00029607
              11.43827148                1.03447552               43.55743945                0.73375501                0.23101460                0.23116076               -0.77014350               -0.00022140                0.03791056                0.00082809
              12.44084829                1.03142800               43.45406890                0.86909118                0.25768098                0.28610754               -0.94901181                0.00059020                0.01763866                0.00223362
               2.44187606                2.05884154               44.48062054                0.86911648               -0.22369438               -0.25140659                0.83556127               -0.00075147                0.01281150               -0.00273089
               3.43963911                2.05643488               44.37718030                0.73343176               -0.19701729               -0.19716861                0.65671474               -0.00030113                0.04261085               -0.00353883
               4.43793571                2.05401551               44.27426304                0.72779133               -0.14354311               -0.14329781                0.47799789               -0.00011026                0.08145308               -0.00183261
               5.43676825                2.05158819               44.17154412                0.72409871               -0.08988351               -0.08968760                0.29921255                0.00006983                0.09962891               -0.00083089
               6.43613804                2.04915156               44.06895240                0.72191202               -0.03618156               -0.03606806                0.12039986                0.00010304                0.10969601               -0.00043182
               7.43604462                2.04670418               43.96641442                0.72121807                0.01749116                0.01756476               -0.05843083                0.00006946                0.11157125               -0.00034214
               8.43648786                2.04424545               43.86385739                0.72201120                0.07116413                0.07120932               -0.23727909                0.00001606                0.10531959               -0.00041129
               9.43746790                2.04177483               43.76120915                0.72429378                0.12485639                0.12487008               -0.41614673               -0.00008932                0.09094616               -0.00052552
              10.43898499                2.03929134               43.65839700                0.72807866                0.17850035                0.17857657               -0.59503233               -0.00025860                0.06835603               -0.00055730
              11.44103791                2.03679508               43.55534689                0.73338680                0.23204246                0.23254729               -0.77392463               -0.00035416                0.03740838               -0.00030355
              12.44362584                2.03428957               43.45198327                0.86884528                0.25879318                0.28658742               -0.95279289                0.00031270                0.01748312                0.00039299
               2.44400545                3.05633471               44.47853743                0.86911255               -0.22261239               -0.25007205                0.83194364               -0.00064880                0.01316167                0.00222117
               3.44177933                3.05446747               44.37509855                0.73342416               -0.19587448               -0.19622114                0.65310345               -0.00022017                0.04298194                0.00120327
               4.44008796                3.05258716               44.27218343                0.72778322               -0.14236589               -0.14234881                0.47438598               -0.00020430                0.08202253                0.00067431
               5.43893201                3.05069678               44.16947023                0.72409005               -0.08877241               -0.08862367                0.29559249               -0.00006197                0.10018535                0.00046802
               6.43831251                3.04879640               44.06688076                0.72190386               -0.03510761               -0.03496952                0.11676202               -0.00000303                0.10993193                0.00016088
               7.43822986                3.04688539               43.96434246                0.72121081                0.01857619                0.01867727               -0.06209121               -0.00001310                0.11157534               -0.00028997
               8.43868404                3.04496315               43.86178341                0.72200524                0.07225911                0.07233680               -0.24096393               -0.00006746                0.10517063               -0.00087487
               9.43967504                3.04302926               43.75913214                0.72429109                0.12592690                0.12603034               -0.41985561               -0.00015769                0.09072094               -0.00158405
              10.44120257                3.04108350               43.65631680                0.72807969                0.17955697                0.17980909               -0.59876196               -0.00025580                0.06814921               -0.00239224
              11.44326618                3.03912647               43.55326437                0.73339192                0.23315014                0.23368742               -0.77766653               -0.00022311                0.03728984               -0.00326182
              12.44586558                3.03715975               43.44989968                0.86884875                0.25993992                0.28751919               -0.95653526                0.00043220                0.01740807               -0.00418415
               2.44559756                4.05384010               44.47647000                0.86910873               -0.22152979               -0.24889504                0.82831738               -0.00059274                0.01337077                0.00748749
               3.44338226                4.05251045               44.37302226                0.73341730               -0.19476231               -0.19515932                0.64947776               -0.00012060                0.04360190                0.00471351
               4.44170232                4.05116854               44.27010687                0.72777717               -0.14122506               -0.14133750                0.47075852               -0.00015757                0.08317898                0.00304616
               5.44055776                4.04981572               44.16739592                0.72408399               -0.08764714               -0.08757593                0.29195844               -0.00011708                0.10150561                0.00179234
               6.43994937                4.04845216               44.06480984                0.72189855               -0.03400759               -0.03388003                0.11311628               -0.00009360                0.11125820                0.00076644
               7.43987761                4.04707772               43.96227428                0.72120703                0.01966350                0.01978796               -0.06575268               -0.00010141                0.11278389               -0.00022884
               8.44034264                4.04569219               43.85971662                0.72200363                0.07333919                0.07346609               -0.24464294               -0.00012866                0.10619997               -0.00133019
               9.44134440                4.04429543               43.75706487                0.72429170                0.12700090                0.12718663               -0.42355175               -0.00016319                0.09152815               -0.00265023
              10.44288266                4.04288753               43.65424683                0.72808291                0.18064026                0.18096812               -0.60247223               -0.00017537                0.06870405               -0.00428565
              11.44495720                4.04146883               43.55118923                0.73339765                0.23426338                0.23478446               -0.78138555               -0.00012362                0.03757191               -0.00631519
              12.44756793                4.04003995               43.44781674                0.86885247                0.26107282                0.28855177               -0.96025563                0.00049274                0.01754024               -0.00879050
               2.44665288                5.05135681               44.47441078                0.86910500               -0.22044096               -0.24778463                0.82468217               -0.00055696                0.01372844                0.01193003
               3.44444847                5.05056428               44.37094689                0.73341106               -0.19366691               -0.19406953                0.64584002               -0.00003196                0.04459929                0.00755768
               4.44277954                5.04976041               44.26802850                0.72777187               -0.14012179               -0.14026168                0.46711933               -0.00007556                0.08508472                0.00485066
               5.44164604                5.04894526               44.16531994                0.72408042               -0.08654570               -0.08649352                0.28831500               -0.00011880                0.10381594                0.00284101
               6.44104863                5.04811880               44.06273931                0.72189616               -0.03291164               -0.03278497                0.10946531               -0.00015587                0.11374875                0.00125601
               7.44098780                5.04728114               43.96021010                0.72120609                0.02075611                0.02089251               -0.06941417               -0.00017373                0.11524420               -0.00017221
               8.44146375                5.04643247               43.85765766                0.72200431                0.07443149                0.07457844               -0.24831641               -0.00016737                0.10844172               -0.00169390
               9.44247643                5.04557299               43.75500824                0.72429410                0.12809580                0.12830496               -0.42723710               -0.00013676                0.09338494               -0.00354121
              10.44402567                5.04470286               43.65218809                0.72808712                0.18174226                0.18208347               -0.60616792               -0.00008898                0.07003147               -0.00593536
              11.44611128                5.04382216               43.54912260                0.73340328                0.23537603                0.23588518               -0.78508905               -0.00003950                0.03826116               -0.00907140
              12.44873319                5.04293078               43.44573559                0.86885574                0.26219098                0.28963831               -0.96396293                0.00053831                0.01787958               -0.01308193
               2.44717148                6.04888440               44.47235114                0.86910160               -0.21934468               -0.24672175                0.82103765               -0.00051823                0.01425782                0.01530191
               3.44497803                6.04862906               44.36886403                0.73340530               -0.19258240               -0.19296875                0.64218994                0.00006084                0.04609941                0.00937605
               4.44331983                6.04836330               44.26594219                0.72776809               -0.13905198               -0.13913154                0.46346988                0.00000781                0.08796580                0.00589042
               5.44219699                6.04808585               44.16323837                0.72407833               -0.08547286               -0.08536942                0.28466425               -0.00012139                0.10734096                0.00340186
               6.44161037                6.04779647               44.06066753                0.72189619               -0.03182608               -0.03167728                0.10581066               -0.00021604                0.11760152                0.00151871
               7.44156047                6.04749557               43.95814998                0.72120764                0.02185399                0.02198925               -0.07307491               -0.00024107                0.11911741               -0.00012723
               8.44204745                6.04718376               43.85560809                0.72200720                0.07553990                0.07566735               -0.25198475               -0.00020188                0.11204187               -0.00187045
               9.44307127                6.04686153               43.75296525                0.72429847                0.12921297                0.12938583               -0.43091354               -0.00010970                0.09642554               -0.00404353
              10.44463171                6.04652920               43.65014482                0.72809270                0.18286122                0.18316618               -0.60985164               -0.00000111                0.07224086               -0.00700119
              11.44672849                6.04618653               43.54706965                0.73340995                0.23648680                0.23699237               -0.78877895                0.00004931                0.03942035               -0.01109424
              12.44936145                6.04583272               43.44366174                0.86885955                0.26329555                0.29077553               -0.96765872                0.00058854                0.01845988               -0.01658449
               2.44715320                7.04642238               44.47027868                0.86909817               -0.21824119               -0.24573652                0.81738160               -0.00045520                0.01502583                0.01715470
               3.44497079                7.04670491               44.36676193                0.73339970               -0.19151429               -0.19183278                0.63852552                0.00016867                0.04828326                0.00977433
               4.44332292                7.04697778               44.26383914                0.72776570               -0.13801719               -0.13793652                0.45980917                0.00005025                0.09213442                0.00590067
               5.44221045                7.04723787               44.16114573                0.72407868               -0.08441684               -0.08422052                0.28100599               -0.00017953                0.11239395                0.00334432
               6.44163458                7.04748526               44.05859198                0.72189931               -0.03073772               -0.03057239                0.10215279               -0.00029361                0.12309458                0.00149517
               7.44159569                7.04772093               43.95609399                0.72121264                0.02295885                0.02307781               -0.07673449               -0.00030664                0.12465621               -0.00008892
               8.44209376                7.04794582               43.85357047                0.72201349                0.07665539                0.07674297               -0.25564733               -0.00024362                0.11725455               -0.00177643
               9.44312880                7.04816071               43.75094103                0.72430496                0.13034440                0.13043861               -0.43458003               -0.00010879                0.10091239               -0.00395502
              10.44470065                7.04836619               43.64812483                0.72809964                0.18399718                0.18420828               -0.61352217                0.00007421                0.07556765               -0.00710944
              11.44680874                7.04856201               43.54504024                0.73341747                0.23759742                0.23809493               -0.79245439                0.00015832                0.04119184               -0.01184625
              12.44945259                7.04874629               43.44160582                0.86886364                0.26438495                0.29198719               -0.97134200                0.00066286                0.01935827               -0.01868744
               2.44659731                8.04396967               44.46817574                0.86909458               -0.21713022               -0.24493050                0.81370928               -0.00034016                0.01616739                0.01686337
               3.44442600                8.04479241               44.36462429                0.73339536               -0.19047174               -0.19055717                0.63484231                0.00023011                0.05146295                0.00814119
               4.44278787                8.04560457               44.26170794                0.72776487               -0.13700431               -0.13670197                0.45613421               -0.00007459                0.09808272                0.00471193
               5.44168592                8.04640143               44.15903553                0.72408251               -0.08332147               -0.08311810                0.27733856               -0.00030143                0.11940523                0.00264633
               6.44112144                8.04718502               44.05650981                0.72190593               -0.02960713               -0.02949002                0.09849093               -0.00035406                0.13056032                0.00118427
               7.44109378                8.04795713               43.95404229                0.72122140                0.02406805                0.02416112               -0.08039259               -0.00032890                0.13216327               -0.00005027
               8.44160280                8.04871862               43.85154800                0.72202306                0.07774730                0.07782654               -0.25930307               -0.00027102                0.12442220               -0.00137871
               9.44264872                8.04947030               43.74894261                0.72431478                0.13145453                0.13150326               -0.43823421               -0.00014869                0.10727041               -0.00315838
              10.44423189                8.05021336               43.64613981                0.72810823                0.18514152                0.18521243               -0.61717622                0.00007146                0.08045839               -0.00590621
              11.44635155                8.05094843               43.54305029                0.73342502                0.23871178                0.23913629               -0.79611164                0.00027100                0.04387796               -0.01055260
              12.44900613                8.05167246               43.43958558                0.86886752                0.26545776                0.29334756               -0.97500852                0.00078706                0.02075799               -0.01846889
               2.44550094                9.04152377               44.46601741                0.86909134               -0.21604406               -0.24449326                0.81001232               -0.00039511                0.01778623                0.01244457
               3.44334049                9.04289377               44.36242719                0.73339184               -0.18942690               -0.18903892                0.63113177               -0.00000131                0.05628279                0.00417879
               4.44171240                9.04424374               44.25953643                0.72776708               -0.13582603               -0.13570502                0.45244088               -0.00026638                0.10671480                0.00258003
               5.44062397                9.04557551               44.15690182                0.72408948               -0.08202968               -0.08208564                0.27365944               -0.00034440                0.12885379                0.00144251
               6.44007180                9.04689546               44.05441849                0.72191660               -0.02842281               -0.02843070                0.09482357               -0.00027071                0.14030400                0.00064798
               7.44005552                9.04820415               43.95199509                0.72123433                0.02516799                0.02524957               -0.08404944               -0.00023411                0.14192441               -0.00001699
               8.44057516                9.04950235               43.84954391                0.72203698                0.07877818                0.07893721               -0.26295054               -0.00020447                0.13390794               -0.00073936
               9.44163108                9.05079077               43.74697747                0.72432819                0.13243919                0.13262181               -0.44187298               -0.00016764                0.11608171               -0.00173717
              10.44322395                9.05207044               43.64420462                0.72811960                0.18619917                0.18630969               -0.62080794               -0.00001063                0.08780855               -0.00336031
              11.44535506                9.05334473               43.54112516                0.73343403                0.23981657                0.24004456               -0.79974025                0.00024007                0.04819459               -0.00636065
              12.44802028                9.05461325               43.43763011                0.86887140                0.26652138                0.29499608               -0.97864543                0.00078861                0.02303719               -0.01347453
               2.44384940               10.03907981               44.46374628                0.93454477               -0.21433964               -0.24439575                0.80627137                0.02802887                0.02342533                0.01079216
               3.44170601               10.04101163               44.36014841                0.86669535               -0.18743021               -0.18821382                0.62738707                0.02708455                0.06531008                0.00316356
               4.44010080               10.04289047               44.25731832                0.86388529               -0.13393496               -0.13532637                0.44872433                0.02624502                0.11894208                0.00245022
               5.43902731               10.04475972               44.15474079                0.86204822               -0.08067070               -0.08157880                0.26996370                0.02663006                0.14096986                0.00139696
               6.43848739               10.04661640               44.05231640                0.86096331               -0.02725536               -0.02790534                0.09114782                0.02667826                0.15251643                0.00055231
               7.43848220               10.04846212               43.94995242                0.86062282                0.02623545                0.02579702               -0.08770584                0.02671616                0.15411721               -0.00022648
               8.43901210               10.05029736               43.84756017                0.86102456                0.07975397                0.07950102               -0.26658790                0.02672411                0.14597497               -0.00103694
               9.44007728               10.05212274               43.74505098                0.86216964                0.13328122                0.13319701               -0.44549168                0.02672973                0.12786037               -0.00199940
              10.44167772               10.05393955               43.64233160                0.86406455                0.18681319                0.18691178               -0.62440891                0.02670635                0.09899526               -0.00332598
              11.44381354               10.05574932               43.53929779                0.86672062                0.24035785                0.24045907               -0.80332488                0.02748938                0.05688004               -0.00542285
              12.44648488               10.05757238               43.43580632                0.93443705                0.26713315                0.29591367               -0.98222596                0.02876564                0.02960913               -0.01174955
               2.54047114                0.06589628               45.49308727                0.93452845               -0.22166724               -0.25000027                0.82896351               -0.02842789                0.01925608               -0.00494724
               3.53825447                0.06240656               45.38791483                0.86675631               -0.19532753               -0.19508868                0.65305971               -0.02687151                0.04540054               -0.00481514
               4.53656459                0.05893674               45.28319137                0.86399159               -0.14275984               -0.14273160                0.47725801               -0.02613979                0.08237149               -0.00211702
               5.53539927                0.05545752               45.17870206                0.86210341               -0.09025432               -0.08991064                0.30144298               -0.02631526                0.10292294               -0.00122082
               6.53475950                0.05196882               45.07435090                0.86098339               -0.03765621               -0.03714501                0.12561289               -0.02633877                0.11383128               -0.00053109
               7.53464615                0.04846924               44.97005860                0.86062517                0.01499783                0.01563588               -0.05023119               -0.02636019                0.11611478                0.00004521
               8.53505946                0.04495838               44.86574956                0.86102842                0.06766876                0.06841791               -0.22609099               -0.02636190                0.11002586                0.00057965
               9.53599952                0.04143581               44.76134954                0.86219360                0.12033172                0.12119307               -0.40196920               -0.02636879                0.09559999                0.00111961
              10.53746610                0.03790025               44.65678366                0.86412528                0.17299363                0.17401085               -0.57786640               -0.02631608                0.07267974                0.00172146
              11.53945940                0.03435096               44.55197452                0.86683182                0.22558912                0.22657352               -0.75377878               -0.02700247                0.04063593                0.00242012
              12.54197788                0.03076863               44.44683465                0.93451333                0.25184818                0.28135210               -0.92970470               -0.02706268                0.01987624                0.00416756
               2.54367659                1.06339628               45.49102832                0.86893497               -0.22110627               -0.24900247                0.82543136               -0.00068049                0.01573824               -0.00384911
               3.54146552                1.06045567               45.38583657                0.73325335               -0.19494357               -0.19472743                0.64951988               -0.00014658                0.04317201               -0.00478523
               4.53977771                1.05750943               45.28111979                0.72776782               -0.14227205               -0.14207246                0.47371436                0.00004819                0.08052979               -0.00194746
               5.53862008                1.05455841               45.17661899                0.72409962               -0.08937293               -0.08933837                0.29788062                0.00015316                0.10004958               -0.00092703
               6.53799026                1.05159737               45.07225411                0.72192485               -0.03661587               -0.03658877                0.12203045                0.00010448                0.11076492               -0.00045100
               7.53788777                1.04862559               44.96794679                0.72123229                0.01611494                0.01617666               -0.05383386                0.00007213                0.11293419               -0.00022209
               8.53831255                1.04564256               44.86362212                0.72201743                0.06885667                0.06894760               -0.22971412                0.00004661                0.10678833               -0.00009825
               9.53926490                1.04264774               44.75920633                0.72428245                0.12164010                0.12171930               -0.40561318                0.00001793                0.09235422                0.00002386
              10.54074536                1.03964036               44.65462506                0.72803946                0.17451413                0.17450825               -0.58153148               -0.00014947                0.06946654                0.00025660
              11.54275518                1.03661670               44.54980127                0.73330498                0.22721122                0.22735559               -0.75746451               -0.00021771                0.03792681                0.00077857
              12.54528958                1.03358215               44.44465667                0.86878776                0.25344005                0.28140014               -0.93339756                0.00058098                0.01763613                0.00219315
               2.54633875                2.06091623               45.48890796                0.86881195               -0.22003573               -0.24729285                0.82189003               -0.00073888                0.01282751               -0.00271502
               3.54413839                2.05851201               45.38369389                0.73299264               -0.19379646               -0.19394529                0.64597859               -0.00029629                0.04270874               -0.00351215
               4.54246282                2.05609529               45.27900410                0.72755178               -0.14119973               -0.14095888                0.47019505               -0.00010878                0.08159477               -0.00178758
               5.54131440                2.05367075               45.17451196                0.72399065               -0.08842050               -0.08822857                0.29434343                0.00006806                0.09973238               -0.00079099
               6.54069441                2.05123704               45.07014675                0.72188179               -0.03559979               -0.03548879                0.11846496                0.00010048                0.10978235               -0.00040703
               7.54060240                2.04879277               44.96583511                0.72121270                0.01719196                0.01726409               -0.05743101                0.00006736                0.11164122               -0.00033656
               8.54103825                2.04633733               44.86150424                0.72197687                0.06998395                0.07002856               -0.23334427                0.00001483                0.10536855               -0.00042641
               9.54200208                2.04387019               44.75708196                0.72417885                0.12279497                0.12280895               -0.40927666               -0.00008863                0.09096969               -0.00056122
              10.54349415                2.04139042               44.65249560                0.72782958                0.17555851                0.17563425               -0.58522664               -0.00025478                0.06835632               -0.00061115
              11.54551325                2.03889807               44.54767121                0.73294932                0.22822201                0.22871927               -0.76118316               -0.00034849                0.03740261               -0.00036701
              12.54805859                2.03639663               44.44253355                0.86855028                0.25453381                0.28187195               -0.93711608                0.00030745                0.01747050                0.00033752
               2.54847026                3.05845042               45.48678898                0.86880865               -0.21897180               -0.24598064                0.81833273               -0.00063796                0.01317833                0.00224462
               3.54628054                3.05657677               45.38157633                0.73298541               -0.19267265               -0.19301371                0.64242755               -0.00021665                0.04307687                0.00123363
               4.54461680                3.05469025               45.27688867                0.72754402               -0.14004204               -0.14002564                0.46664316               -0.00020121                0.08215402                0.00070695
               5.54347970                3.05279384               45.17240217                0.72398202               -0.08732785               -0.08718222                0.29078348               -0.00006134                0.10027020                0.00049699
               6.54287025                3.05088759               45.06803904                0.72187341               -0.03454366               -0.03440849                0.11488758               -0.00000362                0.10999244                0.00017906
               7.54278882                3.04897088               44.96372684                0.72120552                0.01825901                0.01835812               -0.06103061               -0.00001365                0.11161608               -0.00028688
               8.54323543                3.04704313               44.85939371                0.72197126                0.07106079                0.07113733               -0.23696802               -0.00006708                0.10518946               -0.00088865
               9.54421004                3.04510392               44.75496816                0.72417645                0.12384778                0.12394993               -0.41292417               -0.00015566                0.09071610               -0.00161435
              10.54571238                3.04315305               44.65037841                0.72783051                0.17659771                0.17684623               -0.58889447               -0.00025193                0.06812708               -0.00243573
              11.54774199                3.04119108               44.54555158                0.73295409                0.22931146                0.22984035               -0.76486328               -0.00021957                0.03727139               -0.00331152
              12.55029861                3.03921959               44.44041284                0.86855356                0.25566169                0.28278860               -0.94079672                0.00042502                0.01738824               -0.00423062
               2.55007330                4.05599662               45.48468558                0.86880491               -0.21790711               -0.24482315                0.81476646               -0.00058295                0.01338650                0.00752144
               3.54789423                4.05465174               45.37946409                0.73297895               -0.19157892               -0.19196949                0.63886199               -0.00011872                0.04369465                0.00474604
               4.54624172                4.05329478               45.27477613                0.72753804               -0.13892017               -0.13903104                0.46307592               -0.00015513                0.08330459                0.00307672
               5.54511583                4.05192710               45.17029182                0.72397607               -0.08622131               -0.08615180                0.28720975               -0.00011540                0.10157963                0.00181708
               6.54451730                4.05054887               45.06593196                0.72186877               -0.03346192               -0.03333705                0.11130235               -0.00009247                0.11130335                0.00078137
               7.54444659                4.04915993               44.96162235                0.72120114                0.01932828                0.01945038               -0.06463132               -0.00010021                0.11280627               -0.00022712
               8.54490386                4.04776008               44.85729043                0.72196977                0.07212297                0.07224783               -0.24058589               -0.00012700                0.10619962               -0.00134322
               9.54588905                4.04634919               44.75286424                0.72417644                0.12490399                0.12508697               -0.41655887               -0.00016086                0.09150575               -0.00267773
              10.54740194                4.04492734               44.64827164                0.72783356                0.17766312                0.17798597               -0.59254338               -0.00017264                0.06866844               -0.00432524
              11.54944231                4.04349488               44.54343956                0.73295930                0.23040638                0.23091918               -0.76852100               -0.00012164                0.03754640               -0.00636288
              12.55201007                4.04205241               44.43829301                0.86855713                0.25677596                0.28380416               -0.94445583                0.00048446                0.01751727               -0.00884037
               2.55114837                5.05355396               45.48259031                0.86880123               -0.21683631               -0.24373116                0.81119169               -0.00054782                0.01374441                0.01197432
               3.54898000                5.05273738               45.37735265                0.73297325               -0.19050163               -0.19089774                0.63528447               -0.00003163                0.04469278                0.00759339
               4.54733833                5.05190963               45.27266168                0.72753275               -0.13783521               -0.13797303                0.45949704               -0.00007448                0.08521001                0.00488156
               5.54622330                5.05107080               45.16817970                0.72397229               -0.08513822               -0.08508735                0.28362696               -0.00011696                0.10388644                0.00286476
               6.54563557                5.05022085               45.06382523                0.72186592               -0.03238422               -0.03226014                0.10771204               -0.00015346                0.11378724                0.00126972
               7.54557561                5.04935988               44.95952186                0.72120014                0.02040274                0.02053662               -0.06823208               -0.00017101                0.11525769               -0.00017106
               8.54604362                5.04848809               44.85519504                0.72197015                0.07319717                0.07334172               -0.24419844               -0.00016471                0.10843170               -0.00170670
               9.54703956                5.04760566               44.75077107                0.72417859                0.12598083                0.12618674               -0.42018329               -0.00013458                0.09335364               -0.00356798
              10.54856324                5.04671277               44.64617625                0.72783787                0.17874692                0.17908276               -0.59617781               -0.00008757                0.06998895               -0.00597483
              11.55061450                5.04580947               44.54133619                0.73296522                0.23150049                0.23200152               -0.77216256               -0.00003892                0.03823191               -0.00912186
              12.55319325                5.04489568               44.43617510                0.86856049                0.25787538                0.28487261               -0.94810130                0.00052928                0.01785466               -0.01314126
               2.55169551                6.05112200               45.48049453                0.86879794               -0.21575829               -0.24268600                0.80760791               -0.00050970                0.01427484                0.01535539
               3.54953793                6.05083378               45.37523358                0.73296747               -0.18943515               -0.18981527                0.63169506                0.00005964                0.04619698                0.00941388
               4.54790681                6.05053532               45.27053917                0.72752943               -0.13678313               -0.13686166                0.45590811                0.00000745                0.08809733                0.00592172
               5.54680227                6.05022536               45.16606193                0.72397105               -0.08408317               -0.08398193                0.28003678               -0.00011941                0.10741537                0.00342537
               6.54622515                6.04990367               45.06171720                0.72186642               -0.03131668               -0.03117086                0.10411807               -0.00021233                0.11764137                0.00153209
               7.54617593                6.04957066               44.95742544                0.72120210                0.02148241                0.02161516               -0.07183208               -0.00023688                0.11913033               -0.00012614
               8.54665479                6.04922691               44.85310910                0.72197352                0.07428718                0.07441259               -0.24780596               -0.00019827                0.11203032               -0.00188294
               9.54766168                6.04887293               44.74869161                0.72418358                0.12707938                0.12724970               -0.42379859               -0.00010775                0.09639286               -0.00407010
              10.54919638                6.04850900               44.64409645                0.72784274                0.17984725                0.18014753               -0.59980028               -0.00000120                0.07219764               -0.00704154
              11.55125862                6.04813491               44.53924665                0.73297137                0.23259288                0.23309042               -0.77579156                0.00004845                0.03939073               -0.01114826
              12.55384824                6.04774986               44.43406459                0.86856420                0.25896175                0.28599108               -0.95173624                0.00057892                0.01843446               -0.01665330
               2.55171460                7.04870024               45.47838581                0.86879470               -0.21467319               -0.24171713                0.80401258               -0.00044774                0.01504524                0.01721368
               3.54956787                7.04894107               45.37309514                0.73296215               -0.18838485               -0.18869812                0.62809155                0.00016578                0.04838904                0.00981094
               4.54794691                7.04917240               45.26839982                0.72752699               -0.13576552               -0.13568648                0.45230804                0.00004926                0.09227951                0.00593056
               5.54685256                7.04939116               45.16393301                0.72397114               -0.08304462               -0.08285214                0.27643914               -0.00017651                0.11248036                0.00336664
               6.54628601                7.04959743               45.05960537                0.72186942               -0.03024639               -0.03008433                0.10052089               -0.00028843                0.12314422                0.00150793
               7.54624763                7.04979219               44.95533316                0.72120651                0.02256891                0.02268567               -0.07543094               -0.00030112                0.12467712               -0.00008754
               8.54673739                7.04997634               44.85103515                0.72197923                0.07538413                0.07547043               -0.25140789               -0.00023912                0.11724991               -0.00178771
               9.54775532                7.05015065               44.74663103                0.72418968                0.12819193                0.12828509               -0.42740410               -0.00010668                0.10088591               -0.00397975
              10.54930123                7.05031572               44.64204005                0.72784970                0.18096431                0.18117253               -0.60341015                0.00007309                0.07553007               -0.00714842
              11.55137460                7.05047128               44.53718079                0.73297877                0.23368516                0.23417488               -0.77940651                0.00015584                0.04116624               -0.01190127
              12.55397493                7.05061550               44.43197214                0.86856804                0.26003318                0.28718271               -0.95535842                0.00065203                0.01933562               -0.01876278
               2.55120490                8.04628766               45.47624645                0.86879157               -0.21358058               -0.24092447                0.80040093               -0.00033463                0.01619060                0.01692121
               3.54906909                8.04705982               45.37092098                0.73295800               -0.18735962               -0.18744337                0.62446917                0.00022616                0.05158215                0.00816996
               4.54745770                8.04782159               45.26623217                0.72752689               -0.13476953               -0.13447246                0.44869406               -0.00007357                0.09825034                0.00473680
               5.54637370                8.04856831               45.16178644                0.72397522               -0.08196750               -0.08176810                0.27283260               -0.00029631                0.11951260                0.00266537
               6.54581835                8.04930198               45.05748689                0.72187590               -0.02913463               -0.02901992                0.09691980               -0.00034770                0.13062904                0.00119522
               7.54579101                8.05002438               44.95324518                0.72121567                0.02365966                0.02375101               -0.07902832               -0.00032275                0.13220173               -0.00004868
               8.54629155                8.05073632               44.84897643                0.72198885                0.07645791                0.07653604               -0.25500299               -0.00026586                0.12443385               -0.00138770
               9.54732017                8.05143863               44.74459637                0.72419920                0.12928366                0.12933215               -0.43099785               -0.00014569                0.10725902               -0.00317864
              10.54887722                8.05213245               44.64001880                0.72785793                0.18208962                0.18216019               -0.60700363                0.00007061                0.08043359               -0.00593908
              11.55096196                8.05281841               44.53515458                0.73298633                0.23478086                0.23519902               -0.78300259                0.00026655                0.04386038               -0.01060185
              12.55357284                8.05349351               44.42991554                0.86857154                0.26108796                0.28852031               -0.95896336                0.00077396                0.02074009               -0.01854329
               2.55016358                9.04388175               45.47405146                0.86878813               -0.21251244               -0.24049469                0.79676507               -0.00038867                0.01781473                0.01248731
               3.54803846                9.04519220               45.36868707                0.73295456               -0.18633213               -0.18594976                0.62081996               -0.00000193                0.05642263                0.00419200
               4.54643694                9.04648295               45.26402404                0.72752926               -0.13361076               -0.13349236                0.44506201               -0.00026239                0.10691690                0.00259512
               5.54536624                9.04775580               45.15961625                0.72398237               -0.08069719               -0.08075275                0.26921447               -0.00033856                0.12899268                0.00145436
               6.54482300                9.04901703               45.05535920                0.72188676               -0.02797014               -0.02797811                0.09331327               -0.00026571                0.14040231                0.00065494
               7.54480684                9.05026721               44.95116171                0.72122860                0.02474125                0.02482143               -0.08262447               -0.00022959                0.14199123               -0.00001580
               8.54531782                9.05150706               44.84693616                0.72200292                0.07747168                0.07762823               -0.25858976               -0.00020047                0.13394699               -0.00074460
               9.54635628                9.05273729               44.74259515                0.72421220                0.13025205                0.13043210               -0.43457613               -0.00016428                0.11609664               -0.00174921
              10.54792286                9.05395892               44.63804760                0.72786962                0.18312965                0.18323914               -0.61057473               -0.00001008                0.08780694               -0.00338026
              11.55001887                9.05517526               44.53319346                0.73299491                0.23586719                0.23609236               -0.78657080                0.00023612                0.04819210               -0.00639157
              12.55264021                9.05638590               44.42792400                0.86857534                0.26213390                0.29014141               -0.96254033                0.00077540                0.02302867               -0.01352814
               2.54857622               10.04147776               45.47174323                0.93439319               -0.21083607               -0.24039898                0.79308593                0.02756958                0.02347352                0.01083203
               3.54646786               10.04334082               45.36637115                0.86647687               -0.18436790               -0.18513801                0.61713724                0.02663884                0.06548518                0.00317468
               4.54488886               10.04515174               45.26176907                0.86376649               -0.13175079               -0.13312025                0.44140705                0.02581352                0.11919134                0.00246474
               5.54383284               10.04695326               45.15741856                0.86199510               -0.07936128               -0.08025425                0.26558000                0.02619345                0.14115179                0.00140738
               6.54330163               10.04874242               45.05322066                0.86094841               -0.02682243               -0.02746142                0.08969851                0.02624095                0.15265699                0.00055792
               7.54329639               10.05052081               44.94908278                0.86062011                0.02579082                0.02535983               -0.08622021                0.02627826                0.15422567               -0.00022635
               8.54381745               10.05228888               44.84491635                0.86100752                0.07843132                0.07818265               -0.26216670                0.02628607                0.14605527               -0.00104254
               9.54486502               10.05404727               44.74063277                0.86211193                0.13108038                0.13099770               -0.43813472                0.02629162                0.12791588               -0.00201092
              10.54643906               10.05579723               44.63613887                0.86393944                0.18373390                0.18383110               -0.61411567                0.02626868                0.09903286               -0.00334429
              11.54853970               10.05754026               44.53133054                0.86650090                0.23639968                0.23650012               -0.79009573                0.02703838                0.05690979               -0.00544950
              12.55116705               10.05929634               44.42606470                0.93428897                0.26273547                0.29104382               -0.96606172                0.02829281                0.02962701               -0.01179647
               2.64671592                0.06792339               46.50130778                0.93437477               -0.21796332               -0.24582158                0.81510688               -0.02795141                0.01930242               -0.00495320
               3.64453628                0.06445437               46.39439101                0.86653162               -0.19206513               -0.19182974                0.64215160               -0.02642070                0.04551484               -0.00481299
               4.64287461                0.06100494               46.28792424                0.86386674               -0.14037871               -0.14035107                0.46929671               -0.02570150                0.08254329               -0.00210311
               5.64172871                0.05754625               46.18169148                0.86204709               -0.08875339               -0.08841533                0.29642867               -0.02587440                0.10309017               -0.00120993
               6.64109955                0.05407824               46.07559672                0.86096729               -0.03703679               -0.03653407                0.12354569               -0.02589756                0.11398949               -0.00052438
               7.64098797                0.05059952               45.96956069                0.86062270                0.01473488                0.01536219               -0.04935097               -0.02591868                0.11625961                0.00004774
               8.64139424                0.04710972               45.86350775                0.86101097                0.06652310                0.06725961               -0.22226317               -0.02592036                0.11015125                0.00057794
               9.64231843                0.04360841               45.75736366                0.86213383                0.11830349                0.11915023               -0.39519338               -0.02592707                0.09570029                0.00111309
              10.64376031                0.04009433               45.65105351                0.86399564                0.17008294                0.17108280               -0.56814246               -0.02587520                0.07275237                0.00171011
              11.64572009                0.03656676               45.54449995                0.86660462                0.22179681                0.22276449               -0.74110637               -0.02654991                0.04067979                0.00240463
              12.64819625                0.03300671               45.43761554                0.93436039                0.24761556                0.27662480               -0.91408333               -0.02660882                0.01989497                0.00416109
               2.64990542                1.06546518               46.49921381                0.86863224               -0.21741201               -0.24484039                0.81163467               -0.00066857                0.01576324               -0.00383993
               3.64773130                1.06253608               46.39227766                0.73281335               -0.19168791               -0.19147494                0.63867186               -0.00014391                0.04326695               -0.00476836
               4.64607166                1.05960143               46.28581752                0.72752636               -0.13989909               -0.13970311                0.46581317                0.00004731                0.08067673               -0.00190998
               5.64493332                1.05666209               46.17957308                0.72399027               -0.08788645               -0.08785290                0.29292664                0.00015030                0.10018375               -0.00089620
               6.64431393                1.05371290               46.07346442                0.72189381               -0.03601375               -0.03598738                0.12002403                0.00010217                0.11088929               -0.00043246
               7.64421304                1.05075314               45.96741316                0.72122677                0.01583318                0.01589377               -0.05289262                0.00007024                0.11304499               -0.00021740
               8.64463060                1.04778232               45.86134438                0.72198311                0.06769084                0.06778036               -0.22582492                0.00004512                0.10687925               -0.00010809
               9.64556686                1.04479991               45.75518431                0.72416673                0.11958951                0.11966769               -0.39877569                0.00001705                0.09241963               -0.00000105
              10.64702239                1.04180516               45.64885857                0.72778749                0.17157722                0.17157197               -0.57174537               -0.00014736                0.06950446                0.00021765
              11.64899840                1.03879440               45.54229016                0.73286294                0.22339106                0.22353359               -0.74472955               -0.00021407                0.03794268                0.00073004
              12.65149021                1.03577296               45.43540094                0.86848984                0.24918034                0.27667177               -0.91771385                0.00057158                0.01763324                0.00215311
               2.65256074                2.06302658               46.49705834                0.86851363               -0.21635962               -0.24315954                0.80815372               -0.00072636                0.01284277               -0.00269900
               3.65039715                2.06062487               46.39009987                0.73256182               -0.19056011               -0.19070646                0.63519087               -0.00029142                0.04280500               -0.00348553
               4.64874954                2.05821088               46.28366694                0.72731755               -0.13884480               -0.13860844                0.46235376               -0.00010708                0.08173403               -0.00174286
               5.64762025                2.05578919               46.17743098                0.72388457               -0.08695014               -0.08676204                0.28944948                0.00006649                0.09983381               -0.00075156
               6.64701054                2.05335849               46.07132169                0.72185233               -0.03501484               -0.03490617                0.11651906                0.00009803                0.10986720               -0.00038260
               7.64691995                2.05091740               45.96526580                0.72120684                0.01689198                0.01696272               -0.05642882                0.00006529                0.11171016               -0.00033100
               8.64734838                2.04846533               45.85919051                0.72194391                0.06879903                0.06884304               -0.22939363                0.00001366                0.10541655               -0.00044131
               9.64829593                2.04600176               45.75302362                0.72406581                0.12072478                0.12073904               -0.40237743               -0.00008792                0.09099282               -0.00059654
              10.64976287                2.04352577               45.64669247                0.72758463                0.17260382                0.17267911               -0.57537828               -0.00025100                0.06835691               -0.00066407
              11.65174801                2.04103743               45.54012323                0.73251954                0.22438469                0.22487434               -0.74838550               -0.00034280                0.03739669               -0.00042976
              12.65425057                2.03854015               45.43324095                0.86826025                0.25025562                0.27713554               -0.92136973                0.00030217                0.01745736                0.00028283
               2.65469431                3.06060198               46.49490409                0.86851010               -0.21531365               -0.24186970                0.80465693               -0.00062719                0.01319444                0.00226723
               3.65254117                3.05872195               46.38794710                0.73255511               -0.18945524               -0.18979078                0.63169997               -0.00021310                0.04317034                0.00126327
               4.65090520                3.05682926               46.28151629                0.72730976               -0.13770669               -0.13769100                0.45886202               -0.00019799                0.08228331                0.00073902
               5.64978704                3.05492685               46.17528590                0.72387625               -0.08587604               -0.08573341                0.28595011               -0.00006070                0.10035335                0.00052558
               6.64918768                3.05301477               46.06917852                0.72184405               -0.03397660               -0.03384416                0.11300233               -0.00000421                0.11005186                0.00019701
               7.64910751                3.05109240               45.96312185                0.72119959                0.01794097                0.01803821               -0.05996743               -0.00001415                0.11165613               -0.00028386
               8.64954650                3.04915918               45.85704405                0.72193862                0.06985764                0.06993299               -0.23295594               -0.00006663                0.10520781               -0.00090222
               9.65050466                3.04721469               45.75087365                0.72406337                0.12175973                0.12186064               -0.40596308               -0.00015358                0.09071147               -0.00164396
              10.65198170                3.04525874               45.64453891                0.72758581                0.17362553                0.17387048               -0.57898414               -0.00024806                0.06810526               -0.00247851
              11.65397717                3.04329189               45.53796711                0.73252394                0.22545590                0.22597631               -0.75200371               -0.00021606                0.03725291               -0.00336094
              12.65649082                3.04131567               45.43108374                0.86826373                0.25136454                0.27803700               -0.92498849                0.00041775                0.01736872               -0.00427683
               2.65630827                4.05818919               46.49276533                0.86850640               -0.21426696               -0.24073191                0.80115112               -0.00057306                0.01340213                0.00755486
               3.65416561                4.05682906               46.38579950                0.73254832               -0.18838002               -0.18876431                0.62819486               -0.00011678                0.04378628                0.00477780
               4.65254067                4.05545706               46.27936838                0.72730356               -0.13660388               -0.13671328                0.45535544               -0.00015273                0.08342838                0.00310661
               5.65143353                4.05407452               46.17314012                0.72387043               -0.08478831               -0.08472046                0.28243711               -0.00011380                0.10165224                0.00184160
               6.65084491                4.05268161               46.06703589                0.72183911               -0.03291320               -0.03279086                0.10947787               -0.00009135                0.11134761                0.00079609
               7.65077526                4.05127816               45.96098166                0.72119553                0.01899215                0.01911197               -0.06350712               -0.00009899                0.11282835               -0.00022551
               8.65122475                4.04986399               45.85490490                0.72193606                0.07090186                0.07102468               -0.23651258               -0.00012528                0.10619934               -0.00135609
               9.65219330                4.04843898               45.74873369                0.72406341                0.12279812                0.12297836               -0.40953619               -0.00015844                0.09148371               -0.00270489
              10.65368071                4.04700318               45.64239596                0.72758861                0.17467296                0.17499078               -0.58257108               -0.00016988                0.06863299               -0.00436449
              11.65568676                4.04555696               45.53581881                0.73252922                0.22653236                0.22703684               -0.75559959               -0.00011966                0.03752048               -0.00640976
              12.65821136                4.04410089               45.42892763                0.86826705                0.25246009                0.27903552               -0.92858620                0.00047625                0.01749367               -0.00888999
               2.65740311                5.05578735               46.49063462                0.86850314               -0.21321435               -0.23965848                0.79763701               -0.00053854                0.01375960                0.01201841
               3.65527097                5.05494666               46.38365258                0.73254249               -0.18732106               -0.18771077                0.62467817               -0.00003117                0.04478470                0.00762861
               4.65365669                5.05409500               46.27721844                0.72729859               -0.13553736               -0.13567324                0.45183751               -0.00007342                0.08533369                0.00491188
               5.65256022                5.05323244               46.17099247                0.72386669               -0.08372359               -0.08367404                0.27891515               -0.00011518                0.10395578                0.00288820
               6.65198222                5.05235896               46.06489355                0.72183682               -0.03185376               -0.03173220                0.10594841               -0.00015103                0.11382476                0.00128322
               7.65192314                5.05147464               45.95884546                0.72119459                0.02004840                0.02017981               -0.06704685               -0.00016825                0.11527088               -0.00016996
               8.65238318                5.05057967               45.85277369                0.72193678                0.07195786                0.07210008               -0.24006413               -0.00016202                0.10842178               -0.00171930
               9.65336230                5.04967426               45.74660458                0.72406572                0.12385676                0.12405952               -0.41309945               -0.00013241                0.09332281               -0.00359441
              10.65486032                5.04875856               45.64026453                0.72759207                0.17573847                0.17606902               -0.58614434               -0.00008616                0.06994725               -0.00601380
              11.65687707                5.04783263               45.53367935                0.73253465                0.22760798                0.22810083               -0.75917964               -0.00003819                0.03820261               -0.00917133
              12.65941248                5.04689638               45.42677357                0.86827035                0.25354090                0.28008581               -0.93216957                0.00052039                0.01782899               -0.01319934
               2.65797888                6.05339602               46.48850330                0.86850001               -0.21215458               -0.23863101                0.79411382               -0.00050113                0.01429100                0.01540818
               3.65585733                6.05307484               46.38149793                0.73253741               -0.18627266               -0.18664662                0.62114948                0.00005855                0.04629284                0.00945134
               4.65425342                6.05274360               46.27506035                0.72729535               -0.13450315               -0.13458066                0.44830927                0.00000718                0.08822694                0.00595268
               5.65316727                6.05240104               46.16883911                0.72386553               -0.08268644               -0.08258734                0.27538575               -0.00011750                0.10748849                0.00344843
               6.65259969                6.05204696               46.06274989                0.72183685               -0.03080431               -0.03066139                0.10241536               -0.00020867                0.11768033                0.00154520
               7.65255118                6.05168176               45.95671334                0.72119636                0.02110978                0.02124007               -0.07058586               -0.00023264                0.11914305               -0.00012503
               8.65302189                6.05130599               45.85065197                0.72194003                0.07302939                0.07315277               -0.24361039               -0.00019466                0.11201898               -0.00189524
               9.65401177                6.05092017               45.74448927                0.72407037                0.12493666                0.12510443               -0.41665322               -0.00010580                0.09636064               -0.00409597
              10.65552062                6.05052456               45.63814882                0.72759738                0.17682016                0.17711574               -0.58970529               -0.00000120                0.07215503               -0.00708123
              11.65754817                6.05011897               45.53155382                0.73254105                0.22868187                0.22917125               -0.76274707                0.00004759                0.03936130               -0.01120189
              12.66009426                6.04970260               45.42462702                0.86827380                0.25460881                0.28118526               -0.93574263                0.00056909                0.01840906               -0.01672122
               2.65803544                7.05101473               46.48635893                0.86849682               -0.21108789               -0.23767853                0.79057948               -0.00044020                0.01506392                0.01727150
               3.65592456                7.05121373               46.37932376                0.73253215               -0.18524022               -0.18554831                0.61760700                0.00016291                0.04849311                0.00984695
               4.65433063                7.05140338               46.27288530                0.72729266               -0.13350286               -0.13342543                0.44477029                0.00004823                0.09242245                0.00596001
               5.65325450                7.05158070               46.16667451                0.72386602               -0.08166550               -0.08147679                0.27184913               -0.00017358                0.11256520                0.00338859
               6.65269732                7.05174573               46.06060240                0.72184006               -0.02975210               -0.02959331                0.09887906               -0.00028327                0.12319287                0.00152052
               7.65265946                7.05189944               45.95458537                0.72120166                0.02217790                0.02229240               -0.07412367               -0.00029552                0.12469769               -0.00008621
               8.65314088                7.05204273               45.84854231                0.72194588                0.07410770                0.07419267               -0.24715119               -0.00023459                0.11724543               -0.00179902
               9.65414161                7.05217635               45.74239295                0.72407663                0.12603026                0.12612229               -0.42019748               -0.00010455                0.10085984               -0.00400424
              10.65566149                7.05230087               45.63605662                0.72760419                0.17791819                0.17812339               -0.59325369                0.00007198                0.07549251               -0.00718701
              11.65769998                7.05241605               45.52945211                0.73254792                0.22975559                0.23023736               -0.76630072                0.00015321                0.04114031               -0.01195573
              12.66025660                7.05252009               45.42249865                0.86827723                0.25566210                0.28235671               -0.93930374                0.00064097                0.01931269               -0.01883710
               2.65757207                8.04864245               46.48418376                0.86849360               -0.21001382               -0.23689932                0.78702886               -0.00032901                0.01621339                0.01697788
               3.65547193                8.04936388               46.37711368                0.73252797               -0.18423248               -0.18431460                0.61404604                0.00022209                0.05169963                0.00819824
               4.65388742                8.05007509               46.27068182                0.72729280               -0.13252384               -0.13223210                0.44121770               -0.00007273                0.09841566                0.00476124
               5.65282145                8.05077150               46.16449218                0.72386954               -0.08060660               -0.08041124                0.26830376               -0.00029120                0.11961834                0.00268399
               6.65227529                8.05145510               46.05844821                0.72184635               -0.02865919               -0.02854698                0.09533907               -0.00034131                0.13069658                0.00120613
               7.65224827                8.05212761               45.95246173                0.72121006                0.02325014                0.02333971               -0.07766012               -0.00031667                0.13223943               -0.00004713
               8.65274029                8.05278985               45.84644795                0.72195540                0.07516326                0.07524028               -0.25068543               -0.00026076                0.12444526               -0.00139656
               9.65375153                8.05344261               45.74032265                0.72408569                0.12710346                0.12715176               -0.42373058               -0.00014274                0.10724782               -0.00319893
              10.65528236                8.05408703               45.63399974                0.72761220                0.17902436                0.17909455               -0.59678654                0.00006966                0.08040902               -0.00597176
              11.65733202                8.05472372               45.52739024                0.73255524                0.23083261                0.23124431               -0.76983581                0.00026206                0.04384294               -0.01065011
              12.65989901                8.05534974               45.42040631                0.86828108                0.25669888                0.28367159               -0.94284730                0.00076086                0.02072267               -0.01861612
               2.65658600                9.04627674               46.48195271                0.86849029               -0.20896391               -0.23647709                0.78345464               -0.00038227                0.01784304                0.01252969
               3.65449636                9.04752744               46.37484358                0.73252525               -0.18322247               -0.18284580                0.61045862               -0.00000274                0.05656055                0.00420532
               4.65292155                9.04875874               46.26843767                0.72729573               -0.13138462               -0.13126880                0.43764691               -0.00025848                0.10711595                0.00261015
               5.65186867                9.04997247               46.16228611                0.72387747               -0.07935781               -0.07941301                0.26474665               -0.00033264                0.12912942                0.00146598
               6.65133440                9.05117479               46.05628476                0.72185764               -0.02751463               -0.02752275                0.09179368               -0.00026066                0.14049911                0.00066183
               7.65131838                9.05236623               45.95034260                0.72122326                0.02431324                0.02439206               -0.08119536               -0.00022514                0.14205702               -0.00001461
               8.65182066                9.05354753               45.84437211                0.72196927                0.07615988                0.07631399               -0.25421142               -0.00019653                0.13398538               -0.00074962
               9.65284158                9.05471938               45.73828595                0.72409895                0.12805555                0.12823309               -0.42724828               -0.00016100                0.11611115               -0.00176124
              10.65438177                9.05588276               45.63199313                0.72762365                0.18004673                0.18015530               -0.60029719               -0.00000966                0.08780551               -0.00340002
              11.65644251                9.05704094               45.52539375                0.73256322                0.23190046                0.23212286               -0.77334371                0.00023208                0.04818988               -0.00642173
              12.65901978                9.05819352               45.41837930                0.86828470                0.25772713                0.28526532               -0.94636416                0.00076223                0.02302041               -0.01358105
               2.65506303               10.04391291               46.47960800                0.93424434               -0.20731583               -0.23638325                0.77983806                0.02710813                0.02352089                0.01087205
               3.65298987               10.04570696               46.37249115                0.86626180               -0.18129087               -0.18204749                0.60683812                0.02619102                0.06565762                0.00318608
               4.65143721               10.04744971               46.26614646                0.86364968               -0.12955581               -0.13090315                0.43405348                0.02538009                0.11943663                0.00247922
               5.65039875               10.04918324               46.16005239                0.86194192               -0.07804503               -0.07892282                0.26117349                0.02575488                0.14133072                0.00141777
               6.64987631               10.05090464               46.05411037                0.86093405               -0.02638676               -0.02701473                0.08824001                0.02580166                0.15279524                0.00056345
               7.64987102               10.05261545               45.94822802                0.86061712                0.02534484                0.02492138               -0.08473012                0.02583835                0.15433247               -0.00022626
               8.65038321               10.05431612               45.84231684                0.86099057                0.07710329                0.07685900               -0.25772768                0.02584602                0.14613421               -0.00104802
               9.65141308               10.05600727               45.73628829                0.86205496                0.12887006                0.12878905               -0.43074636                0.02585149                0.12797033               -0.00202250
              10.65296061               10.05769014               45.63004929                0.86381636                0.18064109                0.18073717               -0.60377783                0.02582893                0.09907022               -0.00336225
              11.65502591               10.05936618               45.52349588                0.86628507                0.23242422                0.23252395               -0.77680902                0.02658518                0.05693907               -0.00547539
              12.65760909               10.06105505               45.41648509                0.93414374                0.25831866                0.28615258               -0.94982676                0.02781789                0.02964368               -0.01184339
               2.75469074                0.06998516               47.50938941                0.93422401               -0.21424218               -0.24162363                0.80118626               -0.02747292                0.01934796               -0.00495942
               3.75254831                0.06653700               47.40075786                0.86631140               -0.18878742               -0.18855563                0.63119253               -0.02596790                0.04562735               -0.00481114
               4.75091499                0.06310811               47.29257730                0.86374432               -0.13798617               -0.13795924                0.46129766               -0.02526124                0.08271220               -0.00208983
               5.74978859                0.05967011               47.18463063                0.86199220               -0.08724501               -0.08691260                0.29138954               -0.02543153                0.10325440               -0.00119945
               6.74917009                0.05622294               47.07682181                0.86095185               -0.03641394               -0.03591969                0.12146700               -0.02545429                0.11414505               -0.00051765
               7.74906031                0.05276525               46.96907158                0.86061994                0.01447128                0.01508792               -0.04846886               -0.02547509                0.11640218                0.00005020
               8.74945951                0.04929667               46.86130430                0.86099381                0.06537286                0.06609669               -0.21842007               -0.02547676                0.11027454                0.00057612
               9.75036777                0.04581677               46.75344568                0.86207524                0.11626680                0.11709887               -0.38838923               -0.02548343                0.09579874                0.00110673
              10.75178485                0.04232433               46.64542081                0.86386852                0.16715976                0.16814226               -0.55837675               -0.02543251                0.07282381                0.00169926
              11.75371096                0.03881863               46.53715239                0.86638134                0.21798805                0.21893902               -0.72837895               -0.02609525                0.04072319                0.00238940
              12.75614461                0.03528103               46.42855298                0.93420954                0.24336460                0.27187695               -0.89839414               -0.02615273                0.01991367                0.00415459
               2.75786416                1.06756892               47.50726102                0.86833477               -0.21370044               -0.24065897                0.79777392               -0.00065672                0.01578803               -0.00383131
               3.75572716                1.06465145               47.39861001                0.73238162               -0.18841692               -0.18820716                0.62777281               -0.00014117                0.04336042               -0.00475205
               4.75409582                1.06172852               47.29043605                0.72728857               -0.13751478               -0.13732242                0.45787418                0.00004650                0.08082117               -0.00187346
               5.75297686                1.05880098               47.18247752                0.72388301               -0.08639259               -0.08636007                0.28794808                0.00014755                0.10031570               -0.00086604
               6.75236797                1.05586374               47.07465460                0.72186451               -0.03540826               -0.03538261                0.11800633                0.00009994                0.11101166               -0.00041407
               7.75226870                1.05291613               46.96688894                0.72122106                0.01555073                0.01561026               -0.05194923                0.00006844                0.11315395               -0.00021284
               8.75267899                1.04995764               46.85910562                0.72194972                0.06652035                0.06660850               -0.22192030                0.00004379                0.10696866               -0.00011790
               9.75359910                1.04698776               46.75123081                0.72405272                0.11753030                0.11760749               -0.39190957                0.00001618                0.09248395               -0.00002550
              10.75502959                1.04400575               46.64319015                0.72753963                0.16862779                0.16862319               -0.56191763               -0.00014539                0.06954172                0.00017937
              11.75697166                1.04100802               46.53490668                0.73242882                0.21955449                0.21969515               -0.73193989               -0.00021040                0.03795832                0.00068211
              12.75942068                1.03799980               46.42630240                0.86819709                0.24490224                0.27192285               -0.90196180                0.00056229                0.01763055                0.00211359
               2.76051255                2.06517198               47.50507103                0.86822058               -0.21266603               -0.23900677                0.79435280               -0.00071378                0.01285830               -0.00268323
               3.75838589                2.06277286               47.39639771                0.73213877               -0.18730839               -0.18745223                0.62435170               -0.00028649                0.04289981               -0.00345959
               4.75676638                2.06036167               47.28825118                0.72708696               -0.13647862               -0.13624662                0.45447440               -0.00010539                0.08187094               -0.00169915
               5.75565632                2.05794291               47.18030095                0.72378069               -0.08547245               -0.08528824                0.28453117                0.00006498                0.09993379               -0.00071273
               6.75505694                2.05551529               47.07247713                0.72182321               -0.03442654               -0.03432026                0.11456214                0.00009562                0.10995072               -0.00035852
               7.75496779                2.05307746               46.96470653                0.72120183                0.01659129                0.01666066               -0.05542425                0.00006333                0.11177777               -0.00032560
               8.75538876                2.05062884               46.85691636                0.72191149                0.06760933                0.06765283               -0.22542728                0.00001261                0.10546378               -0.00045593
               9.75631998                2.04816892               46.74903441                0.72395548                0.11864575                0.11866040               -0.39544887               -0.00008710                0.09101543               -0.00063120
              10.75776168                2.04569679               46.64098803                0.72734461                0.16963649                0.16971133               -0.56548780               -0.00024712                0.06835722               -0.00071650
              11.75971271                2.04321254               46.53270350                0.73209717                0.22053097                0.22101287               -0.73553303               -0.00033719                0.03739097               -0.00049167
              12.76217230                2.04071949               46.42410615                0.86797612                0.24595906                0.27237861               -0.90555507                0.00029674                0.01744483                0.00022861
               2.76264812                3.06278879               47.50288212                0.86821682               -0.21163828               -0.23773947                0.79091696               -0.00061622                0.01321020                0.00229010
               3.76053174                3.06090240               47.39421033                0.73213159               -0.18622268               -0.18655258                0.62092163               -0.00020960                0.04326210                0.00129261
               4.75892367                3.05900359               47.28606591                0.72707947               -0.13536017               -0.13534512                0.45104343               -0.00019491                0.08241060                0.00077071
               5.75782454                3.05709522               47.17812117                0.72377242               -0.08441695               -0.08427739                0.28109249               -0.00006008                0.10043537                0.00055390
               6.75723533                3.05517734               47.07029909                0.72181488               -0.03340627               -0.03327663                0.11110632               -0.00000475                0.11011022                0.00021458
               7.75715641                3.05324934               46.96252749                0.72119438                0.01762217                0.01771753               -0.05890162               -0.00001462                0.11169553               -0.00028088
               8.75758778                3.05131069               46.85473459                0.72190566                0.06864963                0.06872392               -0.22892793               -0.00006618                0.10522597               -0.00091557
               9.75852941                3.04936097               46.74684890                0.72395271                0.11966288                0.11976260               -0.39897262               -0.00015141                0.09070648               -0.00167321
              10.75998103                3.04739998               46.63879873                0.72734513                0.17064062                0.17088196               -0.56903127               -0.00024396                0.06808348               -0.00252054
              11.76194222                3.04542828               46.53051151                0.73210173                0.22158368                0.22209551               -0.73908858               -0.00021242                0.03723468               -0.00340939
              12.76441271                3.04344738               46.42191307                0.86797894                0.24704885                0.27326473               -0.90911175                0.00041040                0.01734911               -0.00432255
               2.76427300                4.06041719               47.50070860                0.86821333               -0.21060989               -0.23662168                0.78747244               -0.00056301                0.01341703                0.00758782
               3.76216690                4.05904181               47.39202799                0.73212547               -0.18516618               -0.18554409                0.61747773               -0.00011485                0.04387608                0.00480947
               4.76056967                4.05765476               47.28388324                0.72707363               -0.13427646               -0.13438440                0.44759778               -0.00015038                0.08355011                0.00313655
               5.75948137                4.05625736               47.17594056                0.72376665               -0.08334806               -0.08328194                0.27764036               -0.00011221                0.10172365                0.00186573
               6.75890271                4.05484976               47.06812152                0.72181005               -0.03236130               -0.03224153                0.10764291               -0.00009016                0.11139103                0.00081052
               7.75883414                4.05343181               46.96035221                0.72119028                0.01865514                0.01877271               -0.06238003               -0.00009770                0.11285000               -0.00022385
               8.75927581                4.05200332               46.85256018                0.72190372                0.06967584                0.06979672               -0.23242317               -0.00012345                0.10619899               -0.00136896
               9.76022766                4.05056417               46.74467352                0.72395245                0.12068339                0.12086096               -0.40248417               -0.00015595                0.09146201               -0.00273175
              10.76168948                4.04911443               46.63662022                0.72734819                0.17167002                0.17198279               -0.57255627               -0.00016716                0.06859815               -0.00440299
              11.76366106                4.04765445               46.52832756                0.73210656                0.22264156                0.22313761               -0.74262218               -0.00011764                0.03749480               -0.00645617
              12.76614231                4.04618479               46.41972129                0.86798217                0.24812540                0.27424597               -0.91264696                0.00046807                0.01747002               -0.00893852
               2.76538763                5.05805635               47.49854305                0.86821006               -0.20957555               -0.23556691                0.78401913               -0.00052915                0.01377491                0.01206131
               3.76329187                5.05719152               47.38984621                0.73211958               -0.18412563               -0.18450886                0.61402216               -0.00003061                0.04487541                0.00766332
               4.76170511                5.05631590               47.28169843                0.72706846               -0.13322851               -0.13336242                0.44414110               -0.00007233                0.08545511                0.00494191
               5.76062730                5.05542958               47.17375801                0.72376302               -0.08230182               -0.08225364                0.27417942               -0.00011349                0.10402362                0.00291121
               6.76005908                5.05453251               47.06594419                0.72180749               -0.03132017               -0.03120119                0.10417454               -0.00014862                0.11386169                0.00129649
               7.76000090                5.05362480               46.95818093                0.72118955                0.01969318                0.01982206               -0.06585847               -0.00016545                0.11528370               -0.00016889
               8.76045294                5.05270663               46.85039376                0.72190443                0.07071361                0.07085346               -0.23591315               -0.00015927                0.10841180               -0.00173182
               9.76141517                5.05177819               46.74250908                0.72395503                0.12172366                0.12192331               -0.40598542               -0.00013020                0.09329229               -0.00362040
              10.76288742                5.05083964               46.63445336                0.72735138                0.17271711                0.17304234               -0.57606761               -0.00008478                0.06990577               -0.00605237
              11.76486951                5.04989103               46.52615260                0.73211187                0.22369871                0.22418325               -0.74614071               -0.00003755                0.03817390               -0.00922047
              12.76736139                5.04893230               46.41753171                0.86798560                0.24918768                0.27527808               -0.91616862                0.00051146                0.01780445               -0.01325651
               2.76599208                6.05570585               47.49637681                0.86820704               -0.20853410               -0.23455709                0.78055678               -0.00049251                0.01430742                0.01546007
               3.76390674                6.05535163               47.38765657                0.73211457               -0.18309542               -0.18346303                0.61055449                0.00005752                0.04638748                0.00948800
               4.76233017                6.05498751               47.27950536                0.72706509               -0.13221230               -0.13228878                0.44067418                0.00000695                0.08835447                0.00598304
               5.76126249                6.05461228               47.17156965                0.72376214               -0.08128263               -0.08118581                0.27071126               -0.00011559                0.10756032                0.00347121
               6.76070452                6.05422573               47.06376551                0.72180800               -0.03028885               -0.03014893                0.10070262               -0.00020503                0.11771864                0.00155810
               7.76065672                6.05382825               46.95601372                0.72119110                0.02073618                0.02086397               -0.06933624               -0.00022847                0.11915541               -0.00012397
               8.76111924                6.05342039               46.84823689                0.72190742                0.07176657                0.07188797               -0.23939809               -0.00019120                0.11200777               -0.00190723
               9.76209205                6.05300264               46.74035854                0.72395901                0.12278489                0.12295019               -0.40947778               -0.00010386                0.09632879               -0.00412149
              10.76357494                6.05257528               46.63230235                0.72735659                0.17378011                0.17407096               -0.57956707               -0.00000108                0.07211271               -0.00712019
              11.76556765                6.05213811               46.52399171                0.73211836                0.22475398                0.22523508               -0.74964623                0.00004672                0.03933242               -0.01125435
              12.76807002                6.05169035               46.41534974                0.86798892                0.25023704                0.27635840               -0.91967937                0.00055912                0.01838456               -0.01678811
               2.76608622                7.05336521               47.49419740                0.86820412               -0.20748583               -0.23362102                0.77708343               -0.00043270                0.01508250                0.01732874
               3.76401136                7.05352226               47.38544728                0.73210985               -0.18208085               -0.18238361                0.60707313                0.00015994                0.04859574                0.00988262
               4.76244460                7.05367013               47.27729522                0.72706300               -0.13122935               -0.13115351                0.43719644                0.00004728                0.09256323                0.00598933
               5.76138677                7.05380586               47.16937000                0.72376275               -0.08027936               -0.08009452                0.26723583               -0.00017051                0.11264853                0.00341039
               6.76083901                7.05392953               47.06158295                0.72181119               -0.02925489               -0.02909936                0.09722753               -0.00027807                0.12324068                0.00153291
               7.76080167                7.05404208               46.95385068                0.72119622                0.02178574                0.02189810               -0.07281281               -0.00028996                0.12471794               -0.00008487
               8.76127473                7.05414439               46.84609212                0.72191317                0.07282620                0.07290990               -0.24287760               -0.00023010                0.11724096               -0.00180999
               9.76225820                7.05423719               46.73822708                0.72396553                0.12385957                0.12395054               -0.41296094               -0.00010246                0.10083415               -0.00402842
              10.76375192                7.05432105               46.63017498                0.72736309                0.17485903                0.17506123               -0.58305382                0.00007073                0.07545556               -0.00722492
              11.76575538                7.05439574               46.52185477                0.73212444                0.22580899                0.22628275               -0.75313802                0.00015033                0.04111493               -0.01200914
              12.76826810                7.05445946               46.41318607                0.86799235                0.25127204                0.27750964               -0.92317908                0.00062976                0.01929035               -0.01891032
               2.76566933                8.05103343               47.49198703                0.86820087               -0.20643048               -0.23285546                0.77359466               -0.00032344                0.01623613                0.01703405
               3.76360502                8.05170396               47.38320190                0.73210630               -0.18109061               -0.18117109                0.60357389                0.00021795                0.05181562                0.00822635
               4.76204752                8.05236444               47.27505653                0.72706340               -0.13026725               -0.12998084                0.43370516               -0.00007177                0.09857831                0.00478546
               5.76099968                8.05301039               47.16715252                0.72376648               -0.07923881               -0.07904749                0.26375185               -0.00028605                0.11972193                0.00270243
               6.76046274                8.05364374               47.05939367                0.72181772               -0.02818094               -0.02807115                0.09374881               -0.00033499                0.13076283                0.00121691
               7.76043606                8.05426621               46.95169198                0.72120487                0.02283940                0.02292729               -0.07628807               -0.00031056                0.13227654               -0.00004564
               8.76091953                8.05487858               46.84396272                0.72192321                0.07386345                0.07393934               -0.24635049               -0.00025559                0.12445635               -0.00140540
               9.76191333                8.05548165               46.73612176                0.72397451                0.12491405                0.12496217               -0.41643254               -0.00013986                0.10723657               -0.00321890
              10.76341781                8.05607650               46.62808307                0.72737094                0.17594589                0.17601576               -0.58652551                0.00006856                0.08038475               -0.00600396
              11.76543225                8.05666377               46.51975786                0.73213137                0.22686744                0.22727261               -0.75661262                0.00025752                0.04382587               -0.01069803
              12.76795516                8.05724054               46.41105859                0.86799598                0.25229113                0.27880209               -0.92666252                0.00074782                0.02070560               -0.01868854
               2.76473869                9.04870810               47.48972055                0.86819796               -0.20539880               -0.23244081                0.77008230               -0.00037578                0.01787081                0.01257165
               3.76268471                9.04989884               47.38089624                0.73210309               -0.18009814               -0.17972724                0.60004842               -0.00000331                0.05669635                0.00421823
               4.76113673                9.05107051               47.27277698                0.72706610               -0.12914773               -0.12903450                0.43019604               -0.00025450                0.10731186                0.00262450
               5.76010175                9.05222491               47.16491119                0.72377392               -0.07801167               -0.07806651                0.26025636               -0.00032689                0.12926383                0.00147727
               6.75957650                9.05336811               47.05719507                0.72182894               -0.02705633               -0.02706459                0.09026480               -0.00025582                0.14059421                0.00066861
               7.75956062                9.05450062               46.94953780                0.72121814                0.02388406                0.02396145               -0.07976215               -0.00022081                0.14212159               -0.00001342
               8.76005418                9.05562317               46.84185193                0.72193633                0.07484282                0.07499446               -0.24981553               -0.00019269                0.13402308               -0.00075471
               9.76105748                9.05673643               46.73405018                0.72398727                0.12584975                0.12602475               -0.41988944               -0.00015777                0.11612546               -0.00177290
              10.76257117                9.05784137               46.62604166                0.72738207                0.17695065                0.17705826               -0.58997570               -0.00000909                0.08780381               -0.00341930
              11.76459649                9.05894119               46.51772659                0.73214002                0.22791677                0.22813633               -0.76005986                0.00022848                0.04818724               -0.00645202
              12.76712951                9.06003551               46.40899671                0.86799947                0.25330149                0.28036825               -0.93011820                0.00074927                0.02301179               -0.01363423
               2.76328034               10.04638462               47.48733999                0.93409815               -0.20377895               -0.23234872                0.76652772                0.02664457                0.02356696                0.01091159
               3.76124255               10.04810941               47.37850791                0.86605142               -0.17819935               -0.17894241                0.59649028                0.02574146                0.06582711                0.00319696
               4.75971635               10.04978375               47.27045014                0.86353499               -0.12735040               -0.12867541                0.42666485                0.02494470                0.11967821                0.00249291
               5.75869554               10.05144906               47.16264203                0.86189072               -0.07672212               -0.07758473                0.25674488                0.02531409                0.14150703                0.00142763
               6.75818191               10.05310245               47.05498546                0.86091936               -0.02594830               -0.02656532                0.08677259                0.02536014                0.15293147                0.00056878
               7.75817658               10.05474544               46.94738818                0.86061466                0.02489766                0.02448162               -0.08323571                0.02539622                0.15443754               -0.00022600
               8.75867986               10.05637847               46.83976180                0.86097396                0.07576994                0.07553006               -0.25327106                0.02540378                0.14621205               -0.00105339
               9.75969198               10.05800214               46.73201785                0.86199920                0.12665043                0.12657109               -0.42332716                0.02540930                0.12802422               -0.00203349
              10.76121287               10.05961767               46.62406331                0.86369563                0.17753522                0.17763002               -0.59339613                0.02538739                0.09910635               -0.00337971
              11.76324268               10.06122649               46.51579436                0.86607341                0.22843170                0.22853062               -0.76346498                0.02613039                0.05696687               -0.00550176
              12.76578151               10.06284791               46.40706817                0.93400088                0.25388265                0.28124002               -0.93352010                0.02734099                0.02965906               -0.01189100
               2.86436598                0.07208099               48.51733151                0.93407604               -0.21050391               -0.23740645                0.78720177               -0.02699224                0.01939251               -0.00496554
               3.86226094                0.06865385               48.40701486                0.86609501               -0.18549458               -0.18526642                0.62018280               -0.02551320                0.04573797               -0.00480941
               4.86065608                0.06524565               48.29715019                0.86362424               -0.13558247               -0.13555608                0.45326093               -0.02481909                0.08287831               -0.00207674
               5.85954929                0.06182849               48.18751927                0.86193756               -0.08572936               -0.08540257                0.28632604               -0.02498674                0.10341594               -0.00118893
               6.85894150                0.05840232               48.07802606                0.86093682               -0.03578771               -0.03530200                0.11937712               -0.02500916                0.11429813               -0.00051107
               7.85883353                0.05496581               47.96859131                0.86061703                0.01420720                0.01481308               -0.04758501               -0.02502956                0.11654248                0.00005263
               8.85922564                0.05151860               47.85913935                0.86097692                0.06421821                0.06492933               -0.21456228               -0.02503118                0.11039591                0.00057428
               9.86011790                0.04806027               47.74959587                0.86201753                0.11422173                0.11503911               -0.38155720               -0.02503775                0.09589581                0.00110052
              10.86151008                0.04458963               47.63988597                0.86374355                0.16422429                0.16518938               -0.54857026               -0.02498765                0.07289416                0.00168794
              11.86340238                0.04110597               47.52993237                0.86616239                0.21416310                0.21509723               -0.71559762               -0.02563865                0.04076540                0.00237387
              12.86579334                0.03759097               47.41964765                0.93406228                0.23909545                0.26710875               -0.88263765               -0.02569491                0.01993130                0.00414871
               2.86752319                1.06970693               48.51516929                0.86804235               -0.20997195               -0.23645858                0.78385022               -0.00064476                0.01581218               -0.00382279
               3.86542347                1.06680119               48.40483312                0.73195727               -0.18513090               -0.18492441                0.61682373               -0.00013848                0.04345233               -0.00473607
               4.86382058                1.06389009               48.29497500                0.72705490               -0.13511934               -0.13493059                0.44989811                0.00004562                0.08096336               -0.00183747
               5.86272109                1.06097446               48.18533205                0.72377728               -0.08489160               -0.08486005                0.28294564                0.00014460                0.10044553               -0.00083614
               6.86212274                1.05804930               48.07582454                0.72183474               -0.03479947               -0.03477455                0.11597766                0.00009761                0.11113207               -0.00039601
               7.86202510                1.05511394               47.96637417                0.72121590                0.01526774                0.01532612               -0.05100382                0.00006668                0.11326119               -0.00020833
               8.86242810                1.05216789               47.85690598                0.72191700                0.06534538                0.06543209               -0.21800055                0.00004248                0.10705666               -0.00012752
               9.86333201                1.04921066               47.74734612                0.72394087                0.11546270                0.11553884               -0.38501533                0.00001537                0.09254709               -0.00004943
              10.86473735                1.04624152               47.63762022                0.72729769                0.16566597                0.16566198               -0.55204848               -0.00014330                0.06957811                0.00014151
              11.86664532                1.04325694               47.52765136                0.73200271                0.21570150                0.21584029               -0.71909550               -0.00020681                0.03797375                0.00063460
              12.86905138                1.04026206               47.41736171                0.86791003                0.24060576                0.26715366               -0.88614249                0.00055274                0.01762820                0.00207454
               2.87016456                2.06735182               48.51294540                0.86793260               -0.20895580               -0.23483537                0.78048970               -0.00070104                0.01287342               -0.00266768
               3.86807500                2.06495536               48.40258690                0.73172289               -0.18404186               -0.18418323                0.61346328               -0.00028143                0.04299312               -0.00343378
               4.86648372                2.06254704               48.29275643                0.72686038               -0.13410144               -0.13387394                0.44655893               -0.00010371                0.08200599               -0.00165579
               5.86539297                2.06013129               48.18312161                0.72367851               -0.08398768               -0.08380738                0.27958946                0.00006338                0.10003216               -0.00067442
               6.86480397                2.05770683               48.07361294                0.72179482               -0.03383497               -0.03373112                0.11259440                0.00009331                0.11003277               -0.00033476
               7.86471627                2.05527233               47.96415732                0.72119633                0.01628998                0.01635788               -0.05441736                0.00006144                0.11184435               -0.00032024
               8.86512977                2.05282724               47.85468196                0.72187935                0.06641507                0.06645797               -0.22144549                0.00001164                0.10551031               -0.00047034
               9.86604457                2.05037105               47.74511464                0.72384675                0.11655830                0.11657322               -0.38849199               -0.00008621                0.09103759               -0.00066535
              10.86746093                2.04790287               47.63538271                0.72710815                0.16665671                0.16673104               -0.55555559               -0.00024332                0.06835706               -0.00076772
              11.86937771                2.04542277               47.52541257                0.73168299                0.21666075                0.21713494               -0.72262557               -0.00033148                0.03738486               -0.00055256
              12.87179415                2.04293405               47.41512984                0.86769679                0.24164404                0.26760136               -0.88967293                0.00029149                0.01743211                0.00017481
               2.87230209                3.06501022               48.51072243                0.86792901               -0.20794622               -0.23359057                0.77711456               -0.00060523                0.01322599                0.00231267
               3.87022262                3.06311752               48.40036553                0.73171653               -0.18297536               -0.18329963                0.61009410               -0.00020596                0.04335266                0.00132193
               4.86864258                3.06121261               48.29053716                0.72685321               -0.13300277               -0.13298843                0.44318882               -0.00019167                0.08253579                0.00080209
               5.86756257                3.05929831               48.18090775                0.72367046               -0.08295079               -0.08281434                0.27621146               -0.00005931                0.10051578                0.00058163
               6.86698356                3.05737468               48.07140064                0.72178663               -0.03283272               -0.03270594                0.10919975               -0.00000512                0.11016758                0.00023198
               7.86690591                3.05544110               47.96194381                0.72118911                0.01730262                0.01739606               -0.05783323               -0.00001497                0.11173418               -0.00027796
               8.86732961                3.05349705               47.85246549                0.72187429                0.06743702                0.06751013               -0.22488435               -0.00006560                0.10524371               -0.00092879
               9.86825465                3.05154213               47.74289420                0.72384414                0.11755742                0.11765588               -0.39195338               -0.00014913                0.09070179               -0.00170219
              10.86968076                3.04957614               47.63315829                0.72710948                0.16764317                0.16788091               -0.55903649               -0.00023987                0.06806184               -0.00256205
              11.87160752                3.04759964               47.52318533                0.73168737                0.21769505                0.21819834               -0.72611870               -0.00020876                0.03721602               -0.00345708
              12.87403466                3.04561409               47.41290151                0.86769960                0.24271472                0.26847202               -0.89316671                0.00040313                0.01732916               -0.00436747
               2.87393785                4.06268001               48.50851477                0.86792574               -0.20693601               -0.23249258                0.77373111               -0.00055312                0.01343200                0.00762046
               3.87186849                4.06128937               48.39814905                0.73171050               -0.18193752               -0.18230896                0.60671115               -0.00011294                0.04396453                0.00484073
               4.87029910                4.05988727               48.28832034                0.72684707               -0.13193823               -0.13204461                0.43980403               -0.00014783                0.08366961                0.00316581
               5.86922972                4.05847500               48.17869292                0.72366475               -0.08190085               -0.08183644                0.27282047               -0.00011035                0.10179377                0.00188947
               6.86866108                4.05705271               48.06918875                0.72178167               -0.03180624               -0.03168912                0.10579759               -0.00008888                0.11143374                0.00082475
               7.86859360                4.05562025               47.95973405                0.72118522                0.01831734                0.01843259               -0.06125012               -0.00009635                0.11287113               -0.00022230
               8.86902743                4.05417744               47.85025644                0.72187134                0.06844511                0.06856396               -0.22831778               -0.00012169                0.10619850               -0.00138146
               9.86996250                4.05272417               47.74068401                0.72384380                0.11856001                0.11873478               -0.39540303               -0.00015341                0.09144046               -0.00275798
              10.87139863                4.05126049               47.63094484                0.72711185                0.16865442                0.16896214               -0.56249918               -0.00016413                0.06856358               -0.00444106
              11.87333559                4.04978674               47.52096637                0.73169207                0.21873420                0.21922187               -0.72958962               -0.00011566                0.03746934               -0.00650186
              12.87577331                4.04830349               47.41067469                0.86770255                0.24377225                0.26943592               -0.89663956                0.00045956                0.01744665               -0.00898653
               2.87507230                5.06036037               48.50631500                0.86792303               -0.20591985               -0.23145643                0.77033861               -0.00051988                0.01378979                0.01210385
               3.87301310                5.05947134               48.39593303                0.73170542               -0.18091528               -0.18129196                0.60331631               -0.00003022                0.04496438                0.00769759
               4.87145399                5.05857172               48.28610126                0.72684297               -0.13090879               -0.13104060                0.43640816               -0.00007119                0.08557432                0.00497169
               5.87039492                5.05766158               48.17647606                0.72366139               -0.08087317               -0.08082630                0.26942077               -0.00011155                0.10409033                0.00293402
               6.86983653                5.05674089               48.06697705                0.72177933               -0.03078360               -0.03066715                0.10239058               -0.00014611                0.11389792                0.00130951
               7.86977925                5.05580975               47.95752829                0.72118413                0.01933694                0.01946341               -0.06466708               -0.00016267                0.11529636               -0.00016784
               8.87022327                5.05486833               47.84805542                0.72187192                0.06946453                0.06960202               -0.23174607               -0.00015663                0.10840222               -0.00174403
               9.87116854                5.05391682               47.73848487                0.72384575                0.11958203                0.11977837               -0.39884260               -0.00012802                0.09326222               -0.00364585
              10.87261491                5.05295539               47.62874318                0.72711578                0.16968305                0.17000282               -0.56594822               -0.00008325                0.06986453               -0.00609019
              11.87456220                5.05198407               47.51875653                0.73169733                0.21977258                0.22024883               -0.73304546               -0.00003686                0.03814488               -0.00926865
              12.87701036                5.05100281               47.40845019                0.86770590                0.24481568                0.27044973               -0.90009903                0.00050235                0.01777914               -0.01331267
               2.87570550                6.05805088               48.50411444                0.86791960               -0.20489690               -0.23046453                0.76693778               -0.00048383                0.01432341                0.01551103
               3.87365653                6.05766353               48.39370902                0.73169996               -0.17990333               -0.18026469                0.59991023                0.00005636                0.04648055                0.00952416
               4.87210743                6.05726646               48.28387383                0.72683957               -0.12991053               -0.12998598                0.43300267                0.00000659                0.08847962                0.00601320
               5.87105832                6.05685847               48.17425333                0.72366026               -0.07987201               -0.07977733                0.26601384               -0.00011367                0.10763051                0.00349362
               6.87050999                6.05643937               48.06476395                0.72177959               -0.02977055               -0.02963350                0.09898009               -0.00020136                0.11775618                0.00157077
               7.87046291                6.05600952               47.95532662                0.72118612                0.02036150                0.02048690               -0.06808336               -0.00022428                0.11916764               -0.00012292
               8.87091722                6.05556948               47.84586401                0.72187522                0.07049886                0.07061826               -0.23516941               -0.00018765                0.11199680               -0.00191924
               9.87187289                6.05511973               47.73629972                0.72384972                0.12062447                0.12078713               -0.40227326               -0.00010210                0.09629737               -0.00414691
              10.87332971                6.05466054               47.62655748                0.72711988                0.17072731                0.17101337               -0.56938607               -0.00000121                0.07207087               -0.00715864
              11.87528743                6.05419171               47.51656089                0.73170330                0.22080924                0.22128213               -0.73648913                0.00004605                0.03930381               -0.01130598
              12.87774590                6.05371248               47.40623343                0.86770912                0.24584646                0.27151092               -0.90354752                0.00054949                0.01836024               -0.01685386
               2.87583732                7.05575108               48.50190060                0.86791693               -0.20386723               -0.22954506                0.76352599               -0.00042512                0.01510100                0.01738503
               3.87379865                7.05586605               48.39146522                0.73169597               -0.17890678               -0.17920435                0.59649055                0.00015703                0.04869689                0.00991748
               4.87225918                7.05597200               48.28162923                0.72683764               -0.12894503               -0.12887084                0.42958651                0.00004622                0.09270142                0.00601772
               5.87121975                7.05606604               48.17201923                0.72366093               -0.07888649               -0.07870539                0.26259988               -0.00016758                0.11273015                0.00343168
               6.87068145                7.05614822               48.06254695                0.72178299               -0.02875482               -0.02860252                0.09556646               -0.00027295                0.12328766                0.00154512
               7.87064465                7.05621949               47.95312912                0.72119128                0.02139256                0.02150274               -0.07149847               -0.00028444                0.12473778               -0.00008360
               8.87110930                7.05628070               47.84368476                0.72188130                0.07153967                0.07162213               -0.23858732               -0.00022563                0.11723647               -0.00182086
               9.87207544                7.05633257               47.73413373                0.72385584                0.12167999                0.12176988               -0.40569477               -0.00010048                0.10080891               -0.00405212
              10.87354290                7.05637565               47.62439555                0.72712609                0.17178720                0.17198641               -0.57281189                0.00006940                0.07541919               -0.00726218
              11.87551119                7.05640972               47.51438935                0.73170952                0.22184578                0.22231160               -0.73992001                0.00014769                0.04108943               -0.01206220
              12.87797982                7.05643302               47.40403507                0.86771238                0.24686330                0.27264204               -0.90698555                0.00061883                0.01926757               -0.01898349
               2.87546705                8.05345998               48.49965565                0.86791399               -0.20283051               -0.22879302                0.76009865               -0.00031778                0.01625799                0.01708943
               3.87343875                8.05407944               48.38918516                0.73169171               -0.17793414               -0.17801300                0.59305294                0.00021397                0.05192934                0.00825384
               4.87190837                8.05468904               48.27935592                0.72683779               -0.12800003               -0.12771895                0.42615689               -0.00007077                0.09873814                0.00480903
               5.87087875                8.05528437               48.16976722                0.72366505               -0.07786431               -0.07767695                0.25917744               -0.00028097                0.11982392                0.00272063
               6.87035108                8.05586732               48.06032318                0.72178948               -0.02769989               -0.02759248                0.09214922               -0.00032871                0.13082802                0.00122753
               7.87032475                8.05643958               47.95093596                0.72119963                0.02242751                0.02251375               -0.07491231               -0.00030459                0.13231310               -0.00004416
               8.87079963                8.05700193               47.84152094                0.72189020                0.07255856                0.07263341               -0.24199888               -0.00025055                0.12446755               -0.00141391
               9.87177592                8.05755513               47.73199400                0.72386514                0.12271581                0.12276365               -0.40910493               -0.00013685                0.10722563               -0.00323838
              10.87325395                8.05810027               47.62226923                0.72713403                0.17285478                0.17292417               -0.57622196                0.00006769                0.08036018               -0.00603590
              11.87523301                8.05863795               47.51225799                0.73171604                0.22288553                0.22328419               -0.74333342                0.00025308                0.04380769               -0.01074541
              12.87771166                8.05916532               47.40187306                0.86771574                0.24786447                0.27391188               -0.91040803                0.00073468                0.02068696               -0.01875980
               2.87459203                9.05117522               48.49735436                0.86791095               -0.20181712               -0.22838589                0.75664829               -0.00036925                0.01789788                0.01261254
               3.87257386                9.05230579               48.38684455                0.73168946               -0.17695926               -0.17659417                0.58958975               -0.00000383                0.05682985                0.00423110
               4.87105285                9.05341762               48.27704159                0.72684091               -0.12690030               -0.12678959                0.42270997               -0.00025030                0.10750459                0.00263929
               5.87003585                9.05451250               48.16749124                0.72367230               -0.07665895               -0.07671333                0.25574390               -0.00032100                0.12939602                0.00148861
               6.86951967                9.05559637               48.05809005                0.72180075               -0.02659537               -0.02660366                0.08872681               -0.00025098                0.14068775                0.00067534
               7.86950395                9.05666976               47.94874735                0.72121259                0.02345359                0.02352969               -0.07832497               -0.00021653                0.14218533               -0.00001222
               8.86998874                9.05773336               47.83937580                0.72190372                0.07352072                0.07366990               -0.24540282               -0.00018882                0.13406043               -0.00075971
               9.87097436                9.05878784               47.72988816                0.72387787                0.12363519                0.12380744               -0.41250086               -0.00015440                0.11613933               -0.00178479
              10.87246144                9.05983414               47.62019362                0.72714504                0.17384180                0.17394817               -0.57961104               -0.00000829                0.08780172               -0.00343881
              11.87445120                9.06087540               47.51019255                0.73172466                0.22391610                0.22413271               -0.74671928                0.00022498                0.04818429               -0.00648138
              12.87693976                9.06191126               47.39977694                0.86771949                0.24885672                0.27545005               -0.91380185                0.00073616                0.02300271               -0.01368497
               2.87319852               10.04889226               48.49493856                0.93395482               -0.20022566               -0.22829561                0.75315637                0.02617892                0.02361323                0.01094975
               3.87119626               10.05054756               48.38442096                0.86584465               -0.17509335               -0.17582291                0.58609428                0.02528994                0.06599462                0.00320796
               4.86969665               10.05215325               48.27467976                0.86342239               -0.12513447               -0.12643707                0.41924106                0.02450764                0.11991586                0.00250743
               5.86869357               10.05375010               48.16518729                0.86184006               -0.07539276               -0.07624003                0.25229468                0.02487154                0.14168013                0.00143762
               6.86818880               10.05533524               48.05584583                0.86090524               -0.02550732               -0.02611319                0.08529641                0.02491672                0.15306549                0.00057419
               7.86818343               10.05691017               47.94656330                0.86061217                0.02444916                0.02404070               -0.08173716                0.02495220                0.15454103               -0.00022578
               8.86867778               10.05847532               47.83725142                0.86095785                0.07443155                0.07419603               -0.24879728                0.02495972                0.14628858               -0.00105888
               9.86967206               10.06003128               47.72782174                0.86194480                0.12442202                0.12434411               -0.41587795                0.02496524                0.12807698               -0.00204502
              10.87116622               10.06157923               47.61818137                0.86357707                0.17441651                0.17450976               -0.58297117                0.02494394                0.09914230               -0.00339742
              11.87316039               10.06312060               47.50822658                0.86586534                0.22442198                0.22452002               -0.75006351                0.02567359                0.05699515               -0.00552713
              12.87565466               10.06467432               47.39781468                0.93386095                0.24942723                0.27630606               -0.91714214                0.02686179                0.02967534               -0.01193591
               2.97571188                0.07421028               49.52513345                0.93393084               -0.20674878               -0.23317045                0.77315477               -0.02650940                0.01943682               -0.00497095
               3.97364439                0.07080431               49.41316152                0.86588305               -0.18218685               -0.18196238                0.60912324               -0.02505652                0.04584693               -0.00480746
               4.97206814                0.06741695               49.30164252                0.86350586               -0.13316780               -0.13314199                0.44518755               -0.02437506                0.08304170               -0.00206375
               5.97098104                0.06402078               49.19035715                0.86188406               -0.08420665               -0.08388553                0.28123899               -0.02454004                0.10357495               -0.00117847
               6.97038401                0.06061576               49.07920935                0.86092135               -0.03515816               -0.03468107                0.11727629               -0.02456203                0.11444878               -0.00050459
               7.97027787                0.05720058               48.96811988                0.86061456                0.01394271                0.01453764               -0.04669942               -0.02458208                0.11668041                0.00005500
               8.97066287                0.05377489               48.85701305                0.86096067                0.06305924                0.06375745               -0.21068977               -0.02458370                0.11051517                0.00057262
               9.97153906                0.05033829               48.74581453                0.86196136                0.11216837                0.11297095               -0.37469753               -0.02459012                0.09599101                0.00109435
              10.97290623                0.04688960               48.63444940                0.86362120                0.16127666                0.16222429               -0.53872330               -0.02454102                0.07296326                0.00167768
              11.97476459                0.04342813               48.52284044                0.86594716                0.21032219                0.21123952               -0.70276309               -0.02518017                0.04080756                0.00235953
              12.97711268                0.03993590               48.41090023                0.93391732                0.23480845                0.26232066               -0.86681537               -0.02523503                0.01994979                0.00414212
               2.97885276                1.07187858               49.52293802                0.86775581               -0.20622670               -0.23223952                0.76986425               -0.00063266                0.01583582               -0.00381408
               3.97679049                1.06898468               49.41094648                0.73154083               -0.18183005               -0.18162696                0.60582534               -0.00013580                0.04354257               -0.00472011
               4.97521616                1.06608553               49.29943401                0.72682568               -0.13271297               -0.13252788                0.44188575                0.00004462                0.08110315               -0.00180177
               5.97413623                1.06318192               49.18813643                0.72367390               -0.08338354               -0.08335296                0.27791973                0.00014165                0.10057329               -0.00080665
               6.97354849                1.06026895               49.07697415                0.72180564               -0.03418747               -0.03416325                0.11393827                0.00009536                0.11125051               -0.00037826
               7.97345249                1.05734596               48.96586886                0.72121047                0.01498418                0.01504137               -0.05005641                0.00006490                0.11336668               -0.00020390
               8.97384817                1.05441247               48.85474561                0.72188459                0.06416600                0.06425120               -0.21406594                0.00004112                0.10714311               -0.00013693
               9.97473581                1.05146800               48.74353050                0.72383150                0.11338671                0.11346180               -0.37809314                0.00001462                0.09260927               -0.00007305
              10.97611591                1.04851184               48.63214918                0.72705852                0.16269190                0.16268854               -0.54213856               -0.00014116                0.06961426                0.00010455
              11.97798964                1.04554052               48.52052477                0.73158435                0.21183256                0.21196946               -0.70619796               -0.00020316                0.03798878                0.00058814
              12.98035256                1.04255910               48.40857955                0.86762832                0.23629149                0.26236455               -0.87025721                0.00054321                0.01762529                0.00203574
               2.98148701                2.06956549               49.52068083                0.86764983               -0.20522899               -0.23064550                0.76656497               -0.00068831                0.01288821               -0.00265246
               3.97943472                2.06717177               49.40866697                0.73131528               -0.18076067               -0.18089965                0.60252627               -0.00027639                0.04308494               -0.00340840
               4.97787180                2.06476639               49.29718235                0.72663810               -0.13171341               -0.13149045                0.43860742               -0.00010197                0.08213863               -0.00161303
               5.97680046                2.06235372               49.18589273                0.72357792               -0.08249589               -0.08231948                0.27462434                0.00006179                0.10012867               -0.00063679
               6.97622188                2.05993249               49.07472902                0.72176645               -0.03324027               -0.03313882                0.11061619                0.00009091                0.11011344               -0.00031146
               7.97613565                2.05750141               48.96361818                0.72119096                0.01598800                0.01605445               -0.05340826                0.00005955                0.11190990               -0.00031500
               8.97654164                2.05505992               48.85248746                0.72184797                0.06521638                0.06525864               -0.21744883                0.00001064                0.10555603               -0.00048452
               9.97743998                2.05260753               48.74126457                0.72374015                0.11446247                0.11447767               -0.38150722               -0.00008533                0.09105941               -0.00069872
              10.97883089                2.05014337               48.62987692                0.72687719                0.16366464                0.16373845               -0.54558248               -0.00023924                0.06835712               -0.00081846
              11.98071327                2.04766752               48.51825099                0.73127636                0.21277446                0.21324086               -0.70966459               -0.00032560                0.03737875               -0.00061307
              12.98308638                2.04518319               48.40631270                0.86742287                0.23731107                0.26280415               -0.87372427                0.00028612                0.01741927                0.00012197
               2.98362644                3.06726567               49.51842441                0.86764696               -0.20423748               -0.22942316                0.76325043               -0.00059435                0.01324146                0.00233485
               3.98158406                3.06536669               49.40641221                0.73130912               -0.17971332               -0.18003200                0.59921757               -0.00020227                0.04344170                0.00135054
               4.98003217                3.06345572               49.29492968                0.72663081               -0.13063461               -0.13062090                0.43529818               -0.00018827                0.08265880                0.00083284
               5.97897137                3.06153553               49.18364540                0.72356991               -0.08147783               -0.08134436                0.27130761               -0.00005849                0.10059482                0.00060901
               6.97840262                3.05960617               49.07248308                0.72175845               -0.03225610               -0.03213216                0.10728292               -0.00000552                0.11022401                0.00024904
               7.97832625                3.05766705               48.96137083                0.72118404                0.01698241                0.01707386               -0.05676243               -0.00001525                0.11177229               -0.00027505
               8.97874226                3.05571764               48.85023690                0.72184289                0.06621982                0.06629175               -0.22082544               -0.00006496                0.10526138               -0.00094176
               9.97965065                3.05375756               48.73900983                0.72373713                0.11544361                0.11554073               -0.38490618               -0.00014697                0.09069694               -0.00173051
              10.98105114                3.05178661               48.62761800                0.72687781                0.16463347                0.16486745               -0.54900074               -0.00023576                0.06804012               -0.00260273
              11.98294332                3.04980534               48.51598913                0.73128074                0.21379016                0.21428481               -0.71309443               -0.00020487                0.03719794               -0.00350412
              12.98532694                3.04781519               48.40404974                0.86742537                0.23836238                0.26365926               -0.87715496                0.00039594                0.01731029               -0.00441179
               2.98527308                4.06497703               49.51618322                0.86764356               -0.20324543               -0.22834491                0.75992783               -0.00054318                0.01344641                0.00765234
               3.98324062                4.06357113               49.40416221                0.73130332               -0.17869414               -0.17905911                0.59589544               -0.00011101                0.04405147                0.00487116
               4.98169919                4.06215398               49.29267932                0.72662539               -0.12958927               -0.12969403                0.43197443               -0.00014533                0.08378724                0.00319453
               5.98064884                4.06072683               49.18139697                0.72356516               -0.08044689               -0.08038404                0.26797778               -0.00010852                0.10186254                0.00191297
               6.98009026                4.05928985               49.07023747                0.72175307               -0.03124823               -0.03113365                0.10394220               -0.00008748                0.11147563                0.00083876
               7.98002387                4.05784289               48.95912721                0.72117977                0.01797879                0.01809166               -0.06011759               -0.00009492                0.11289206               -0.00022069
               8.98044983                4.05638575               48.84799383                0.72184088                0.06720972                0.06732647               -0.22419668               -0.00011979                0.10619807               -0.00139390
               9.98136807                4.05491835               48.73676545                0.72373714                0.11642808                0.11660003               -0.38829319               -0.00015090                0.09141938               -0.00278430
              10.98277839                4.05344072               48.62537024                0.72687945                0.16562661                0.16592908               -0.55240110               -0.00016130                0.06852951               -0.00447819
              11.98468060                4.05195321               48.51373577                0.73128546                0.21481069                0.21528976               -0.71650289               -0.00011339                0.03744393               -0.00654630
              12.98707461                4.05045637               48.40178850                0.86742851                0.23940084                0.26460561               -0.88056456                0.00045144                0.01742328               -0.00903385
               2.98642737                5.06269877               49.51394983                0.86764059               -0.20224763               -0.22732752                0.75659675               -0.00051057                0.01380459                0.01214545
               3.98440490                5.06178551               49.40191253                0.73129801               -0.17769038               -0.17806051                0.59256201               -0.00002989                0.04505211                0.00773113
               4.98287356                5.06086184               49.29042659                0.72662075               -0.12857841               -0.12870814                0.42863988               -0.00007016                0.08569193                0.00500066
               5.98183333                5.05992785               49.17914642                0.72356178               -0.07943773               -0.07939209                0.26463936               -0.00010967                0.10415585                0.00295628
               6.98128481                5.05898350               49.06799201                0.72175158               -0.03024407               -0.03013010                0.10059667               -0.00014355                0.11393340                0.00132243
               7.98122845                5.05802888               48.95688758                0.72117908                0.01897995                0.01910387               -0.06347280               -0.00015983                0.11530873               -0.00016682
               8.98166441                5.05706417               48.84575884                0.72184090                0.06821075                0.06834580               -0.22756319               -0.00015395                0.10839242               -0.00175615
               9.98259266                5.05608956               48.73453222                0.72373878                0.11743167                0.11762477               -0.39167085               -0.00012577                0.09323286               -0.00367122
              10.98401304                5.05510519               48.62313440                0.72688312                0.16663672                0.16695095               -0.55578810               -0.00008175                0.06982460               -0.00612758
              11.98592540                5.05411114               48.51149169                0.73129031                0.21583032                0.21629817               -0.71989637               -0.00003624                0.03811632               -0.00931594
              12.98832965                5.05310730               48.39952972                0.86743153                0.24042533                0.26560104               -0.88396113                0.00049325                0.01775410               -0.01336792
               2.98708938                6.06043048               49.51171556                0.86763762               -0.20124325               -0.22635365                0.75325766               -0.00047519                0.01433919                0.01556163
               3.98507695                6.06000992               49.39965477                0.73129313               -0.17669676               -0.17705186                0.58921760                0.00005510                0.04657202                0.00955999
               4.98355545                6.05957981               49.28816541                0.72661786               -0.12759819               -0.12767256                0.42529579                0.00000626                0.08860280                0.00604281
               5.98252499                6.05913899               49.17688992                0.72356023               -0.07845465               -0.07836210                0.26129407               -0.00011162                0.10769980                0.00351567
               6.98198636                6.05868725               49.06574511                0.72175156               -0.02924931               -0.02911516                0.09724789               -0.00019766                0.11779312                0.00158333
               7.98194000                6.05822496               48.95465205                0.72118109                0.01998596                0.02010888               -0.06682735               -0.00022015                0.11917953               -0.00012190
               8.98238608                6.05775267               48.84353350                0.72184370                0.06922635                0.06934371               -0.23092466               -0.00018422                0.11198577               -0.00193077
               9.98332453                6.05727084               48.73231308                0.72374265                0.11845531                0.11861538               -0.39503978               -0.00010021                0.09626658               -0.00417154
              10.98475518                6.05677974               48.62091463                0.72688786                0.16766207                0.16794327               -0.55916372               -0.00000114                0.07203010               -0.00719705
              11.98667777                6.05627918               48.50926193                0.73129586                0.21684826                0.21731294               -0.72327795                0.00004511                0.03927547               -0.01135742
              12.98909215                6.05576839               48.39727879                0.86743463                0.24143765                0.26664339               -0.88734831                0.00053953                0.01833579               -0.01691842
               2.98725899                7.05817170               49.50946792                0.86763480               -0.20023228               -0.22545080                0.74990777               -0.00041751                0.01511883                0.01744041
               3.98525666                7.05824447               49.39737709                0.73128929               -0.17571827               -0.17601065                0.58585980                0.00015411                0.04879609                0.00995198
               4.98374462                7.05830839               49.28588695                0.72661654               -0.12665010               -0.12657755                0.42194118                0.00004526                0.09283736                0.00604617
               5.98272366                7.05836061               49.17462199                0.72356140               -0.07748693               -0.07730956                0.25794171               -0.00016450                0.11281053                0.00345280
               6.98219488                7.05840119               49.06349428                0.72175496               -0.02825202               -0.02810285                0.09389602               -0.00026777                0.12333383                0.00155716
               7.98215862                7.05843106               48.95242071                0.72118578                0.02099831                0.02110638               -0.07018079               -0.00027900                0.12475743               -0.00008231
               8.98261485                7.05845105               48.84132038                0.72184942                0.07024835                0.07032950               -0.23428087               -0.00022125                0.11723209               -0.00183148
               9.98356359                7.05846187               48.73011318                0.72374857                0.11949181                0.11958046               -0.39839952               -0.00009839                0.10078354               -0.00407543
              10.98500468                7.05846406               48.61871874                0.72689400                0.16870283                0.16889888               -0.56252782                0.00006840                0.07538302               -0.00729924
              11.98693764                7.05845739               48.50705637                0.73130192                0.21786607                0.21832393               -0.72664709                0.00014526                0.04106487               -0.01211475
              12.98936201                7.05844017               48.39504636                0.86743781                0.24243613                0.26775420               -0.89072444                0.00060777                0.01924610               -0.01905497
               2.98693548                8.05592146               49.50718900                0.86763223               -0.19921423               -0.22471230                0.74654199               -0.00031205                0.01628001                0.01714363
               3.98494334                8.05648971               49.39506296                0.73128582               -0.17476322               -0.17484055                0.58248410                0.00021002                0.05204162                0.00828096
               4.98344022                8.05704826               49.28357966                0.72661700               -0.12572226               -0.12544652                0.41857353               -0.00006973                0.09889541                0.00483259
               5.98242889                8.05759280               49.17233606                0.72356532               -0.07648326               -0.07629977                0.25458105               -0.00027587                0.11992397                0.00273856
               6.98191055                8.05812519               49.06123666                0.72176195               -0.02721620               -0.02711106                0.09054051               -0.00032236                0.13089210                0.00123797
               7.98188457                8.05864709               48.95019373                0.72119409                0.02201453                0.02209916               -0.07353298               -0.00029850                0.13234911               -0.00004271
               8.98235084                8.05915926               48.83912275                0.72185887                0.07124886                0.07132258               -0.23763101               -0.00024540                0.12447844               -0.00142266
               9.98330955                8.05966245               48.72793966                0.72375743                0.12050894                0.12055640               -0.40174838               -0.00013380                0.10721462               -0.00325788
              10.98476102                8.06015772               48.61655863                0.72690173                0.16975109                0.16981989               -0.56587645                0.00006686                0.08033608               -0.00606696
              11.98670457                8.06064565               48.50489119                0.73130863                0.21888686                0.21927896               -0.72999837                0.00024871                0.04379040               -0.01079189
              12.98913876                8.06112348               48.39285043                0.86744130                0.24341893                0.26900079               -0.89408413                0.00072149                0.02066974               -0.01883006
               2.98611626                9.05367745               49.50485351                0.86762924               -0.19821925               -0.22431274                0.74315387               -0.00036263                0.01792487                0.01265314
               3.98413406                9.05474766               49.39268804                0.73128278               -0.17380607               -0.17344688                0.57908349               -0.00000438                0.05696153                0.00424356
               4.98264013                9.05579946               49.28123118                0.72661979               -0.12464241               -0.12453423                0.41518906               -0.00024628                0.10769420                0.00265327
               5.98164121                9.05683461               49.17002606                0.72357327               -0.07529969               -0.07535355                0.25120957               -0.00031520                0.12952576                0.00149982
               6.98113414                9.05785897               49.05896961                0.72177306               -0.02613172               -0.02614003                0.08717987               -0.00024602                0.14077964                0.00068196
               7.98111858                9.05887304               48.94797130                0.72120766                0.02302205                0.02309675               -0.07688395               -0.00021203                0.14224781               -0.00001109
               8.98159458                9.05987750               48.83694388                0.72187243                0.07219367                0.07234032               -0.24097341               -0.00018480                0.13409694               -0.00076479
               9.98256245                9.06087299               48.72580017                0.72377041                0.12141173                0.12158129               -0.40508284               -0.00015104                0.11615319               -0.00179643
              10.98402282                9.06186046               48.61444944                0.72691256                0.17072020                0.17082532               -0.56920399               -0.00000786                0.08779979               -0.00345781
              11.98597686                9.06284297               48.50279220                0.73131671                0.21989872                0.22011227               -0.73332288                0.00022096                0.04818144               -0.00651024
              12.98842079                9.06382018               48.39072068                0.86744438                0.24439322                0.27051095               -0.89741652                0.00072290                0.02299444               -0.01373517
               2.98478781               10.05143521               49.50240312                0.93381378               -0.19665651               -0.22422431                0.73972519                0.02571133                0.02365787                0.01098799
               3.98282124               10.05302077               49.39022980                0.86564126               -0.17197339               -0.17268928                0.57565120                0.02483643                0.06615891                0.00321828
               4.98134834               10.05455758               49.27883496                0.86331202               -0.12290821               -0.12418831                0.41178287                0.02406844                0.12014997                0.00252054
               5.98036308               10.05608573               49.16768793                0.86179032               -0.07405674               -0.07488875                0.24782262                0.02442693                0.14185054                0.00144761
               6.97986720               10.05760239               49.05669139                0.86089146               -0.02506361               -0.02565835                0.08381132                0.02447145                0.15319693                0.00057950
               7.97986181               10.05910903               48.94575343                0.86060933                0.02399949                0.02359853               -0.08023442                0.02450637                0.15464259               -0.00022564
               8.98034719               10.06060607               48.83478585                0.86094191                0.07308806                0.07285690               -0.24430636                0.02451378                0.14636378               -0.00106419
               9.98132357               10.06209408               48.72370029                0.86189092                0.12218455                0.12210818               -0.40839861                0.02451918                0.12812888               -0.00205608
              10.98279089               10.06357422               48.61240389                0.86346105                0.17128488                0.17137663               -0.57250309                0.02449820                0.09917757               -0.00341494
              11.98474926               10.06504790               48.50079309                0.86566134                0.22039572                0.22049272               -0.73660672                0.02521431                0.05702310               -0.00555180
              12.98719880               10.06653370               48.38872532                0.93372336                0.24495353                0.27135147               -0.90069677                0.02638059                0.02969203               -0.01197965
               3.08869857                0.07637242               50.53279461                0.93378824               -0.20297727               -0.22891587                0.75904663               -0.02602461                0.01947996               -0.00497647
               4.08666880                0.07298776               50.41919733                0.86567454               -0.17886459               -0.17864381                0.59801518               -0.02459786                0.04595406               -0.00480522
               5.08512128                0.06962140               50.30605394                0.86339032               -0.13074229               -0.13071714                0.43707815               -0.02392910                0.08320273               -0.00205092
               6.08405395                0.06624636               50.19314405                0.86183162               -0.08267680               -0.08236143                0.27612834               -0.02409144                0.10373127               -0.00116844
               7.08346774                0.06286264               50.08037159                0.86090704               -0.03452536               -0.03405688                0.11516452               -0.02411307                0.11459669               -0.00049830
               8.08336345                0.05946895               49.96765732                0.86061143                0.01367757                0.01426170               -0.04581208               -0.02413276                0.11681612                0.00005737
               9.08374130                0.05606493               49.85492555                0.86094402                0.06189594                0.06258132               -0.20680302               -0.02413428                0.11063265                0.00057073
              10.08460137                0.05265021               49.74210192                0.86190581                0.11010700                0.11089472               -0.36781095               -0.02414062                0.09608480                0.00108834
              11.08594344                0.04922362               49.62911151                0.86350094                0.15831716                0.15924727               -0.52883651               -0.02409240                0.07303121                0.00166691
              12.08776771                0.04578449               49.51587711                0.86573607                0.20646571                0.20736616               -0.68987646               -0.02471961                0.04084847                0.00234433
              13.09007275                0.04231518               49.40231135                0.93377536                0.23050415                0.25751314               -0.85092888               -0.02477323                0.01996697                0.00413627
               3.09182298                1.07408326               50.53056658                0.86747474               -0.20246494               -0.22800190                0.75581695               -0.00062065                0.01585904               -0.00380546
               4.08979833                1.07120133               50.41694962                0.73113265               -0.17851459               -0.17831488                0.59477829               -0.00013315                0.04363140               -0.00470402
               5.08825269                1.06831422               50.30381272                0.72660071               -0.13029581               -0.13011438                0.43383748                0.00004370                0.08124069               -0.00176659
               6.08719242                1.06542275               50.19089044                0.72357253               -0.08186850               -0.08183887                0.27287044                0.00013879                0.10069874               -0.00077773
               7.08661532                1.06252207               50.07810331                0.72177669               -0.03357229               -0.03354874                0.11188819                0.00009312                0.11136682               -0.00036083
               8.08652097                1.05961156               49.96537304                0.72120487                0.01469995                0.01475606               -0.04910708                0.00006315                0.11347044               -0.00019954
               9.08690932                1.05669075               49.85262466                0.72185297                0.06298222                0.06306598               -0.21011689                0.00003985                0.10722839               -0.00014642
              10.08778062                1.05375916               49.73978425                0.72372296                0.11130262                0.11137665               -0.37114400                0.00001385                0.09267043               -0.00009630
              11.08913537                1.05081609               49.62677745                0.72682524                0.15970595                0.15970319               -0.53218905               -0.00013890                0.06964921                0.00006799
              12.09097474                1.04785815               49.51352741                0.73117415                0.20794797                0.20808290               -0.69324813               -0.00019926                0.03800342                0.00054193
              13.09329433                1.04489031               49.39995656                0.86735179                0.23195970                0.25755591               -0.85430710                0.00053379                0.01762280                0.00199764
               3.09445003                2.07181238               50.52827670                0.86737255               -0.20148568               -0.22643715                0.75257904               -0.00067553                0.01290273               -0.00263742
               4.09243517                2.06942147               50.41463743                0.73091571               -0.17746486               -0.17760140                0.59154043               -0.00027140                0.04317512               -0.00338332
               5.09090073                2.06701911               50.30152858                0.72642032               -0.12931458               -0.12909611                0.43061973               -0.00010027                0.08226882               -0.00157085
               6.08984888                2.06460958               50.18861409                0.72348008               -0.08099719               -0.08082461                0.26963599                0.00006032                0.10022333               -0.00059956
               7.08928079                2.06219167               50.07582526                0.72173872               -0.03264250               -0.03254335                0.10862753                0.00008865                0.11019262               -0.00028850
               8.08919603                2.05976407               49.96308915                0.72118618                0.01568533                0.01575035               -0.05239699                0.00005773                0.11197423               -0.00030986
               9.08959450                2.05732625               49.85033299                0.72181714                0.06401319                0.06405484               -0.21343732                0.00000974                0.10560111               -0.00049849
              10.09047630                2.05487775               49.73748450                0.72363557                0.11235842                0.11237390               -0.37449516               -0.00008430                0.09108103               -0.00073195
              11.09184167                2.05241768               49.62447106                0.72664970                0.16066064                0.16073387               -0.53556957               -0.00023509                0.06835669               -0.00086821
              12.09368951                2.04994615               49.51121927                0.73087789                0.20887248                0.20933087               -0.69665092               -0.00031962                0.03737241               -0.00067196
              13.09601911                2.04746629               49.39765536                0.86715405                0.23296052                0.25798714               -0.85771021                0.00028082                0.01740657                0.00006961
               3.09659131                3.06955452               50.52598744                0.86736979               -0.20051247               -0.22523741                0.74932565               -0.00058330                0.01325673                0.00235630
               4.09458618                3.06764930               50.41234988                0.73090940               -0.17643682               -0.17674983                0.58829292               -0.00019857                0.04352940                0.00137843
               5.09306257                3.06573230               50.29924312                0.72641348               -0.12825566               -0.12824263                0.42737172               -0.00018502                0.08277992                0.00086310
               6.09202107                3.06380625               50.18633390                0.72347216               -0.07999791               -0.07986746                0.26638061               -0.00005777                0.10067223                0.00063590
               7.09146261                3.06187120               50.07354630                0.72173116               -0.03167651               -0.03155528                0.10535586               -0.00000589                0.11027914                0.00026585
               8.09138754                3.05992657               49.96080857                0.72117873                0.01666135                0.01675093               -0.05568917               -0.00001551                0.11180967               -0.00027227
               9.09179584                3.05797184               49.84804898                0.72181184                0.06499814                0.06506884               -0.21675158               -0.00006430                0.10527857               -0.00095432
              10.09268750                3.05600664               49.73519608                0.72363273                0.11332152                0.11341727               -0.37783133               -0.00014470                0.09069234               -0.00175832
              11.09406227                3.05403077               49.62217827                0.72665049                0.16161168                0.16184182               -0.53892459               -0.00023164                0.06801915               -0.00264318
              12.09591973                3.05204477               49.50892345                0.73088208                0.20986943                0.21035518               -0.70001713               -0.00020108                0.03717948               -0.00355028
              13.09825966                3.05005005               49.39535841                0.86715679                0.23399233                0.25882645               -0.86107711                0.00038864                0.01729018               -0.00445490
               3.09824881                4.06730764               50.52371333                0.86736648               -0.19953871               -0.22417912                0.74606422               -0.00053308                0.01346106                0.00768394
               4.09625342                4.06588647               50.41006696                0.73090380               -0.17543650               -0.17579494                0.58503213               -0.00010911                0.04413730                0.00490131
               5.09474008                4.06445426               50.29695983                0.72640753               -0.12722972               -0.12733286                0.42410954               -0.00014296                0.08390296                0.00322283
               6.09370883                4.06301223               50.18405248                0.72346690               -0.07898602               -0.07892482                0.26311223               -0.00010687                0.10193000                0.00193576
               7.09316036                4.06156056               50.07126759                0.72172598               -0.03068718               -0.03057519                0.10207685               -0.00008623                0.11151663                0.00085245
               8.09309508                4.06009909               49.95853170                0.72117520                0.01763934                0.01774994               -0.05898238               -0.00009351                0.11291264               -0.00021915
               9.09351314                4.05862763               49.84577250                0.72180946                0.06596971                0.06608441               -0.22006052               -0.00011789                0.10619789               -0.00140597
              10.09441448                4.05714609               49.73291814                0.72363258                0.11428785                0.11445688               -0.38115563               -0.00014851                0.09139820               -0.00280953
              11.09579890                4.05565452               49.61989682                0.72665240                0.16258662                0.16288376               -0.54226228               -0.00015871                0.06849558               -0.00451531
              12.09766621                4.05415325               49.50663631                0.73088604                0.21087124                0.21134162               -0.70336297               -0.00011144                0.03741944               -0.00659073
              13.10001633                4.05264282               49.39306339                0.86715960                0.23501168                0.25975547               -0.86442392                0.00044322                0.01740121               -0.00907950
               3.09942297                5.06507094               50.52144694                0.86736356               -0.19855959               -0.22318068                0.74279542               -0.00050110                0.01381916                0.01218696
               4.09743738                5.06413340               50.40778427                0.73089852               -0.17445142               -0.17481488                0.58176080               -0.00002944                0.04513845                0.00776445
               5.09593395                5.06318565               50.29467406                0.72640373               -0.12623755               -0.12636519                0.42083675               -0.00006907                0.08580728                0.00502943
               6.09491263                5.06222776               50.18176885                0.72346400               -0.07799552               -0.07795114                0.25983543               -0.00010786                0.10421993                0.00297837
               7.09437403                5.06125970               50.06898898                0.72172385               -0.02970157               -0.02959014                0.09879309               -0.00014108                0.11396825                0.00133506
               8.09431860                5.06028157               49.95625883                0.72117369                0.01862206                0.01874346               -0.06227564               -0.00015705                0.11532109               -0.00016575
               9.09474648                5.05929353               49.84350416                0.72180971                0.06695224                0.06708490               -0.22336482               -0.00015122                0.10838327               -0.00176802
              10.09565764                5.05829577               49.73065145                0.72363382                0.11527284                0.11546267               -0.38447076               -0.00012356                0.09320337               -0.00369616
              11.09705193                5.05728845               49.61762742                0.72665551                0.16357813                0.16388690               -0.54558709               -0.00008041                0.06978440               -0.00616421
              12.09892920                5.05627160               49.50435860                0.73089064                0.21187229                0.21233169               -0.70669473               -0.00003568                0.03808893               -0.00936265
              13.10128938                5.05524516               49.39077097                0.86716242                0.23601760                0.26073287               -0.86775867                0.00048418                0.01773106               -0.01342268
               3.10011386                6.06284402               50.51917959                0.86736123               -0.19757368               -0.22222472                0.73951764               -0.00046647                0.01435457                0.01561136
               4.09813812                6.06239017               50.40549337                0.73089386               -0.17347614               -0.17382482                0.57847801                0.00005407                0.04666207                0.00959513
               5.09664434                6.06192695               50.29237975                0.72640050               -0.12527548               -0.12534878                0.41755458                0.00000606                0.08872395                0.00607181
               6.09563261                6.06145321               50.17947921                0.72346263               -0.07703063               -0.07694022                0.25655203               -0.00010965                0.10776749                0.00353741
               7.09510372                6.06096876               50.06670890                0.72172472               -0.02872525               -0.02859394                0.09550612               -0.00019399                0.11782917                0.00159577
               8.09505811                6.06047396               49.95399007                0.72117537                0.01960945                0.01972993               -0.06556827               -0.00021600                0.11919143               -0.00012087
               9.09549591                6.05996933               49.84124552                0.72181221                0.06794917                0.06806444               -0.22666439               -0.00018067                0.11197517               -0.00194237
              10.09641709                6.05945534               49.72839892                0.72363776                0.11627763                0.11643507               -0.38777771               -0.00009803                0.09623595               -0.00419634
              11.09782147                6.05893226               49.61537420                0.72666025                0.16458450                0.16486090               -0.54890033               -0.00000085                0.07198943               -0.00723428
              12.09970878                6.05839989               49.50209533                0.73089648                0.21287134                0.21332766               -0.71001362                0.00004425                0.03924753               -0.01140767
              13.10207889                6.05785748               49.38848646                0.86716518                0.23701111                0.26175591               -0.87108318                0.00052935                0.01831199               -0.01698304
               3.10032134                7.06062644               50.51689875                0.86735798               -0.19658137               -0.22133848                0.73622952               -0.00040991                0.01513636                0.01749485
               4.09835553                7.06065690               50.40318242                0.73089001               -0.17251576               -0.17280273                0.57518209                0.00015108                0.04889364                0.00998572
               5.09687103                7.06067867               50.29006805                0.72639902               -0.12434497               -0.12427398                0.41426189                0.00004423                0.09297101                0.00607359
               6.09586863                7.06068895               50.17717807                0.72346322               -0.07608077               -0.07590721                0.25326171               -0.00016147                0.11288951                0.00347336
               7.09534941                7.06068782               50.06442487                0.72172791               -0.02774632               -0.02760038                0.09221623               -0.00026259                0.12337911                0.00156907
               8.09531370                7.06067617               49.95172550                0.72118066                0.02060313                0.02070904               -0.06885982               -0.00027344                0.12477667               -0.00008111
               9.09576147                7.06065482               49.83899914                0.72181830                0.06895234                0.06903212               -0.22995882               -0.00021672                0.11722784               -0.00184216
              10.09669275                7.06062448               49.72616574                0.72364374                0.11729500                0.11738243               -0.39107558               -0.00009615                0.10075882               -0.00409865
              11.09810737                7.06058566               49.61314499                0.72666633                0.16560584                0.16579877               -0.55220164                0.00006740                0.07534738               -0.00733563
              12.10000487                7.06053815               49.49985641                0.73090248                0.21387009                0.21431976               -0.71331961                0.00014257                0.04103982               -0.01216606
              13.10238478                7.06048028               49.38622058                0.86716870                0.23799095                0.26284595               -0.87439667                0.00059641                0.01922371               -0.01912537
               3.10004474                8.05841725               50.51458649                0.86735571               -0.19558229               -0.22061376                0.73292634               -0.00030638                0.01630117                0.01719696
               4.09808892                8.05893412               50.40083484                0.73088662               -0.17157849               -0.17165407                0.57186887                0.00020594                0.05215161                0.00830756
               5.09661317                8.05944147               50.28772739                0.72639950               -0.12343427               -0.12316382                0.41095623               -0.00006871                0.09905009                0.00485565
               6.09562023                8.05993507               50.17485884                0.72346783               -0.07509560               -0.07491614                0.24996311               -0.00027068                0.12002263                0.00275623
               7.09511126                8.06041675               50.06213400                0.72173500               -0.02672963               -0.02662693                0.08892269               -0.00031601                0.13095503                0.00124821
               8.09508564                8.06088814               49.94946530                0.72118910                0.02160058                0.02168347               -0.07215005               -0.00029240                0.13238438               -0.00004129
               9.09554327                8.06134997               49.83676832                0.72182746                0.06993433                0.07000686               -0.23324701               -0.00024034                0.12448912               -0.00143108
              10.09648433                8.06180299               49.72395903                0.72365246                0.11829329                0.11834039               -0.39436260               -0.00013107                0.10720369               -0.00327696
              11.09790914                8.06224823               49.61095170                0.72667389                0.16663467                0.16670292               -0.55548862                0.00006574                0.08031242               -0.00609792
              12.09981702                8.06268628               49.49765802                0.73090862                0.21487195                0.21525728               -0.71660900                0.00024414                0.04377331               -0.01083752
              13.10220658                8.06311440               49.38399138                0.86717153                0.23895555                0.26406948               -0.87769408                0.00070821                0.02065253               -0.01889849
               3.09928148                9.05621417               50.51221743                0.86735298               -0.19460560               -0.22022174                0.72960031               -0.00035600                0.01795122                0.01269285
               4.09733543                9.05722382               50.39842622                0.73088444               -0.17063900               -0.17028569                0.56853076               -0.00000472                0.05709086                0.00425620
               5.09586870                9.05821539               50.28534538                0.72640286               -0.12237438               -0.12226862                0.40763422               -0.00024203                0.10788068                0.00266783
               6.09488794                9.05919063               50.17251543                0.72347532               -0.07393399               -0.07398734                0.24665384               -0.00030933                0.12965340                0.00151081
               7.09439002                9.06015528               50.05983365                0.72174547               -0.02566535               -0.02567377                0.08562406               -0.00024115                0.14086993                0.00068835
               8.09437463                9.06110984               49.94720967                0.72120217                0.02258939                0.02266265               -0.07543913               -0.00020768                0.14230937               -0.00000989
               9.09484181                9.06205496               49.83455633                0.72184154                0.07086166                0.07100570               -0.23652740               -0.00018098                0.13413285               -0.00076958
              10.09579187                9.06299128               49.72178650                0.72366501                0.11917948                0.11934629               -0.39763538               -0.00014802                0.11616637               -0.00180778
              11.09722540                9.06391972               49.60880954                0.72668448                0.16758594                0.16768992               -0.55875499               -0.00000759                0.08779785               -0.00347642
              12.09914358                9.06484330               49.49552609                0.73091615                0.21586511                0.21607558               -0.71987244                0.00021695                0.04817895               -0.00653881
              13.10154270                9.06576167               49.38182861                0.86717467                0.23991186                0.26555193               -0.88096548                0.00070956                0.02298653               -0.01378467
               3.09801831               10.05401282               50.50973306                0.93367564               -0.19307145               -0.22013502                0.72623461                0.02524165                0.02370244                0.01102531
               4.09608760               10.05552840               50.39593398                0.86544224               -0.16883956               -0.16954177                0.56516175                0.02438127                0.06632106                0.00322913
               5.09464152               10.05699610               50.28291542                0.86320370               -0.12067207               -0.12192931                0.40429111                0.02362769                0.12037985                0.00253468
               6.09367416               10.05845532               50.17014374                0.86174185               -0.07271455               -0.07353103                0.24332936                0.02398042                0.14201752                0.00145716
               7.09318723               10.05990327               50.05752205                0.86087760               -0.02461730               -0.02520092                0.08231772                0.02402412                0.15332638                0.00058450
               8.09318181               10.06134139               49.94495861                0.86060713                0.02354870                0.02315518               -0.07872778                0.02405844                0.15474278               -0.00022532
               9.09365820               10.06277009               49.83236529                0.86092647                0.07173961                0.07151267               -0.23979865                0.02406579                0.14643767               -0.00106930
              10.09461660               10.06418992               49.71965377                0.86183798                0.11993823                0.11986339               -0.40088977                0.02407110                0.12817969               -0.00206694
              11.09605697               10.06560203               49.60673130                0.86334659                0.16814058                0.16823103               -0.56199315                0.02405054                0.09921199               -0.00343169
              12.09797941               10.06700779               49.49349444                0.86546140                0.21635319                0.21644921               -0.72309585                0.02475327                0.05705018               -0.00557638
              13.10038403               10.06842544               49.37980075                0.93358850                0.24046183                0.26637707               -0.88418578                0.02589755                0.02970802               -0.01202343
               3.20329604                0.07856681               51.54031438                0.93364827               -0.19918977               -0.22464320                0.74487849               -0.02553773                0.01952263               -0.00498187
               4.20130414                0.07520361               51.42512182                0.86547017               -0.17552813               -0.17531106                0.58685956               -0.02413727                0.04605942               -0.00480338
               5.19978548                0.07185838               51.31038409                0.86327689               -0.12830614               -0.12828157                0.42893305               -0.02348134                0.08336066               -0.00203839
               6.19873802                0.06850463               51.19587972                0.86178024               -0.08113999               -0.08083035                0.27099432               -0.02364101                0.10388477               -0.00115846
               7.19816268                0.06514235               51.08151265                0.86089247               -0.03388929               -0.03342949                0.11304196               -0.02366220                0.11474208               -0.00049208
               8.19806023                0.06177029               50.96720364                0.86060904                0.01341203                0.01398518               -0.04492303               -0.02368152                0.11694933                0.00005966
               9.19843092                0.05838810               50.85287699                0.86092811                0.06072844                0.06140094               -0.20290220               -0.02368307                0.11074804                0.00056914
              10.19927480                0.05499540               50.73845831                0.86185140                0.10803771                0.10881059               -0.36089803               -0.02368925                0.09617713                0.00108225
              11.20059167                0.05159106               50.62387267                0.86338269                0.15534620                0.15625866               -0.51891136               -0.02364178                0.07309788                0.00165652
              12.20238172                0.04817442               50.50904291                0.86552955                0.20259391                0.20347730               -0.67693860               -0.02425700                0.04088840                0.00233035
              13.20464355                0.04472818               50.39388165                0.93363600                0.22618244                0.25268590               -0.83497756               -0.02430945                0.01998354                0.00413048
               3.20640385                1.07632037               51.53805436                0.86719920               -0.19868716               -0.22374609                0.74170958               -0.00060860                0.01588185               -0.00379680
               4.20441698                1.07345050               51.42284205                0.73073165               -0.17518494               -0.17498853                0.58368388               -0.00013031                0.04371870               -0.00468847
               5.20290015                1.07057556               51.30811076                0.72638002               -0.12786807               -0.12769027                0.42575399                0.00004287                0.08137580               -0.00173217
               6.20185962                1.06769632               51.19359384                0.72347251               -0.08034653               -0.08031788                0.26779814                0.00013581                0.10082200               -0.00074928
               7.20129322                1.06480805               51.07921191                0.72174905               -0.03295389               -0.03293109                0.10982760                0.00009085                0.11148107               -0.00034369
               8.20120054                1.06191014               50.96488672                0.72119977                0.01441520                0.01447017               -0.04815581                0.00006145                0.11357229               -0.00019526
               9.20158153                1.05900211               50.85054327                0.72182172                0.06179415                0.06187646               -0.20615353                0.00003855                0.10731199               -0.00015549
              10.20243643                1.05608351               50.73610762                0.72361745                0.10921058                0.10928350               -0.36416831                0.00001312                0.09273063               -0.00011921
              11.20376574                1.05315365               50.62150540                0.72659540                0.15670837                0.15670608               -0.52220068               -0.00013654                0.06968404                0.00003200
              12.20557059                1.05020920               50.50665981                0.73077231                0.20404782                0.20418064               -0.68024632               -0.00019538                0.03801747                0.00049682
              13.20784670                1.04725504               50.39149341                0.86708067                0.22761031                0.25272756               -0.83829181                0.00052409                0.01761916                0.00196022
               3.20902361                2.07409188               51.53573241                0.86710080               -0.19772624               -0.22221058                0.73853272               -0.00066279                0.01291665               -0.00262252
               4.20704635                2.07170384               51.42049778                0.73052355               -0.17415489               -0.17428876                0.58050700               -0.00026647                0.04326354               -0.00335863
               5.20554051                2.06930457               51.30579475                0.72620597               -0.12690536               -0.12669128                0.42259742               -0.00009862                0.08239687               -0.00152956
               6.20450824                2.06689827               51.19128545                0.72338370               -0.07949165               -0.07932296                0.26462510                0.00005875                0.10031647               -0.00056317
               7.20395068                2.06448373               51.07690157                0.72171186               -0.03204151               -0.03194481                0.10662859                0.00008634                0.11027041               -0.00026598
               8.20386741                2.06205969               50.96257024                0.72118125                0.01538203                0.01544563               -0.05138359                0.00005589                0.11203747               -0.00030476
               9.20425832                2.05962563               50.84821871                0.72178727                0.06280561                0.06284662               -0.20941111                0.00000884                0.10564521               -0.00051219
              10.20512352                2.05718107               50.73377467                0.72353256                0.11024642                0.11026196               -0.36745620               -0.00008333                0.09110208               -0.00076420
              11.20646325                2.05472518               50.61916553                0.72642723                0.15764504                0.15771740               -0.52551759               -0.00023111                0.06835656               -0.00091724
              12.20827642                2.05225804               50.50431797                0.73048757                0.20495478                0.20540512               -0.68358470               -0.00031378                0.03736606               -0.00073036
              13.21056234                2.04978273               50.38915849                0.86689054                0.22859205                0.25315054               -0.84163021                0.00027546                0.01739350                0.00001878
               3.21116668                3.07187616               51.53341092                0.86709766               -0.19677161               -0.22103377                0.73534156               -0.00057223                0.01327157                0.00237745
               4.20919897                3.06996473               51.41817807                0.73051723               -0.17314631               -0.17345349                0.57732123               -0.00019508                0.04361532                0.00140605
               5.20770376                3.06804173               51.30347712                0.72619974               -0.12586634               -0.12585386                0.41941045               -0.00018187                0.08289864                0.00089297
               6.20668164                3.06610986               51.18897301                0.72337559               -0.07851120               -0.07838377                0.26143099               -0.00005700                0.10074834                0.00066230
               7.20613353                3.06416916               51.07459020                0.72170415               -0.03109379               -0.03097536                0.10341867               -0.00000629                0.11033347                0.00028230
               8.20605976                3.06221905               50.96025705                0.72117361                0.01633965                0.01642730               -0.05461357               -0.00001589                0.11184640               -0.00026946
               9.20646032                3.06025904               50.84590187                0.72178112                0.06377200                0.06384147               -0.21266290               -0.00006370                0.10529562               -0.00096682
              10.20733520                3.05828874               50.73145321                0.72352983                0.11119129                0.11128555               -0.37072923               -0.00014228                0.09068773               -0.00178552
              11.20868415                3.05630800               50.61683950                0.72642723                0.15857815                0.15880437               -0.52880920               -0.00022760                0.06799810               -0.00268248
              12.21050677                3.05431730               50.50198879                0.73049043                0.20593316                0.20641012               -0.68688825               -0.00019775                0.03716183               -0.00359575
              13.21280281                3.05231805               50.38682820                0.86689318                0.22960472                0.25397444               -0.84493464                0.00038107                0.01727184               -0.00449751
               3.21283503                4.06967121               51.53110451                0.86709485               -0.19581631               -0.21999564                0.73214197               -0.00052299                0.01347523                0.00771513
               4.21087687                4.06823477               51.41586285                0.73051187               -0.17216492               -0.17251676                0.57412242               -0.00010706                0.04422149                0.00493108
               5.20939174                4.06678749               51.30116151                0.72619402               -0.12485979               -0.12496129                0.41621015               -0.00014037                0.08401655                0.00325079
               6.20837968                4.06533059               51.18665922                0.72337029               -0.07751848               -0.07745890                0.25822448               -0.00010509                0.10199619                0.00195836
               7.20784137                4.06386422               51.07227901                0.72169896               -0.03012321               -0.03001375                0.10020163               -0.00008496                0.11155698                0.00086596
               8.20777721                4.06238823               50.95794756                0.72117015                0.01729916                0.01740744               -0.05784453               -0.00009214                0.11293281               -0.00021764
               9.20818735                4.06090246               50.84359262                0.72177923                0.06472535                0.06483788               -0.21590956               -0.00011602                0.10619772               -0.00141794
              10.20907172                4.05940678               50.72914234                0.72352921                0.11213948                0.11230554               -0.37399110               -0.00014576                0.09137789               -0.00283472
              11.21043014                4.05790127               50.61452499                0.72642984                0.15953458                0.15982645               -0.53208342               -0.00015568                0.06846225               -0.00455151
              12.21226241                4.05638624               50.49966851                0.73049530                0.20691602                0.20737787               -0.69017073               -0.00010966                0.03739464               -0.00663455
              13.21456846                4.05486222               50.38450002                0.86689584                0.23060497                0.25488612               -0.84821907                0.00043445                0.01737872               -0.00912593
               3.21402909                5.06747625               51.52880573                0.86709230               -0.19485554               -0.21901597                0.72893449               -0.00049167                0.01383307                0.01222744
               4.21208054                5.06651439               51.41354775                0.73050695               -0.17119838               -0.17155512                0.57091258               -0.00002886                0.04522298                0.00779718
               5.21060513                5.06554251               51.29884333                0.72619005               -0.12388644               -0.12401189                0.41299925               -0.00006780                0.08592044                0.00505766
               6.20960281                5.06456069               51.18434313                0.72336733               -0.07654677               -0.07650363                0.25500981               -0.00010593                0.10428300                0.00299992
               7.20907419                5.06356888               51.06996787                0.72169708               -0.02915620               -0.02904732                0.09697999               -0.00013855                0.11400258                0.00134751
               8.20901969                5.06256720               50.95564207                0.72116904                0.01826334                0.01838221               -0.06107561               -0.00015415                0.11533306               -0.00016480
               9.20943946                5.06155580               50.84129154                0.72177938                0.06568937                0.06581946               -0.21915134               -0.00014836                0.10837412               -0.00177987
              10.21033347                5.06053486               50.72684281                0.72353091                0.11310596                0.11329232               -0.37724372               -0.00012125                0.09317477               -0.00372078
              11.21170158                5.05950452               50.61222266                0.72643319                0.16050734                0.16081053               -0.53534511               -0.00007891                0.06974461               -0.00620060
              12.21354362                5.05846486               50.49735780                0.73049955                0.20789800                0.20834906               -0.69343884               -0.00003504                0.03806063               -0.00940886
              13.21585954                5.05741577               50.38217455                0.86689867                0.23159172                0.25584494               -0.85149070                0.00047495                0.01770663               -0.01347665
               3.21474892                6.06529089               51.52650592                0.86708963               -0.19388822               -0.21807798                0.72571845               -0.00045767                0.01436993                0.01565997
               4.21281003                6.06480367               51.41122433                0.73050271               -0.17024153               -0.17058367                0.56769166                0.00005306                0.04675064                0.00962962
               5.21134409                6.06430726               51.29651650                0.72618736               -0.12294258               -0.12301459                0.40977893                0.00000591                0.08884272                0.00610059
               6.21035118                6.06380052               51.18202097                0.72336634               -0.07560013               -0.07551176                0.25178823               -0.00010761                0.10783399                0.00355892
               7.20983208                6.06328327               51.06765523                0.72169750               -0.02819830               -0.02806994                0.09375507               -0.00019025                0.11786481                0.00160794
               8.20978722                6.06275588               50.95334069                0.72117057                0.01923215                0.01935007               -0.06430613               -0.00021172                0.11920298               -0.00011993
               9.21021673                6.06221884               50.83900021                0.72178189                0.06666743                0.06678053               -0.22238871               -0.00017705                0.11196471               -0.00195384
              10.21112057                6.06167263               50.72455752                0.72353451                0.11409167                0.11424636               -0.38048800               -0.00009623                0.09620606               -0.00422055
              11.21249856                6.06111748               50.60993662                0.72643689                0.16149471                0.16176627               -0.53859612               -0.00000101                0.07194926               -0.00727101
              12.21435046                6.06055322               50.49506165                0.73050489                0.20887828                0.20932629               -0.69669551                0.00004347                0.03921965               -0.01145662
              13.21667613                6.05997912               50.37985712                0.86690138                0.23256656                0.25684861               -0.85475239                0.00051954                0.01828811               -0.01704532
               3.21499438                7.06311469               51.52419251                0.86708715               -0.19291463               -0.21720846                0.72249234               -0.00040217                0.01515375                0.01754877
               4.21306523                7.06310272               51.40888073                0.73049876               -0.16929930               -0.16958084                0.56445795                0.00014827                0.04898979                0.01001918
               5.21160839                7.06308222               51.29417219                0.72618613               -0.12202968               -0.12196014                0.40654858                0.00004335                0.09310236                0.00610102
               6.21062464                7.06305045               51.17968723                0.72336738               -0.07466824               -0.07449832                0.24856021               -0.00015844                0.11296683                0.00349392
               7.21011503                7.06300748               51.06533861                0.72170153               -0.02723788               -0.02709514                0.09052722               -0.00025739                0.12342347                0.00158076
               8.21007988                7.06295420               50.95104352                0.72117622                0.02020702                0.02031066               -0.06753547               -0.00026785                0.12479538               -0.00007987
               9.21051917                7.06289141               50.83672120                0.72178782                0.06765156                0.06772992               -0.22562081               -0.00021228                0.11722362               -0.00185254
              10.21143291                7.06281978               50.72229167                0.72354046                0.11508972                0.11517589               -0.38372353               -0.00009421                0.10073476               -0.00412138
              11.21282096                7.06273985               50.60767471                0.72644281                0.16249678                0.16268659               -0.54183535                0.00006606                0.07531247               -0.00737122
              12.21468285                7.06265138               50.49278998                0.73051055                0.20985822                0.21029975               -0.69993927                0.00013984                0.04101544               -0.01221633
              13.21701813                7.06255275               50.37755842                0.86690471                0.23352792                0.25791801               -0.85800304                0.00058520                0.01920204               -0.01919434
               3.21476482                8.06094672               51.52184753                0.86708465               -0.19193443               -0.21649751                0.71925149               -0.00030066                0.01632196                0.01724946
               4.21284547                8.06141205               51.40650034                0.73049574               -0.16837980               -0.16845374                0.56120738                0.00020188                0.05225995                0.00833379
               5.21139722                8.06186805               51.29179879                0.72618619               -0.12113628               -0.12087112                0.40330566               -0.00006767                0.09920199                0.00487836
               6.21042275                8.06231055               51.17733533                0.72337177               -0.07370169               -0.07352611                0.24532404               -0.00026552                0.12011917                0.00277360
               7.20992319                8.06274137               51.06301511                0.72170790               -0.02624039               -0.02614010                0.08729584               -0.00030968                0.13101676                0.00125830
               8.20989794                8.06316209               50.94875073                0.72118413                0.02118559                0.02126668               -0.07076348               -0.00028638                0.13241890               -0.00003986
               9.21034690                8.06357344               50.83445781                0.72179726                0.06861497                0.06868623               -0.22884673               -0.00023529                0.12449953               -0.00143930
              10.21127024                8.06397614               50.72005241                0.72354905                0.11606910                0.11611581               -0.38694843               -0.00012821                0.10719325               -0.00329576
              11.21266828                8.06437121               50.60544886                0.72645039                0.16350607                0.16357375               -0.54506004                0.00006449                0.08028912               -0.00612834
              12.21454036                8.06475922               50.49055901                0.73051667                0.21084112                0.21121967               -0.70316648                0.00023935                0.04375630               -0.01088272
              13.21688510                8.06513748               50.37529655                0.86690748                0.23447432                0.25911847               -0.86123850                0.00069485                0.02063551               -0.01896671
               3.21405770                9.05878474               51.51944552                0.86708184               -0.19097628               -0.21611318                0.71598846               -0.00034950                0.01797729                0.01273169
               4.21214794                9.05973364               51.40405865                0.73049368               -0.16745809               -0.16711081                0.55793221               -0.00000534                0.05721825                0.00426818
               5.21070854                9.06066479               51.28938386                0.72618991               -0.12009633               -0.11999308                0.40004624               -0.00023784                0.10806402                0.00268164
               6.20974601                9.06157993               51.17495914                0.72337951               -0.07256203               -0.07261488                0.24207725               -0.00030329                0.12977871                0.00152169
               7.20925730                9.06248468               51.06068209                0.72171872               -0.02519638               -0.02520491                0.08405959               -0.00023621                0.14095872                0.00069479
               8.20924208                9.06337953               50.94646252                0.72119726                0.02215565                0.02222743               -0.07399053               -0.00020335                0.14236990               -0.00000887
               9.20970041                9.06426513               50.83221333                0.72181050                0.06952483                0.06966631               -0.23206543               -0.00017710                0.13416824               -0.00077424
              10.21063258                9.06514210               50.71784746                0.72356213                0.11693858                0.11710271               -0.39015933               -0.00014484                0.11617962               -0.00181889
              11.21203918                9.06601132               50.60327434                0.72646039                0.16443933                0.16454216               -0.54826482               -0.00000739                0.08779576               -0.00349500
              12.21392137                9.06687578               50.48839475                0.73052360                0.21181560                0.21202296               -0.70636895                0.00021278                0.04817574               -0.00656703
              13.21627549                9.06773512               50.37310137                0.86691041                0.23541279                0.26057323               -0.86444899                0.00069625                0.02297762               -0.01383394
               3.21286002               10.05662446               51.51692781                0.93354035               -0.18947092               -0.21602830                0.71268625                0.02476991                0.02374599                0.01106200
               4.21096531               10.05806984               51.40153303                0.86524688               -0.16569203               -0.16638065                0.55462643                0.02392400                0.06648034                0.00323930
               5.20954618               10.05946819               51.28692078                0.86309731               -0.11842585               -0.11966033                0.39676575                0.02318501                0.12060617                0.00254795
               6.20859679               10.06085826               51.17255452                0.86169371               -0.07136602               -0.07216716                0.23881551                0.02353229                0.14218208                0.00146688
               7.20811886               10.06223727               51.05833774                0.86086461               -0.02416844               -0.02474097                0.08081573                0.02357518                0.15345357                0.00058974
               8.20811342               10.06360664               50.94417888                0.86060444                0.02309668                0.02271072               -0.07721719                0.02360884                0.15484133               -0.00022529
               9.20858079               10.06496677               50.82998988                0.86091108                0.07038620                0.07016378               -0.23527504                0.02361597                0.14651073               -0.00107421
              10.20952115               10.06631820               50.71568249                0.86178629                0.11768318                0.11761003               -0.39335214                0.02362112                0.12822965               -0.00207742
              11.21093445               10.06766206               50.60116402                0.86323475                0.16498381                0.16507304               -0.55144190                0.02360106                0.09924561               -0.00344866
              12.21282082               10.06899968               50.48633117                0.86526501                0.21229474                0.21238984               -0.70953194                0.02429032                0.05707629               -0.00560062
              13.21518035               10.07034895               50.37104161                0.93345642                0.23595256                0.26138300               -0.86760909                0.02541263                0.02972228               -0.01206702
               3.31947414                0.08079282               52.54769218                0.93351162               -0.19538611               -0.22035241                0.73065017               -0.02504888                0.01956376               -0.00498791
               4.31752028                0.07745124               52.43093452                0.86526962               -0.17217750               -0.17196413                0.57565653               -0.02367497                0.04616235               -0.00480145
               5.31603059                0.07412727               52.31463260                0.86316520               -0.12585963               -0.12583558                0.42075339               -0.02303171                0.08351578               -0.00202552
               6.31500309                0.07079495               52.19856394                0.86172999               -0.07959632               -0.07929252                0.26583772               -0.02318860                0.10403572               -0.00114858
               7.31443867                0.06745426               52.08263243                0.86087852               -0.03325000               -0.03279895                0.11090880               -0.02320945                0.11488491               -0.00048596
               8.31433809                0.06410398               51.96675886                0.86060611                0.01314595                0.01370813               -0.04403231               -0.02322841                0.11708027                0.00006193
               9.31470159                0.06074376               51.85086751                0.86091231                0.05955681                0.06021628               -0.19898748               -0.02322988                0.11086137                0.00056738
              10.31552923                0.05737323               51.73488396                0.86179818                0.10596067                0.10671845               -0.35395895               -0.02323596                0.09626742                0.00107642
              11.31682080                0.05399129               51.61873328                0.86326761                0.15236363                0.15325831               -0.50894750               -0.02318944                0.07316310                0.00164632
              12.31857650                0.05059730               51.50233834                0.86532695                0.19870678                0.19957306               -0.66394956               -0.02379264                0.04092791                0.00231630
              13.32079493                0.04717427               51.38561179                0.93349927                0.22184362                0.24783954               -0.81896316               -0.02384382                0.02000050                0.00412489
               3.32256524                1.07858930               52.54540077                0.86692881               -0.19489338               -0.21947242                0.72754290               -0.00059659                0.01590443               -0.00378885
               4.32061631                1.07573159               52.42862330                0.73034023               -0.17184111               -0.17164807                0.57254227               -0.00012774                0.04380457               -0.00467316
               5.31912842                1.07286892               52.31232780                0.72616464               -0.12542989               -0.12525564                0.41763556                0.00004200                0.08150837               -0.00169771
               6.31810771                1.07000203               52.19624640                0.72337494               -0.07881784               -0.07879006                0.26270333                0.00013304                0.10094291               -0.00072115
               7.31755206                1.06712628               52.08029986                0.72172195               -0.03233242               -0.03231028                0.10775660                0.00008869                0.11159324               -0.00032686
               8.31746106                1.06424106               51.96440993                0.72119516                0.01412989                0.01418369               -0.04720260                0.00005979                0.11367223               -0.00019108
               9.31783466                1.06134592               51.84850159                0.72179142                0.06060190                0.06068264               -0.20217597                0.00003735                0.10739409               -0.00016449
              10.31867310                1.05844042               51.73250089                0.72351416                0.10711066                0.10718231               -0.35716597                0.00001243                0.09278941               -0.00014167
              11.31997687                1.05552388               51.61633343                0.72637125                0.15369914                0.15369721               -0.51217321               -0.00013433                0.06971781               -0.00000344
              12.32174708                1.05259303               51.49992248                0.73037784                0.20013234                0.20026305               -0.66719348               -0.00019170                0.03803198                0.00045265
              13.32397952                1.04965267               51.38319073                0.86681500                0.22324379                0.24788018               -0.82221336                0.00051437                0.01761731                0.00192394
               3.32517762                2.07640337               52.54304735                0.86683452               -0.19395102               -0.21796640                0.72442762               -0.00064999                0.01293084               -0.00260756
               4.32323811                2.07401827               52.42624757                0.73013880               -0.17083083               -0.17096214                0.56942694               -0.00026144                0.04335113               -0.00333437
               5.32176100                2.07162216               52.30998053                0.72599708               -0.12448564               -0.12427599                0.41454018               -0.00009688                0.08252272               -0.00148889
               6.32074839                2.06921915               52.19390660                0.72328938               -0.07797943               -0.07781449                0.25959165                0.00005721                0.10040741               -0.00052728
               7.32020141                2.06680806               52.07795783                0.72168617               -0.03143759               -0.03134318                0.10461947                0.00008404                0.11034652               -0.00024388
               8.32011964                2.06438765               51.96206148                0.72117631                0.01507808                0.01514026               -0.05036803                0.00005411                0.11209947               -0.00029980
               9.32050297                2.06195741               51.84614476                0.72175738                0.06159380                0.06163410               -0.20537064                0.00000796                0.10568858               -0.00052562
              10.32135152                2.05951688               51.73013537                0.72343223                0.10812638                0.10814198               -0.36039039               -0.00008238                0.09112243               -0.00079610
              11.32266550                2.05706524               51.61396071                0.72620900                0.15461760                0.15468913               -0.51542611               -0.00022714                0.06835632               -0.00096528
              12.32444387                2.05460256               51.49754758                0.73010408                0.20102181                0.20146407               -0.67046771               -0.00030801                0.03736082               -0.00078760
              13.32668594                2.05213188               51.38082276                0.86663231                0.22420674                0.24829509               -0.82548791                0.00027009                0.01738246               -0.00003204
               3.32732244                3.07422997               52.54069427                0.86683151               -0.19301479               -0.21681247                0.72129830               -0.00056120                0.01328570                0.00239881
               4.32539229                3.07231235               52.42389631                0.73013354               -0.16984171               -0.17014314                0.56630283               -0.00019149                0.04369965                0.00143346
               5.32392560                3.07038340               52.30763133                0.72599010               -0.12346672               -0.12345483                0.41141519               -0.00017860                0.08301531                0.00092201
               6.32292295                3.06844574               52.19156252                0.72328102               -0.07701794               -0.07689347                0.25645952               -0.00005624                0.10082295                0.00068814
               7.32238524                3.06649941               52.07561467                0.72167757               -0.03050812               -0.03039246                0.10147158               -0.00000670                0.11038663                0.00029849
               8.32231279                3.06454386               51.95971629                0.72116891                0.01601724                0.01610297               -0.05353563               -0.00001618                0.11188246               -0.00026672
               9.32270559                3.06257860               51.84379572                0.72175200                0.06254151                0.06260973               -0.20855963               -0.00006303                0.10531223               -0.00097921
              10.32356362                3.06060326               51.72778149                0.72342906                0.10905300                0.10914582               -0.36360033               -0.00014010                0.09068300               -0.00181253
              11.32488665                3.05861766               51.61160209                0.72620884                0.15553281                0.15575515               -0.51865460               -0.00022355                0.06797738               -0.00272105
              12.32667428                3.05662231               51.49518568                0.73010751                0.20198156                0.20244967               -0.67370808               -0.00019396                0.03714410               -0.00364071
              13.32892628                3.05461857               51.37845972                0.86663507                0.22520015                0.24910353               -0.82872934                0.00037380                0.01725297               -0.00454049
               3.32900163                4.07206712               52.53835617                0.86682870               -0.19207804               -0.21579450                0.71816097               -0.00051287                0.01348889                0.00774544
               4.32708085                4.07061541               52.42154941                0.73012807               -0.16887929               -0.16922457                0.56316597               -0.00010508                0.04430403                0.00496022
               5.32562404                4.06915306               52.30528403                0.72598526               -0.12247957               -0.12257946                0.40827644               -0.00013783                0.08412784                0.00327830
               6.32463126                4.06768128               52.18921697                0.72327616               -0.07604443               -0.07598642                0.25331498               -0.00010321                0.10206107                0.00198061
               7.32410315                4.06620021               52.07327162                0.72167233               -0.02955634               -0.02944941                0.09831679               -0.00008360                0.11159658                0.00087924
               8.32404013                4.06470971               51.95737481                0.72116530                0.01695826                0.01706420               -0.05670422               -0.00009075                0.11295257               -0.00021616
               9.32444232                4.06320960               51.84145431                0.72174991                0.06347645                0.06358688               -0.21174352               -0.00011415                0.10619726               -0.00142968
              10.32530966                4.06169979               51.72543832                0.72342831                0.10998289                0.11014606               -0.36679924               -0.00014325                0.09135769               -0.00285948
              11.32664198                4.06018034               51.60925515                0.72621079                0.15647091                0.15675747               -0.52186598               -0.00015276                0.06842954               -0.00458681
              12.32843908                4.05865155               51.49283289                0.73011134                0.20294553                0.20339867               -0.67692734               -0.00010747                0.03737022               -0.00667672
              13.33070089                4.05711395               51.37609901                0.86663724                0.22618105                0.24999758               -0.83195026                0.00042603                0.01735630               -0.00917059
               3.33021560                5.06991408               52.53602563                0.86682638               -0.19113570               -0.21483369                0.71501484               -0.00048217                0.01384691                0.01226718
               4.32830425                5.06892786               52.41920252                0.73012320               -0.16793139               -0.16828149                0.56001802               -0.00002831                0.04530631                0.00782912
               5.32685698                5.06793181               52.30293405                0.72598140               -0.12152506               -0.12164836                0.40512769               -0.00006658                0.08603176                0.00508541
               6.32587374                5.06692601               52.18686905                0.72327324               -0.07509151               -0.07504956                0.25016230               -0.00010400                0.10434464                0.00302127
               7.32535514                5.06591042               52.07092858                0.72167059               -0.02860809               -0.02850164                0.09515741               -0.00013597                0.11403607                0.00135974
               8.32530158                5.06488515               51.95503732                0.72116396                0.01790374                0.01802014               -0.05987289               -0.00015127                0.11534493               -0.00016387
               9.32571322                5.06385034               51.83912113                0.72174955                0.06442187                0.06454951               -0.21492274               -0.00014569                0.10836498               -0.00179135
              10.32659002                5.06280618               51.72310658                0.72343001                0.11093081                0.11111376               -0.36998914               -0.00011904                0.09314671               -0.00374479
              11.32793184                5.06175281               51.60692051                0.72621368                0.15742492                0.15772239               -0.52506444               -0.00007739                0.06970646               -0.00623606
              12.32973852                5.06069028               51.49048983                0.73011595                0.20390845                0.20435088               -0.68013177               -0.00003432                0.03803339               -0.00945386
              13.33201000                5.05961852               51.37374116                0.86664006                0.22714858                0.25093763               -0.83515810                0.00046576                0.01768261               -0.01352953
               3.33096442                6.06777045               52.53369396                0.86682369               -0.19018710               -0.21391382                0.71186108               -0.00044887                0.01438464                0.01570797
               4.32906255                6.06724978               52.41684720                0.73011912               -0.16699305               -0.16732879                0.55685930                0.00005197                0.04683751                0.00966361
               5.32762456                6.06672010               52.30057533                0.72597856               -0.12059946               -0.12067034                0.40196955                0.00000565                0.08895950                0.00612868
               6.32665056                6.06618029               52.18451498                0.72327209               -0.07416317               -0.07407691                0.24700315               -0.00010564                0.10789922                0.00357992
               7.32614130                6.06563018               52.06858401                0.72167169               -0.02766865               -0.02754316                0.09199479               -0.00018652                0.11789958                0.00161987
               8.32609719                6.06507011               51.95270395                0.72116632                0.01885379                0.01896929               -0.06304091               -0.00020749                0.11921425               -0.00011897
               9.32651837                6.06450059               51.83679774                0.72175200                0.06538096                0.06549202               -0.21809746               -0.00017357                0.11195435               -0.00196506
              10.32740481                6.06392207               51.72078916                0.72343340                0.11189748                0.11204942               -0.37317081               -0.00009446                0.09617672               -0.00424429
              11.32875632                6.06333479               51.60460228                0.72621778                0.15839329                0.15865969               -0.52825272               -0.00000112                0.07191009               -0.00730748
              12.33057267                6.06273857               51.48816142                0.73012116                0.20486984                0.20530926               -0.68332569                0.00004268                0.03919217               -0.01150578
              13.33285372                6.06213270               51.37139142                0.86664283                0.22810461                0.25192188               -0.83835667                0.00050967                0.01826422               -0.01710763
               3.33124796                7.06563580               52.53134860                0.86682144               -0.18923235               -0.21306112                0.70869730               -0.00039444                0.01517063                0.01760139
               4.32935564                7.06558128               52.41447158                0.73011507               -0.16606912               -0.16634529                0.55368815                0.00014543                0.04908407                0.01005196
               5.32792658                7.06551840               52.29819903                0.72597728               -0.11970428               -0.11963632                0.39880174                0.00004237                0.09323132                0.00612796
               6.32696155                7.06544447               52.18214927                0.72327386               -0.07324926               -0.07308310                0.24383734               -0.00015543                0.11304270                0.00351405
               7.32646159                7.06535956               52.06623541                0.72167449               -0.02672678               -0.02658721                0.08882922               -0.00025221                0.12346705                0.00159219
               8.32642702                7.06526453               51.95037479                0.72117059                0.01980982                0.01991133               -0.06620787               -0.00026237                0.12481393               -0.00007860
               9.32685779                7.06516018               51.83448672                0.72175794                0.06634604                0.06642310               -0.22126712               -0.00020785                0.11721938               -0.00186267
              10.32775394                7.06504717               51.71849127                0.72343940                0.11287618                0.11296109               -0.37634386               -0.00009226                0.10071085               -0.00414378
              11.32911531                7.06492600               51.60230828                0.72622288                0.15937604                0.15956251               -0.53142994                0.00006466                0.07527808               -0.00740646
              12.33094146                7.06479647               51.48585762                0.73012660                0.20583098                0.20626423               -0.68650752                0.00013699                0.04099125               -0.01226600
              13.33323193                7.06465696               51.36906052                0.86664607                0.22904751                0.25297092               -0.84154483                0.00057391                0.01918042               -0.01926234
               3.33106557                8.06350923               52.52897152                0.86681895               -0.18827098               -0.21236388                0.70551866               -0.00029494                0.01634265                0.01730121
               4.32918286                8.06392288               52.41205899                0.73011264               -0.16516740               -0.16523974                0.55050016                0.00019779                0.05236656                0.00835964
               5.32776222                8.06432737               52.29579351                0.72597763               -0.11882822               -0.11856841                0.39562163               -0.00006655                0.09935134                0.00490093
               6.32680629                8.06471863               52.17976532                0.72327786               -0.07230141               -0.07212974                0.24066369               -0.00026019                0.12021378                0.00279086
               7.32631619                8.06509843               52.06387991                0.72168124               -0.02574862               -0.02565062                0.08566028               -0.00030321                0.13107737                0.00126829
               8.32629132                8.06546834               51.94805003                0.72117932                0.02076946                0.02084891               -0.06937361               -0.00028024                0.13245318               -0.00003847
               9.32673158                8.06582906               51.83219138                0.72176756                0.06729086                0.06736095               -0.22443077               -0.00023012                0.12450974               -0.00144753
              10.32763714                8.06618129               51.71622006                0.72344801                0.11383657                0.11388289               -0.37950633               -0.00012523                0.10718275               -0.00331414
              11.32900831                8.06652604               51.60005050                0.72623077                0.16036567                0.16043271               -0.53459224                0.00006343                0.08026641               -0.00615817
              12.33084445                8.06686385               51.48359469                0.73013203                0.20679487                0.20716663               -0.68967261                0.00023458                0.04373954               -0.01092722
              13.33314421                8.06719212               51.36676661                0.86664864                0.22997576                0.25414850               -0.84471877                0.00068128                0.02061829               -0.01903361
               3.33041477                9.06138853               52.52653720                0.86681659               -0.18733150               -0.21198719                0.70231894               -0.00034289                0.01800254                0.01277045
               4.32854145                9.06227649               52.40958487                0.73011085               -0.16426350               -0.16392234                0.54728818               -0.00000593                0.05734335                0.00428028
               5.32712950                9.06314703               52.29334630                0.72598256               -0.11780818               -0.11770746                0.39242471               -0.00023362                0.10824408                0.00269548
               6.32618529                9.06400188               52.17735698                0.72328652               -0.07118373               -0.07123604                0.23747945               -0.00029715                0.12990141                0.00153250
               7.32570582                9.06484655               52.06151484                0.72169300               -0.02472488               -0.02473343                0.08248655               -0.00023105                0.14104564                0.00070118
               8.32569079                9.06568151               51.94572986                0.72119305                0.02172070                0.02179112               -0.07253825               -0.00019882                0.14242924               -0.00000780
               9.32614023                9.06650740               51.82991503                0.72178096                0.06818309                0.06832208               -0.22758722               -0.00017309                0.13420297               -0.00077918
              10.32705445                9.06732482               51.71398332                0.72346079                0.11468926                0.11485067               -0.38265507               -0.00014145                0.11619259               -0.00182974
              11.32843402                9.06813466               51.59784424                0.72624112                0.16128084                0.16138229               -0.53773468               -0.00000685                0.08779347               -0.00351308
              12.33028007                9.06893980               51.48139871                0.73013978                0.20775035                0.20795447               -0.69281282                0.00020897                0.04817246               -0.00659554
              13.33258903                9.06973993               51.36453963                0.86665173                0.23089593                0.25557490               -0.84786695                0.00068288                0.02296886               -0.01388300
               3.32928278               10.05926948               52.52398679                0.93340753               -0.18585505               -0.21190415                0.69908036                0.02429627                0.02378833                0.01109851
               4.32742423               10.06064443               52.40702651                0.86505563               -0.16253101               -0.16320603                0.54404610                0.02346504                0.06663674                0.00324958
               5.32603216               10.06197322               52.29085073                0.86299327               -0.11616967               -0.11738126                0.38920727                0.02274061                0.12082831                0.00256125
               6.32510084               10.06329391               52.17492005                0.86164677               -0.07001116               -0.07079683                0.23428029                0.02308227                0.14234309                0.00147651
               7.32463194               10.06460376               52.05913837                0.86085177               -0.02371709               -0.02427839                0.07930519                0.02312441                0.15357810                0.00059486
               8.32462650               10.06590416               51.94341427                0.86060209                0.02264339                0.02226507               -0.07570247                0.02315737                0.15493771               -0.00022512
               9.32508481               10.06719550               51.82765979                0.86089649                0.06902784                0.06880993               -0.23073489                0.02316441                0.14658231               -0.00107952
              10.32600705               10.06847830               51.71178673                0.86173553                0.11541964                0.11534813               -0.38578615                0.02316954                0.12827901               -0.00208780
              11.32739320               10.06975368               51.59570247                0.86312470                0.16181519                0.16190279               -0.54085009                0.02314988                0.09927799               -0.00346504
              12.32924336               10.07102294               51.47930380                0.86507263                0.20822038                0.20831427               -0.69591429                0.02382566                0.05710110               -0.00562554
              13.33155761               10.07230362               51.36244857                0.93332700                0.23142502                0.25636868               -0.85096463                0.02492551                0.02973611               -0.01211099
               3.43720263                0.08304986               53.55492738                0.93337732               -0.19156660               -0.21604398                0.71636350               -0.02455826                0.01960554               -0.00499242
               4.43528696                0.07973002               53.43663495                0.86507419               -0.16881276               -0.16860320                0.56440668               -0.02321087                0.04626438               -0.00479975
               5.43382637                0.07642747               53.31879915                0.86305608               -0.12340268               -0.12337917                0.41253906               -0.02258033                0.08366801               -0.00201396
               6.43281891                0.07311672               53.20119648                0.86168068               -0.07804606               -0.07774799                0.26065881               -0.02273441                0.10418338               -0.00113898
               7.43226545                0.06979776               53.08373082                0.86086394               -0.03260765               -0.03216533                0.10876537               -0.02275486                0.11502503               -0.00047991
               8.43216675                0.06646939               52.96632299                0.86060396                0.01287949                0.01343054               -0.04313997               -0.02277348                0.11720869                0.00006415
               9.43252304                0.06313128               52.84889724                0.86089729                0.05838111                0.05902748               -0.19505905               -0.02277497                0.11097245                0.00056587
              10.43333438                0.05978308               52.73137913                0.86174600                0.10387579                0.10461857               -0.34699411               -0.02278094                0.09635629                0.00107071
              11.43460056                0.05642368               52.61369372                0.86315443                0.14936959                0.15024655               -0.49894564               -0.02273540                0.07322735                0.00163644
              12.43632177                0.05305247               52.49576392                0.86512859                0.19480465                0.19565388               -0.65091052               -0.02332666                0.04096645                0.00230265
              13.43849665                0.04965281               52.37750239                0.93336551                0.21748806                0.24297481               -0.80288726               -0.02337646                0.02001670                0.00411924
               3.44027688                1.08088942               53.55260522                0.86666466               -0.19108371               -0.21518116                0.71331774               -0.00058455                0.01592642               -0.00378007
               4.43836605                1.07804399               53.43429290                0.72995596               -0.16848322               -0.16829365                0.56135381               -0.00012513                0.04388869               -0.00465805
               5.43690722                1.07519368               53.31646347                0.72595282               -0.12298137               -0.12281068                0.40948263                0.00004100                0.08163851               -0.00166460
               6.43590642                1.07233924               53.19884791                0.72327964               -0.07728256               -0.07725557                0.25758633                0.00013019                0.10106159               -0.00069373
               7.43536157                1.06947611               53.08136704                0.72169485               -0.03170795               -0.03168641                0.10567545                0.00008656                0.11170333               -0.00031030
               8.43527226                1.06660370               52.96394267                0.72119000                0.01384406                0.01389667               -0.04624758                0.00005814                0.11377039               -0.00018695
               9.43563845                1.06372156               52.84649975                0.72176191                0.05940550                0.05948464               -0.19818446                0.00003613                0.10747458               -0.00017322
              10.43646037                1.06082926               52.72896431                0.72341261                0.10500287                0.10507336               -0.35013767                0.00001169                0.09284738               -0.00016367
              11.43773851                1.05792615               52.61126194                0.72615058                0.15067840                0.15067704               -0.50210771               -0.00013220                0.06975129               -0.00003801
              12.43947394                1.05500901               52.49331594                0.72999120                0.19620192                0.19633069               -0.65409087               -0.00018803                0.03804563                0.00040899
              13.44166254                1.05208256               52.37504914                0.86655445                0.21886070                0.24301464               -0.80607402                0.00050469                0.01761436                0.00188756
               3.44288180                2.07874623               53.55022096                0.86657370               -0.19016002               -0.21370478                0.71026430               -0.00063703                0.01294425               -0.00259293
               4.44098020                2.07636415               53.43188632                0.72976265               -0.16749287               -0.16762169                0.55830041               -0.00025635                0.04343637               -0.00331041
               5.43953194                2.07397126               53.31408555                0.72579206               -0.12205570               -0.12185044                0.40644852               -0.00009521                0.08264588               -0.00144868
               6.43853908                2.07157161               53.19647729                0.72319684               -0.07646062               -0.07629938                0.25453603                0.00005571                0.10049687               -0.00049203
               7.43800273                2.06916403               53.07899396                0.72165980               -0.03083072               -0.03073852                0.10260032                0.00008183                0.11042137               -0.00022217
               8.43792247                2.06674732               52.96156288                0.72117175                0.01477355                0.01483429               -0.04935040                0.00005236                0.11216034               -0.00029492
               9.43829820                2.06432098               52.84411130                0.72172865                0.06037779                0.06041732               -0.20131601                0.00000711                0.10573102               -0.00053882
              10.43913002                2.06188454               52.72656686                0.72333357                0.10599842                0.10601414               -0.35329837               -0.00008128                0.09114273               -0.00082722
              11.44041817                2.05943722               52.60885701                0.72599556                0.15157861                0.15164953               -0.50529654               -0.00022281                0.06835597               -0.00101276
              12.44216160                2.05697908               52.49090861                0.72972935                0.19707389                0.19750816               -0.65730105               -0.00030186                0.03735438               -0.00084439
              13.44435964                2.05451310               52.37264873                0.86637950                0.21980478                0.24342125               -0.80928452                0.00026469                0.01736976               -0.00008186
               3.44502832                3.07661532               53.54783689                0.86657093               -0.18924228               -0.21257372                0.70719681               -0.00055008                0.01329992                0.00241972
               4.44313589                3.07469155               53.42950413                0.72975691               -0.16652328               -0.16681902                0.55523837               -0.00018775                0.04378270                0.00146026
               5.44169785                3.07275667               53.31170542                0.72578578               -0.12105691               -0.12104564                0.40338568               -0.00017522                0.08312970                0.00095088
               6.44071476                3.07081325               53.19410220                0.72318835               -0.07551817               -0.07539658                0.25146598               -0.00005540                0.10089579                0.00071378
               7.44018749                3.06886134               53.07661963                0.72165137               -0.02991962               -0.02980663                0.09951481               -0.00000703                0.11043876                0.00031441
               8.44011636                3.06690038               52.95918633                0.72116438                0.01569416                0.01577796               -0.05245539               -0.00001640                0.11191780               -0.00026408
               9.44050137                3.06492991               52.84173068                0.72172241                0.06130678                0.06137368               -0.20444200               -0.00006238                0.10532855               -0.00099118
              10.44134250                3.06294955               52.72418120                0.72333005                0.10690691                0.10699814               -0.35644513               -0.00013773                0.09067832               -0.00183876
              11.44263951                3.06095914               52.60646641                0.72599600                0.15247594                0.15269424               -0.50846106               -0.00021907                0.06795656               -0.00275948
              12.44439202                3.05895917               52.48851463                0.72973263                0.19801447                0.19847374               -0.66047616               -0.00018992                0.03712645               -0.00368502
              13.44659980                3.05695098               52.37025361                0.86638206                0.22077809                0.24421341               -0.81246034                0.00036639                0.01723454               -0.00458188
               3.44671833                4.07449476               53.54546773                0.86656854               -0.18832393               -0.21157590                0.70412136               -0.00050283                0.01350190                0.00777547
               4.44483509                4.07302777               53.42712617                0.72975237               -0.16557980               -0.16591858                0.55216322               -0.00010323                0.04438481                0.00498902
               5.44340673                4.07155035               53.30932704                0.72578034               -0.12008928               -0.12018753                0.40030890               -0.00013533                0.08423711                0.00330518
               6.44243331                4.07006368               53.19172552                0.72318394               -0.07456392               -0.07450747                0.24838375               -0.00010139                0.10212462                0.00200231
               7.44191546                4.06856790               53.07424534                0.72164685               -0.02898665               -0.02888221                0.09642239               -0.00008223                0.11163522                0.00089237
               8.44185357                4.06706288               52.95681348                0.72116062                0.01661650                0.01672021               -0.05556137               -0.00008928                0.11297200               -0.00021474
               9.44224779                4.06554845               52.83935775                0.72172028                0.06222321                0.06233155               -0.20756300               -0.00011224                0.10619705               -0.00144119
              10.44309804                4.06402451               52.72180636                0.72332964                0.10781854                0.10797863               -0.35958098               -0.00014080                0.09133755               -0.00288379
              11.44440416                4.06249111               52.60408767                0.72599697                0.15339565                0.15367672               -0.51160926               -0.00015007                0.06839680               -0.00462181
              12.44616595                4.06094856               52.48612997                0.72973619                0.19895952                0.19940394               -0.66363208               -0.00010536                0.03734614               -0.00671868
              13.44838335                4.05939737               52.36786101                0.86638425                0.22173976                0.24508982               -0.81561787                0.00041789                0.01733437               -0.00921487
               3.44795225                5.07238380               53.54310603                0.86656542               -0.18740039               -0.21063422                0.70103807               -0.00047266                0.01386076                0.01230600
               4.44607824                5.07137318               53.42474811                0.72974803               -0.16465070               -0.16499420                0.54907776               -0.00002794                0.04538797                0.00786070
               5.44465923                5.07035292               53.30694588                0.72577681               -0.11915360               -0.11927477                0.39722219               -0.00006556                0.08614054                0.00511277
               6.44369517                5.06932310               53.18934638                0.72318095               -0.07362981               -0.07358909                0.24529329               -0.00010216                0.10440499                0.00304214
               7.44318664                5.06828369               53.07187102                0.72164496               -0.02805713               -0.02795315                0.09332542               -0.00013341                0.11406890                0.00137176
               8.44313403                5.06723479               52.95444461                0.72115887                0.01754331                0.01765727               -0.05866743               -0.00014842                0.11535643               -0.00016288
               9.44353750                5.06617654               52.83699309                0.72172067                0.06314992                0.06327516               -0.21067953               -0.00014288                0.10835617               -0.00180272
              10.44439703                5.06510912               52.71944303                0.72333101                0.10874762                0.10892720               -0.36270773               -0.00011687                0.09311886               -0.00376866
              11.44571246                5.06403267               52.60172137                0.72599959                0.15433090                0.15462276               -0.51474520               -0.00007619                0.06966806               -0.00627100
              12.44748365                5.06294725               52.48375516                0.72974036                0.19990375                0.20033766               -0.66677451               -0.00003375                0.03800625               -0.00949816
              13.44971053                5.06185278               52.36547139                0.86638644                0.22268854                0.24601160               -0.81876288                0.00045668                0.01765918               -0.01358118
               3.44873012                6.07028208               53.54074314                0.86656329               -0.18647056               -0.20973256                0.69794667               -0.00043999                0.01439951                0.01575507
               4.44686542                6.06972788               53.42236152                0.72974358               -0.16373097               -0.16406040                0.54598169                0.00005088                0.04692288                0.00969703
               5.44545550                6.06916485               53.30455589                0.72577376               -0.11824634               -0.11831620                0.39412684                0.00000537                0.08907392                0.00615657
               6.44450049                6.06859190               53.18696103                0.72318061               -0.07271981               -0.07263569                0.24219663               -0.00010368                0.10796297                0.00360075
               7.44400111                6.06800884               53.06949513                0.72164587               -0.02713630               -0.02701360                0.09022527               -0.00018282                0.11793356                0.00163155
               8.44395776                6.06741603               52.95207987                0.72116096                0.01847459                0.01858764               -0.06177282               -0.00020327                0.11922535               -0.00011800
               9.44437060                6.06681395               52.83463826                0.72172303                0.06409010                0.06419902               -0.21379140               -0.00017000                0.11194414               -0.00197606
              10.44523956                6.06620305               52.71709411                0.72333470                0.10969516                0.10984437               -0.36582644               -0.00009251                0.09614757               -0.00426771
              11.44656450                6.06558356               52.59937157                0.72600404                0.15528008                0.15554151               -0.51787024               -0.00000116                0.07187125               -0.00734333
              12.44834517                6.06495531               52.48139514                0.72974488                0.20084610                0.20127712               -0.66990513                0.00004160                0.03916549               -0.01155365
              13.45058142                6.06431760               52.36308999                0.86638927                0.22362563                0.24697649               -0.82189842                0.00049936                0.01824183               -0.01716779
               3.44905183                7.06818915               53.53836645                0.86656082               -0.18553473               -0.20889675                0.69484546               -0.00038671                0.01518758                0.01765319
               4.44719649                7.06809197               53.41995450                0.72974039               -0.16282533               -0.16309632                0.54287327                0.00014239                0.04917687                0.01008427
               5.44579533                7.06798660               53.30214823                0.72577353               -0.11736888               -0.11730266                0.39102175                0.00004142                0.09335770                0.00615474
               6.44484911                7.06787039               53.18456398                0.72318131               -0.07182399               -0.07166160                0.23909347               -0.00015228                0.11311676                0.00353384
               7.44435885                7.06774342               53.06711519                0.72164902               -0.02621302               -0.02607660                0.08712234               -0.00024696                0.12350969                0.00160348
               8.44432485                7.06760654               52.94971936                0.72116572                0.01941173                0.01951107               -0.06487723               -0.00025677                0.12483216               -0.00007746
               9.44474708                7.06746052               52.83229586                0.72172906                0.06503607                0.06511173               -0.21689840               -0.00020335                0.11721530               -0.00187275
              10.44562557                7.06730601               52.71476480                0.72334040                0.11065446                0.11073808               -0.36893682               -0.00009025                0.10068699               -0.00416564
              11.44696017                7.06714350               52.59704611                0.72600909                0.15624328                0.15642648               -0.52098435                0.00006332                0.07524377               -0.00744114
              12.44875043                7.06697279               52.47905983                0.72974996                0.20178818                0.20221324               -0.67302402                0.00013423                0.04096810               -0.01231516
              13.45099593                7.06679231               52.36072753                0.86639239                0.22454995                0.24800493               -0.82502438                0.00056266                0.01916081               -0.01932974
               3.44891674                8.06610414               53.53595790                0.86655854               -0.18459249               -0.20821338                0.69173000               -0.00028915                0.01636332                0.01735199
               4.44707082                8.06646596               53.41751034                0.72973771               -0.16194149               -0.16201242                0.53974829                0.00019377                0.05247152                0.00838489
               5.44567791                8.06681880               53.29971122                0.72577370               -0.11651010               -0.11625580                0.38790410               -0.00006551                0.09949766                0.00492273
               6.44474062                8.06715866               53.18214860                0.72318596               -0.07089484               -0.07072712                0.23598244               -0.00025501                0.12030624                0.00280762
               7.44426002                8.06748731               53.06472832                0.72165617               -0.02525419               -0.02515854                0.08401613               -0.00029682                0.13113669                0.00127813
               8.44423553                8.06780625               52.94736326                0.72117467                0.02035236                0.02043014               -0.06798041               -0.00027420                0.13248665               -0.00003708
               9.44466706                8.06811619               52.82996919                0.72173821                0.06596209                0.06603110               -0.21999960               -0.00022513                0.12451998               -0.00145545
              10.44555477                8.06841781               52.71246228                0.72334928                0.11159573                0.11164168               -0.37203653               -0.00012251                0.10717213               -0.00333217
              11.44689898                8.06871209               52.59475701                0.72601558                0.15721338                0.15727972               -0.52408464                0.00006230                0.08024315               -0.00618726
              12.44869904                8.06899958               52.47676556                0.72975613                0.20273316                0.20309809               -0.67612727                0.00023016                0.04372280               -0.01097078
              13.45095364                8.06927770               52.35840218                0.86639489                0.22545997                0.24915927               -0.82813532                0.00066809                0.02060171               -0.01910004
               3.44832242                9.06402488               53.53349190                0.86655652               -0.18367147               -0.20784414                0.68859283               -0.00033614                0.01802763                0.01280823
               4.44648570                9.06485173               53.41500442                0.72973572               -0.16105555               -0.16072054                0.53659950               -0.00000618                0.05746616                0.00429189
               5.44510131                9.06566148               53.29723236                0.72577797               -0.11551033               -0.11541202                0.38477048               -0.00022942                0.10842068                0.00270843
               6.44417550                9.06645585               53.17970873                0.72319430               -0.06979924               -0.06985098                0.23286096               -0.00029138                0.13002188                0.00154270
               7.44370532                9.06724025               53.06233182                0.72166762               -0.02425079               -0.02425941                0.08090502               -0.00022624                0.14113101                0.00070737
               8.44369048                9.06801514               52.94501175                0.72118815                0.02128467                0.02135373               -0.07108239               -0.00019455                0.14248755               -0.00000662
               9.44413102                9.06878114               52.82766159                0.72175172                0.06683671                0.06697313               -0.22309340               -0.00016943                0.13423710               -0.00078366
              10.44502722                9.06953884               52.71019436                0.72336113                0.11243175                0.11259028               -0.37512314               -0.00013833                0.11620501               -0.00184046
              11.44637965                9.07028910               52.59251964                0.72602652                0.15811052                0.15821058               -0.52716506               -0.00000619                0.08779093               -0.00353078
              12.44818943                9.07103476               52.47453850                0.72976276                0.20366965                0.20387047               -0.67920502                0.00020509                0.04816908               -0.00662253
              13.45045305                9.07177550               52.35614403                0.86639796                0.22636181                0.25055731               -0.83122074                0.00066927                0.02296014               -0.01392963
               3.44725634               10.06194726               53.53090941                0.93327760               -0.18222402               -0.20776275                0.68541779                0.02382077                0.02383033                0.01113386
               4.44543410               10.06325154               53.41241395                0.86486844               -0.15935683               -0.16001804                0.53342126                0.02300442                0.06679027                0.00325944
               5.44406920               10.06451056               53.29470493                0.86289141               -0.11390407               -0.11509242                0.38161661                0.02229440                0.12104615                0.00257378
               6.44315602               10.06576164               53.17724012                0.86160102               -0.06865026               -0.06942035                0.22972498                0.02263009                0.14250144                0.00148526
               7.44269620               10.06700212               53.05992384                0.86083902               -0.02326315               -0.02381330                0.07778650                0.02267146                0.15370078                0.00059973
               8.44269075               10.06823333               52.94266483                0.86059959                0.02218904                0.02181832               -0.07418406                0.02270387                0.15503260               -0.00022482
               9.44313998               10.06945565               52.82537518                0.86088141                0.06766481                0.06745125               -0.22617861                0.02271077                0.14665259               -0.00108434
              10.44404405               10.07066962               52.70796677                0.86168609                0.11314801                0.11307790               -0.37819265                0.02271601                0.12832713               -0.00209795
              11.44540294               10.07187630               52.59034702                0.86301786                0.15863468                0.15872068               -0.53021857                0.02269707                0.09931021               -0.00348126
              12.44721674               10.07307699               52.47241289                0.86488454                0.20413037                0.20422312               -0.68224414                0.02335903                0.05712695               -0.00564875
              13.44948555               10.07428885               52.35402232                0.93319997                0.22688017                0.25133529               -0.83425687                0.02443633                0.02975191               -0.01215103
               3.55645112                0.08533730               54.56201945                0.93324603               -0.18773184               -0.21171839                0.70201981               -0.02406550                0.01964528               -0.00499809
               4.55457380                0.08203935               54.44222265                0.86488191               -0.16543444               -0.16522875                0.55311115               -0.02274482                0.04636378               -0.00479808
               5.55314243                0.07875835               54.32288338                0.86294951               -0.12093550               -0.12091260                0.40429045               -0.02212729                0.08381752               -0.00200197
               6.55215509                0.07546931               54.20377711                0.86163228               -0.07648903               -0.07619686                0.25545774               -0.02227859                0.10432853               -0.00112961
               7.55161265                0.07217222               54.08480773                0.86085098               -0.03196221               -0.03152871                0.10661176               -0.02229860                0.11516239               -0.00047410
               8.55151584                0.06886591               53.96589606                0.86060148                0.01261240                0.01315248               -0.04224605               -0.02231682                0.11733466                0.00006632
               9.55186490                0.06555005               53.84696633                0.86088210                0.05720124                0.05783465               -0.19111712               -0.02231824                0.11108147                0.00056422
              10.55265987                0.06222430               53.72794408                0.86169478                0.10178336                0.10251114               -0.34000407               -0.02232410                0.09644343                0.00106513
              11.55390056                0.05888759               53.60875437                0.86304323                0.14636463                0.14722390               -0.48890735               -0.02227944                0.07329063                0.00162631
              12.55558716                0.05553931               53.48932013                0.86493391                0.19088815                0.19172031               -0.63782355               -0.02285867                0.04100470                0.00228826
              13.55771833                0.05216316               53.36955405                0.93323452                0.21311641                0.23809183               -0.78675132               -0.02290728                0.02003297                0.00411295
               3.55950841                1.08322012               54.55966712                0.86640507               -0.18725885               -0.21087274                0.69903565               -0.00057227                0.01594790               -0.00377218
               4.55763582                1.08038706               54.43985038                0.72957861               -0.16511183               -0.16492576                0.55012056               -0.00012227                0.04397138               -0.00464322
               5.55620618                1.07754923               54.32051745                0.72574584               -0.12052275               -0.12035574                0.40129646                0.00004002                0.08176650               -0.00163161
               6.55522537                1.07470734               54.20139813                0.72318570               -0.07574063               -0.07571455                0.25244744                0.00012714                0.10117804               -0.00066681
               7.55469136                1.07185693               54.08241337                0.72166867               -0.03108043               -0.03105956                0.10358435                0.00008433                0.11181126               -0.00029413
               8.55460376                1.06899743               53.96348497                0.72118523                0.01355759                0.01360913               -0.04529077                0.00005646                0.11386669               -0.00018291
               9.55496252                1.06612840               53.84453790                0.72173248                0.05820490                0.05828260               -0.19417936                0.00003493                0.10755366               -0.00018188
              10.55576786                1.06324941               53.72549814                0.72331319                0.10288750                0.10295682               -0.34308410                0.00001112                0.09290406               -0.00018524
              11.55702027                1.06035983               53.60629128                0.72593576                0.14764665                0.14764578               -0.49200545               -0.00012976                0.06978379               -0.00007232
              12.55872079                1.05745651               53.48684066                0.72961336                0.19225690                0.19238362               -0.64093956               -0.00018424                0.03805911                0.00036564
              13.56086540                1.05454408               53.36706925                0.86629971                0.21446117                0.23813064               -0.78987374                0.00049476                0.01761161                0.00185166
               3.56210578                2.08111985               54.55725264                0.86631820               -0.18635375               -0.20942600                0.69604398               -0.00062408                0.01295778               -0.00257839
               4.56024224                2.07874084               54.43741358                0.72939401               -0.16414146               -0.16426773                0.54712921               -0.00025125                0.04352051               -0.00328656
               5.55882295                2.07635124               54.31810950                0.72559150               -0.11961587               -0.11941501                0.39832419               -0.00009348                0.08276706               -0.00140923
               6.55784993                2.07395502               54.19899732                0.72310554               -0.07493533               -0.07477784                0.24945903                0.00005419                0.10058446               -0.00045751
               7.55732424                2.07155103               54.08000984                0.72163459               -0.03022082               -0.03013094                0.10057149                0.00007960                0.11049477               -0.00020080
               8.55724551                2.06913809               53.96107447                0.72116677                0.01446837                0.01452772               -0.04833081                0.00005062                0.11222016               -0.00029013
               9.55761361                2.06671570               53.84211844                0.72169984                0.05915756                0.05919644               -0.19724764                0.00000633                0.10577284               -0.00055178
              10.55842866                2.06428344               53.72306941                0.72323714                0.10386290                0.10387868               -0.34618097               -0.00008005                0.09116227               -0.00085812
              11.55969087                2.06184051               53.60385478                0.72578617                0.14852854                0.14859866               -0.49512967               -0.00021852                0.06835518               -0.00105904
              12.56139923                2.05938698               53.48440156                0.72936142                0.19311107                0.19353730               -0.64408463               -0.00029590                0.03734849               -0.00089911
              13.56355309                2.05692577               53.36463706                0.86613176                0.21538602                0.23852894               -0.79301942                0.00025918                0.01735804               -0.00013024
               3.56425395                3.07903160               54.55483820                0.86631536               -0.18545469               -0.20831793                0.69303882               -0.00053891                0.01331399                0.00244012
               4.56239941                3.07710171               54.43500108                0.72938785               -0.16319151               -0.16348134                0.54412915               -0.00018412                0.04386403                0.00148663
               5.56099012                3.07516093               54.31569905                0.72558465               -0.11863722               -0.11862640                0.39532302               -0.00017196                0.08324180                0.00097906
               6.56002666                3.07321178               54.19659184                0.72309830               -0.07401190               -0.07389325                0.24645109               -0.00005459                0.10096738                0.00073887
               7.55950989                3.07125431               54.07760497                0.72162632               -0.02932817               -0.02921789                0.09754844               -0.00000730                0.11048990                0.00033011
               8.55944010                3.06928798               53.95866719                0.72115953                0.01537034                0.01545231               -0.05137297               -0.00001660                0.11195246               -0.00026144
               9.55981729                3.06731233               53.83970688                0.72169378                0.06006782                0.06013347               -0.20031047               -0.00006154                0.10534442               -0.00100313
              10.56064146                3.06532699               53.72065259                0.72323379                0.10475304                0.10484276               -0.34926422               -0.00013517                0.09067387               -0.00186508
              11.56191235                3.06333180               53.60143287                0.72578558                0.14940772                0.14962215               -0.49823012               -0.00021480                0.06793711               -0.00279667
              12.56362961                3.06132726               53.48197616                0.72936484                0.19403268                0.19448315               -0.64719546               -0.00018605                0.03710953               -0.00372759
              13.56579301                3.05931465               53.36221051                0.86613396                0.21633970                0.23930511               -0.79613085                0.00035905                0.01721635               -0.00462242
               3.56595478                4.07695349               54.55243860                0.86631284               -0.18455500               -0.20734037                0.69002558               -0.00049266                0.01351540                0.00780505
               4.56410923                4.07547121               54.43259268                0.72938333               -0.16226719               -0.16259918                0.54111646               -0.00010131                0.04446456                0.00501701
               5.56270944                4.07397871               54.31329021                0.72557984               -0.11768919               -0.11778569                0.39230890               -0.00013285                0.08434447                0.00333146
               6.56175545                4.07247715               54.19418464                0.72309330               -0.07307694               -0.07302211                0.24343118               -0.00009964                0.10218690                0.00202381
               7.56124790                4.07096667               54.07520007                0.72162160               -0.02841408               -0.02831216                0.09451855               -0.00008093                0.11167306                0.00090515
               8.56118716                4.06944713               53.95626358                0.72115567                0.01627409                0.01637549               -0.05441611               -0.00008779                0.11299088               -0.00021332
               9.56157338                4.06791837               53.83730305                0.72169240                0.06096582                0.06107192               -0.20336843               -0.00011017                0.10619641               -0.00145260
              10.56240648                4.06638029               53.71824670                0.72323357                0.10564623                0.10580333               -0.35233642               -0.00013809                0.09131806               -0.00290761
              11.56368630                4.06483295               53.59902296                0.72578717                0.15030887                0.15058467               -0.50131458               -0.00014712                0.06836569               -0.00465640
              12.56541266                4.06327664               53.47956025                0.72936850                0.19495865                0.19539442               -0.65028753               -0.00010326                0.03732261               -0.00676043
              13.56758548                4.06171187               53.35978666                0.86613626                0.21728185                0.24016358               -0.79922373                0.00040937                0.01731248               -0.00925836
               3.56720866                5.07488479               54.55004639                0.86631012               -0.18365019               -0.20641785                0.68700510               -0.00046323                0.01387367                0.01234481
               4.56537216                5.07384972               54.43018407                0.72937904               -0.16135689               -0.16169359                0.53809354               -0.00002767                0.04546786                0.00789182
               5.56398152                5.07280521               54.31087849                0.72557589               -0.11677244               -0.11689149                0.38928469               -0.00006444                0.08624773                0.00513963
               6.56303671                5.07175134               54.19177491                0.72309029               -0.07216180               -0.07212237                0.24040358               -0.00010025                0.10446441                0.00306266
               7.56253829                5.07068807               54.07279509                0.72161929               -0.02750336               -0.02740191                0.09148431               -0.00013093                0.11410100                0.00138349
               8.56248664                5.06961549               53.95386397                0.72115451                0.01718223                0.01729357               -0.05745932               -0.00014551                0.11536766               -0.00016198
               9.56288193                5.06853377               53.83490754                0.72169210                0.06187378                0.06199641               -0.20642174               -0.00014009                0.10834727               -0.00181380
              10.56372412                5.06744305               53.71585242                0.72323425                0.10655654                0.10673268               -0.35539989               -0.00011462                0.09309143               -0.00379155
              11.56501306                5.06634350               53.59662561                0.72579015                0.15122522                0.15151152               -0.50438703               -0.00007479                0.06963065               -0.00630537
              12.56674862                5.06523515               53.47715434                0.72937207                0.19588375                0.19630924               -0.65336629               -0.00003343                0.03798006               -0.00954219
              13.56893074                5.06411793               53.35736590                0.86613853                0.21821142                0.24106682               -0.80230562                0.00044720                0.01763674               -0.01363233
               3.56801565                6.07282513               54.54765289                0.86630748               -0.18273929               -0.20553453                0.68397686               -0.00043124                0.01441365                0.01580138
               4.56618825                6.07223734               54.42776684                0.72937558               -0.16045577               -0.16077873                0.53506029                0.00004965                0.04700652                0.00973000
               5.56480653                6.07164088               54.30845786                0.72557399               -0.11588348               -0.11595228                0.38625181                0.00000511                0.08918626                0.00618401
               6.56387058                6.07103471               54.18935891                0.72308956               -0.07127024               -0.07118827                0.23736952               -0.00010158                0.10802551                0.00362107
               7.56338113                6.07041863               54.07038851                0.72162055               -0.02660115               -0.02648140                0.08844691               -0.00017902                0.11796697                0.00164308
               8.56333856                6.06979301               53.95146849                0.72115606                0.01809465                0.01820514               -0.06050190               -0.00019903                0.11923631               -0.00011708
               9.56374302                6.06915830               53.83252192                0.72169431                0.06279489                0.06290161               -0.20947077               -0.00016646                0.11193426               -0.00198678
              10.56459446                6.06851495               53.71347263                0.72323794                0.10748487                0.10763134               -0.35845565               -0.00009061                0.09611909               -0.00429053
              11.56589272                6.06786318               53.59424488                0.72579393                0.15215509                0.15241173               -0.50744877               -0.00000134                0.07183304               -0.00737794
              12.56763756                6.06720283               53.47476332                0.72937661                0.19680716                0.19722991               -0.65643407                0.00004045                0.03913887               -0.01160061
              13.56982886                6.06653321               53.35495345                0.86614110                0.21912992                0.24201267               -0.80537924                0.00048924                0.01821901               -0.01722835
               3.56837562                7.07077410               54.54524551                0.86630605               -0.18182230               -0.20471551                0.68093801               -0.00037900                0.01520382                0.01770429
               4.56655740                7.07063415               54.42532904                0.72937220               -0.15956842               -0.15983404                0.53201446                0.00013940                0.04926773                0.01011596
               5.56518425                7.07048617               54.30601946                0.72557313               -0.11502376               -0.11495919                0.38320931                0.00004046                0.09348182                0.00618055
               6.56425692                7.07032758               54.18693114                0.72309152               -0.07039249               -0.07023387                0.23432902               -0.00014910                0.11318958                0.00355329
               7.56377640                7.07015844               54.06797786                0.72162392               -0.02569658               -0.02556335                0.08540672               -0.00024168                0.12355144                0.00161465
               8.56374299                7.06997960               53.94907725                0.72116121                0.01901276                0.01910989               -0.06354345               -0.00025126                0.12485000               -0.00007628
               9.56415666                7.06979180               53.83014875                0.72170041                0.06372167                0.06379587               -0.21251494               -0.00019898                0.11721130               -0.00188258
              10.56501743                7.06959568               53.71111253                0.72324350                0.10842466                0.10850698               -0.36150288               -0.00008828                0.10066402               -0.00418706
              11.56632515                7.06939173               53.59188860                0.72579853                0.15309875                0.15327889               -0.51049994                0.00006219                0.07521033               -0.00747519
              12.56807940                7.06917974               53.47239714                0.72938153                0.19773030                0.19814722               -0.65949026                0.00013176                0.04094381               -0.01236351
              13.57027976                7.06895818               53.35256003                0.86614418                0.22003574                0.24302041               -0.80844230                0.00055145                0.01913851               -0.01939563
               3.56828796                8.06873082               54.54280612                0.86630337               -0.18089919               -0.20404600                0.67788561               -0.00028337                0.01638255                0.01740180
               4.56647897                8.06904066               54.42285395                0.72936999               -0.15870254               -0.15877186                0.52895260                0.00018967                0.05257375                0.00840977
               5.56511391                8.06934170               54.30355159                0.72557405               -0.11418235               -0.11393348                0.38015450               -0.00006433                0.09964134                0.00494445
               6.56419533                8.06963003               54.18448497                0.72309540               -0.06948212               -0.06931832                0.23128090               -0.00024974                0.12039747                0.00282416
               7.56372427                8.06990737               54.06556023                0.72163080               -0.02475722               -0.02466386                0.08236336               -0.00029057                0.13119489                0.00128779
               8.56370018                8.07017520               53.94669043                0.72117021                0.01993428                0.02001035               -0.06658377               -0.00026832                0.13251937               -0.00003566
               9.56412296                8.07043422               53.82779139                0.72170866                0.06462893                0.06469665               -0.21555331               -0.00022026                0.12453007               -0.00146328
              10.56499276                8.07068509               53.70877933                0.72325174                0.10934699                0.10939239               -0.36454023               -0.00011974                0.10716186               -0.00334982
              11.56630990                8.07092876               53.58956881                0.72580627                0.15404936                0.15411496               -0.51353775                0.00006151                0.08022024               -0.00621658
              12.56807375                8.07116577               53.47007215                0.72938777                0.19865599                0.19901405               -0.66253017                0.00022602                0.04370619               -0.01101417
              13.57028302                8.07139362               53.35020390                0.86614656                0.22092697                0.24415097               -0.81148908                0.00065483                0.02058527               -0.01916414
               3.56775029                9.06669318               54.54030906                0.86630152               -0.17999685               -0.20368453                0.67481200               -0.00032942                0.01805217                0.01284500
               4.56595032                9.06745871               54.42031686                0.72936859               -0.15783449               -0.15750576                0.52586745               -0.00000641                0.05758689                0.00430341
               5.56459360                9.06820750               54.30104171                0.72557826               -0.11320279               -0.11310700                0.37708434               -0.00022493                0.10859415                0.00272197
               6.56368626                9.06894121               54.18201420                0.72310372               -0.06840887               -0.06845996                0.22822277               -0.00028543                0.13014013                0.00155301
               7.56322542                9.06966517               54.06313294                0.72164222               -0.02377432               -0.02378290                0.07931529               -0.00022150                0.14121495                0.00071347
               8.56321077                9.07037980               53.94430822                0.72118285                0.02084770                0.02091532               -0.06962310               -0.00019038                0.14254494               -0.00000552
               9.56364237                9.07108573               53.82545316                0.72172254                0.06548594                0.06561970               -0.21858473               -0.00016568                0.13427086               -0.00078807
              10.56452049                9.07178353               53.70648085                0.72326387                0.11016629                0.11032188               -0.36756468               -0.00013518                0.11621717               -0.00185138
              11.56584570                9.07247403               53.58730094                0.72581615                0.15492849                0.15502707               -0.51655614               -0.00000576                0.08778807               -0.00354834
              12.56761906                9.07316002               53.46781461                0.72939451                0.19957344                0.19977092               -0.66554550                0.00020126                0.04816594               -0.00664934
              13.56983717                9.07384120               53.34791521                0.86614917                0.22181036                0.24552045               -0.81451132                0.00065599                0.02295227               -0.01397684
               3.56675031               10.06465713               54.53769514                0.93315016               -0.17857836               -0.20360494                0.67170066                0.02334344                0.02387182                0.01116852
               4.56496453               10.06589054               54.41769493                0.86468409               -0.15616955               -0.15681724                0.52275321                0.02254225                0.06694152                0.00326917
               5.56362692               10.06707956               54.29848306                0.86279062               -0.11162885               -0.11279410                0.37399449                0.02184671                0.12126045                0.00258657
               6.56273195               10.06826083               54.17951455                0.86155613               -0.06728357               -0.06803807                0.22515047                0.02217634                0.14265686                0.00149439
               7.56228125               10.06943171               54.06069410                0.86082610               -0.02280697               -0.02334580                0.07625991                0.02221690                0.15382124                0.00060464
               8.56227581               10.07059351               53.94193059                0.86059734                0.02173366                0.02137055               -0.07266209                0.02224868                0.15512612               -0.00022465
               9.56271592               10.07174661               53.82313622                0.86086652                0.06629739                0.06608819               -0.22160755                0.02225550                0.14672172               -0.00108894
              10.56360176               10.07289152               53.70422288                0.86163720                0.11086825                0.11079964               -0.37057196                0.02226067                0.12837451               -0.00210867
              11.56493328               10.07402930               53.58509809                0.86291247                0.15544233                0.15552687               -0.51954805                0.02224204                0.09934191               -0.00349697
              12.56671060               10.07516119               53.46565892                0.86470024                0.20002515                0.20011662               -0.66852353                0.02289039                0.05715087               -0.00567143
              13.56893379               10.07630403               53.34576343                0.93307556                0.22231845                0.24628270               -0.81748664                0.02394564                0.02976469               -0.01219347
               3.67718912                0.08765454               55.56896778                0.93311717               -0.18388203               -0.20737570                0.68761963               -0.02357092                0.01968488               -0.00500281
               4.67535030                0.08437861               55.44769717                0.86469351               -0.16204295               -0.16184112                0.54177165               -0.02227723                0.04646169               -0.00479569
               5.67394826                0.08111930               55.32688496                0.86284498               -0.11845858               -0.11843631                0.39600948               -0.02167248                0.08396433               -0.00198990
               6.67298113                0.07785209               55.20630563                0.86158538               -0.07492548               -0.07463922                0.25023492               -0.02182090                0.10447084               -0.00112045
               7.67244975                0.07457701               55.08586306                0.86083796               -0.03131370               -0.03088903                0.10444794               -0.02184051                0.11529695               -0.00046834
               8.67235485                0.07129289               54.96547807                0.86059923                0.01234492                0.01287389               -0.04135053               -0.02185838                0.11745809                0.00006846
               9.67269665                0.06799943               54.84507490                0.86086737                0.05601756                0.05663786               -0.18716221               -0.02185978                0.11118838                0.00056264
              10.67347520                0.06469627               54.72457905                0.86164520                0.09968357                0.10039625               -0.33298933               -0.02186552                0.09652874                0.00105957
              11.67469032                0.06138238               54.60391557                0.86293456                0.14334880                0.14419018               -0.47883265               -0.02182174                0.07335235                0.00161698
              12.67634218                0.05805717               54.48300745                0.86474392                0.18695738                0.18777220               -0.62468881               -0.02238884                0.04104188                0.00227536
              13.67842947                0.05470467               54.36176736                0.93310646                0.20872876                0.23319053               -0.77055566               -0.02243633                0.02004843                0.00410754
               3.68022934                1.08558078               55.56658593                0.86615134               -0.18341906               -0.20654747                0.68469784               -0.00056027                0.01596931               -0.00376406
               4.67839515                1.08276020               55.44529531                0.72921122               -0.16172721               -0.16154462                0.53884316               -0.00011985                0.04405255               -0.00462826
               5.67699479                1.07993493               55.32448940                0.72554338               -0.11805428               -0.11789090                0.39307733                0.00003916                0.08189165               -0.00159910
               6.67603406                1.07710570               55.20389686                0.72309388               -0.07419227               -0.07416707                0.24728707                0.00012444                0.10129204               -0.00064038
               7.67551095                1.07426812               55.08343873                0.72164289               -0.03044995               -0.03042973                0.10148335                0.00008217                0.11191704               -0.00027821
               8.67542506                1.07142163               54.96303686                0.72118070                0.01327064                0.01332105               -0.04433216                0.00005482                0.11396100               -0.00017896
               9.67577636                1.06856580               54.84261616                0.72170399                0.05700039                0.05707656               -0.19016098                0.00003377                0.10763111               -0.00019044
              10.67656507                1.06570023               54.72210262                0.72321621                0.10076468                0.10083282               -0.33600562                0.00001047                0.09295974               -0.00020656
              11.67779165                1.06282429               54.60142183                0.72572426                0.14460396                0.14460344               -0.48186653               -0.00012744                0.06981591               -0.00010552
              12.67945715                1.05993489               54.48049715                0.72924356                0.18829745                0.18842186               -0.62773991               -0.00018048                0.03807217                0.00032374
              13.68155760                1.05703658               54.35925166                0.86605100                0.21004541                0.23322827               -0.77361301                0.00048477                0.01760848                0.00181630
               3.68281908                2.08352359               55.56414184                0.86606758               -0.18253288               -0.20513059                0.68176888               -0.00061116                0.01297135               -0.00256424
               4.68099375                2.08114772               55.44282891                0.72903359               -0.16077684               -0.16090047                0.53591393               -0.00024615                0.04360308               -0.00326339
               5.67960354                2.07876148               55.32205204                0.72539500               -0.11716597               -0.11696959                0.39016636               -0.00009165                0.08288544               -0.00137052
               6.67865043                2.07636875               55.20146647                0.72301717               -0.07340364               -0.07324991                0.24436081                0.00005278                0.10067018               -0.00042352
               7.67813547                2.07396842               55.08100539                0.72160923               -0.02960816               -0.02952048                0.09853310                0.00007738                0.11056673               -0.00017991
               8.67805827                2.07155931               54.96059627                0.72116211                0.01416261                0.01422059               -0.04730926                0.00004892                0.11227864               -0.00028546
               9.67841872                2.06914096               54.84016634                0.72167215                0.05793331                0.05797152               -0.19316578                0.00000562                0.10581362               -0.00056465
              10.67921693                2.06671293               54.71964324                0.72314289                0.10171974                0.10173569               -0.33903837               -0.00007900                0.09118181               -0.00088834
              11.68045311                2.06427445               54.59895441                0.72558069                0.14546747                0.14553675               -0.48492615               -0.00021460                0.06835488               -0.00110470
              12.68212628                2.06182561               54.47802692                0.72900190                0.18913396                0.18955182               -0.63082015               -0.00029013                0.03734195               -0.00095374
              13.68423579                2.05936924               54.35678835                0.86588948                0.21095123                0.23361840               -0.77669413                0.00025377                0.01734523               -0.00017848
               3.68496886                3.08147817               55.56169766                0.86606569               -0.18165225               -0.20404540                0.67882547               -0.00052764                0.01332783                0.00246043
               4.68315233                3.07954219               55.44038671                0.72902752               -0.15984651               -0.16013039                0.53297592               -0.00018018                0.04394395                0.00151260
               5.68177192                3.07759554               55.31961188                0.72538828               -0.11620768               -0.11619736                0.38722778               -0.00016852                0.08335174                0.00100687
               6.68082818                3.07564070               55.19903122                0.72300944               -0.07249938               -0.07238363                0.24141527               -0.00005383                0.10103736                0.00076346
               7.68032194                3.07367771               55.07857060                0.72160164               -0.02873396               -0.02862633                0.09557263               -0.00000762                0.11053996                0.00034538
               8.68025350                3.07170604               54.95815887                0.72115491                0.01504596                0.01512602               -0.05028843               -0.00001670                0.11198634               -0.00025892
               9.68062286                3.06972523               54.83772447                0.72166662                0.05882469                0.05888912               -0.19616513               -0.00006073                0.10535992               -0.00101483
              10.68142999                3.06773495               54.71719592                0.72313902                0.10259135                0.10267976               -0.34205757               -0.00013286                0.09066937               -0.00189033
              11.68267468                3.06573502               54.59650181                0.72558067                0.14632851                0.14653909               -0.48796271               -0.00021072                0.06791726               -0.00283369
              12.68435656                3.06372593               54.47557072                0.72900484                0.19003678                0.19047823               -0.63386764               -0.00018245                0.03709237               -0.00377037
              13.68647542                3.06170894               54.35433099                0.86589180                0.21188553                0.23437902               -0.77974230                0.00035150                0.01719839               -0.00466171
               3.68668048                4.07944268               55.55926824                0.86606297               -0.18077116               -0.20308809                0.67587455               -0.00048237                0.01352852                0.00783420
               4.68487277                4.07794511               55.43794850                0.72902333               -0.15894136               -0.15926653                0.53002581               -0.00009919                0.04454266                0.00504492
               5.68350166                4.07643753               55.31717322                0.72538344               -0.11527940               -0.11537414                0.38427636               -0.00013026                0.08444930                0.00335760
               6.68256718                4.07492108               55.19659414                0.72300454               -0.07158386               -0.07153054                0.23845806               -0.00009784                0.10224762                0.00204485
               7.68206998                4.07339589               55.07613571                0.72159684               -0.02783874               -0.02773936                0.09260556               -0.00007949                0.11171020                0.00091776
               8.68201041                4.07186183               54.95572516                0.72115164                0.01593100                0.01603006               -0.05326848               -0.00008623                0.11300935               -0.00021198
               9.68238860                4.07031874               54.83529038                0.72166425                0.05970401                0.05980809               -0.19915953               -0.00010822                0.10619610               -0.00146364
              10.68320449                4.06876652               54.71475963                0.72313838                0.10346611                0.10362036               -0.34506614               -0.00013541                0.09129870               -0.00293084
              11.68445792                4.06720524               54.59406138                0.72558242                0.14721108                0.14748154               -0.49098313               -0.00014407                0.06833412               -0.00469008
              12.68614871                4.06563517               54.47312421                0.72900779                0.19094352                0.19137057               -0.63689529               -0.00010123                0.03729989               -0.00680075
              13.68827679                4.06405682               54.35187654                0.86589364                0.21280809                0.23521985               -0.78277124                0.00040069                0.01729280               -0.00930070
               3.68795435                5.07741641               55.55684613                0.86606052               -0.17988512               -0.20218482                0.67291677               -0.00045365                0.01388702                0.01238296
               4.68615550                5.07635686               55.43550998                0.72901923               -0.15804996               -0.15837980                0.52706566               -0.00002722                0.04554664                0.00792235
               5.68479335                5.07528806               55.31473157                0.72537971               -0.11438166               -0.11449854                0.38131509               -0.00006332                0.08635240                0.00516584
               6.68386786                5.07421009               55.19415445                0.72300252               -0.07068764               -0.07064946                0.23549322               -0.00009828                0.10452216                0.00308297
               7.68337960                5.07312292               55.07370070                0.72159526               -0.02694691               -0.02684797                0.08963418               -0.00012822                0.11413237                0.00139513
               8.68332893                5.07202664               54.95329543                0.72114974                0.01682021                0.01692913               -0.05624858               -0.00014259                0.11537862               -0.00016105
               9.68371600                5.07092140               54.83286465                0.72166451                0.06059320                0.06071342               -0.20214967               -0.00013727                0.10833869               -0.00182470
              10.68454079                5.06980735               54.71233503                0.72313973                0.10435765                0.10453045               -0.34806627               -0.00011219                0.09306456               -0.00381464
              11.68580315                5.06868465               54.59163363                0.72558417                0.14810841                0.14838910               -0.49399172               -0.00007308                0.06959372               -0.00633887
              12.68750296                5.06755334               54.47068784                0.72901195                0.19184940                0.19226630               -0.63990998               -0.00003250                0.03795401               -0.00958496
              13.68964014                5.06641334               54.34942528                0.86589613                0.21371839                0.23610427               -0.78578928                0.00043806                0.01761443               -0.01368338
               3.68879050                6.07539898               55.55442267                0.86605794               -0.17899315               -0.20131991                0.66995149               -0.00042241                0.01442726                0.01584701
               4.68700057                6.07477751               55.43306273                0.72901522               -0.15716755               -0.15748396                0.52409539                0.00004840                0.04708833                0.00976212
               5.68564715                6.07414756               55.31228093                0.72537829               -0.11351108               -0.11357875                0.37834496                0.00000480                0.08929618                0.00621064
               6.68473035                6.07350809               55.19170842                0.72300161               -0.06981447               -0.06973469                0.23252194               -0.00009948                0.10808670                0.00364105
               7.68425086                6.07285893               55.07126407                0.72159541               -0.02606342               -0.02594653                0.08665974               -0.00017525                0.11799950                0.00165436
               8.68420908                6.07220041               54.95086983                0.72115199                0.01771372                0.01782179               -0.05922809               -0.00019483                0.11924679               -0.00011610
               9.68460514                6.07153301               54.83044885                0.72166693                0.06149526                0.06159986               -0.20513553               -0.00016286                0.11192426               -0.00199748
              10.68543899                6.07085713               54.70992500                0.72314264                0.10526676                0.10541050               -0.35105879               -0.00008855                0.09609122               -0.00431302
              11.68671047                6.07017302               54.58922259                0.72558845                0.14901910                0.14927077               -0.49699046               -0.00000099                0.07179559               -0.00741241
              12.68841937                6.06948050               54.46826646                0.72901690                0.19275364                0.19316785               -0.64291410                0.00004006                0.03911211               -0.01164732
              13.69056555                6.06877890               54.34698240                0.86589846                0.21461766                0.23703026               -0.78879815                0.00047932                0.01819552               -0.01728753
               3.68918884                7.07339001               55.55198521                0.86605607               -0.17809521               -0.20051784                0.66697586               -0.00037123                0.01521985                0.01775404
               4.68740789                7.07320718               55.43059479                0.72901288               -0.15629861               -0.15655877                0.52111264                0.00013653                0.04935688                0.01014687
               5.68606287                7.07301648               55.30981241                0.72537768               -0.11266916               -0.11260615                0.37536513                0.00003955                0.09360333                0.00620608
               6.68515450                7.07281540               55.18925056                0.72300352               -0.06895496               -0.06880005                0.22954427               -0.00014606                0.11326073                0.00357228
               7.68468377                7.07260399               55.06882332                0.72159884               -0.02517763               -0.02504752                0.08368257               -0.00023654                0.12359241                0.00162553
               8.68465095                7.07238308               54.94844849                0.72115698                0.01861286                0.01870778               -0.06220659               -0.00024582                0.12486737               -0.00007506
               9.68505602                7.07215339               54.82804556                0.72167193                0.06240288                0.06247564               -0.20811675               -0.00019458                0.11720739               -0.00189220
              10.68589901                7.07191556               54.70753474                0.72314873                0.10618715                0.10626807               -0.35404300               -0.00008596                0.10064126               -0.00420817
              11.68717977                7.07167007               54.58683611                0.72559364                0.14994324                0.15012000               -0.49997833                0.00006131                0.07517679               -0.00750883
              12.68889787                7.07141670               54.46587003                0.72902164                0.19365747                0.19406608               -0.64590653                0.00012904                0.04092027               -0.01241082
              13.69105292                7.07115395               54.34455868                0.86590141                0.21550439                0.23801689               -0.79179677                0.00053986                0.01911771               -0.01945993
               3.68914874                8.07138863               55.54951562                0.86605466               -0.17719101               -0.19986205                0.66398588               -0.00027753                0.01640197                0.01745101
               4.68737683                8.07164634               55.42808939                0.72900969               -0.15545066               -0.15551834                0.51811383                0.00018574                0.05267446                0.00843414
               5.68603972                8.07189544               55.30731431                0.72537800               -0.11184535               -0.11160183                0.37237400               -0.00006316                0.09978220                0.00496539
               6.68513992                8.07213209               55.18677422                0.72300774               -0.06806349               -0.06790359                0.22655945               -0.00024455                0.12048659                0.00284046
               7.68467845                8.07235798               55.06637558                0.72160638               -0.02425773               -0.02416667                0.08070220               -0.00028421                0.13125201                0.00129737
               8.68465477                8.07257457               54.94603158                0.72116535                0.01951523                0.01958962               -0.06518394               -0.00026228                0.13255155               -0.00003432
               9.68506876                8.07278252               54.82565812                0.72168041                0.06329146                0.06335781               -0.21109239               -0.00021518                0.12453978               -0.00147099
              10.68592060                8.07298249               54.70517148                0.72315722                0.10709047                0.10713521               -0.35701779               -0.00011664                0.10715173               -0.00336766
              11.68721057                8.07317542               54.58448626                0.72560092                0.15087385                0.15093869               -0.50295242                0.00006053                0.08019794               -0.00624500
              12.68893807                8.07336182               54.46351496                0.72902713                0.19456373                0.19491495               -0.64888287                0.00022106                0.04368976               -0.01105569
              13.69110184                8.07353924               54.34217239                0.86590393                0.21637714                0.23912417               -0.79478117                0.00064097                0.02056877               -0.01922677
               3.68866787                9.06939277               55.54698814                0.86605214               -0.17630748               -0.19950823                0.66097599               -0.00032275                0.01807558                0.01288137
               4.68690479                9.07009681               55.42552176                0.72900894               -0.15460068               -0.15427809                0.51509256               -0.00000693                0.05770474                0.00431460
               5.68557585                9.07078445               55.30477404                0.72538240               -0.11088602               -0.11079268                0.36936739               -0.00022065                0.10876433                0.00273479
               6.68468707                9.07145733               55.18427318                0.72301649               -0.06701239               -0.06706302                0.22356476               -0.00027933                0.13025633                0.00156325
               7.68423560                9.07212066               55.06391813                0.72161796               -0.02329527               -0.02330392                0.07771729               -0.00021649                0.14129705                0.00071956
               8.68422116                9.07277487               54.94361929                0.72117873                0.02040967                0.02047586               -0.06816033               -0.00018593                0.14260094               -0.00000454
               9.68464380                9.07342055               54.82328989                0.72169462                0.06413072                0.06426170               -0.21406097               -0.00016165                0.13430355               -0.00079267
              10.68550378                9.07405827               54.70284306                0.72316942                0.10789276                0.10804537               -0.35997940               -0.00013198                0.11622920               -0.00186189
              11.68680165                9.07468884               54.58218852                0.72561100                0.15173462                0.15183179               -0.50590805               -0.00000556                0.08778597               -0.00356578
              12.68853847                9.07531500               54.46122759                0.72903323                0.19546208                0.19565630               -0.65183575                0.00019717                0.04816304               -0.00667560
              13.69071089                9.07593643               54.33985380                0.86590679                0.21724224                0.24046535               -0.79774132                0.00064249                0.02294446               -0.01402170
               3.68773419               10.06739846               55.54434343                0.93302576               -0.17491835               -0.19943053                0.65792954                0.02286413                0.02391220                0.01120216
               4.68598501               10.06856078               55.42286902                0.86450482               -0.15296977               -0.15360362                0.51204278                0.02207794                0.06708962                0.00327850
               5.68467480               10.06967958               55.30218482                0.86269354               -0.10934437               -0.11048634                0.36634106                0.02139719                0.12147069                0.00259918
               6.68379812               10.07079083               55.18174313                0.86151172               -0.06591073               -0.06664979                0.22055590                0.02172101                0.14280926                0.00150341
               7.68335658               10.07189190               55.06144904                0.86081439               -0.02234822               -0.02287584                0.07472521                0.02176071                0.15393897                0.00060945
               8.68335116               10.07298409               54.94121159                0.86059473                0.02127723                0.02092166               -0.07113632                0.02179189                0.15521733               -0.00022458
               9.68378213               10.07406775               54.82094303                0.86085289                0.06492536                0.06472045               -0.21702110                0.02179866                0.14678936               -0.00109389
              10.68464966               10.07514340               54.70055533                0.86159006                0.10858024                0.10851312               -0.36292381                0.02180342                0.12842062               -0.00211843
              11.68595373               10.07621205               54.57995606                0.86280985                0.15223814                0.15232115               -0.50883808                0.02178515                0.09937272               -0.00351307
              12.68769443               10.07727495               54.45904242                0.86451961                0.19590462                0.19599496               -0.65475256                0.02242026                0.05717567               -0.00569447
              13.68987182               10.07834855               54.33767258                0.93295402                0.21773971                0.24121173               -0.80065461                0.02345324                0.02977971               -0.01223289
               3.79938602                0.09000094               56.57577184                0.93299105               -0.18001755               -0.20301655                0.67316507               -0.02307469                0.01972388               -0.00500757
               4.79758585                0.08674717               56.45305808                0.86450973               -0.15863829               -0.15844041                0.53038847               -0.02180777                0.04655778               -0.00479424
               5.79621326                0.08350967               56.33080357                0.86274280               -0.11597189               -0.11595020                0.38769582               -0.02121590                0.08410791               -0.00197901
               6.79526641                0.08026445               56.20878181                0.86153813               -0.07335576               -0.07307538                0.24499124               -0.02136144                0.10461016               -0.00111132
               7.79474614                0.07701150               56.08689669                0.86082443               -0.03066230               -0.03024653                0.10227450               -0.02138073                0.11542926               -0.00046262
               8.79465316                0.07374971               55.96506905                0.86059633                0.01207710                0.01259483               -0.04045356               -0.02139827                0.11757930                0.00007053
               9.79498769                0.07047877               55.84322308                0.86085346                0.05483007                0.05543712               -0.18319434               -0.02139961                0.11129322                0.00056113
              10.79574977                0.06719835               55.72128429                0.86159581                0.09757657                0.09827398               -0.32595037               -0.02140524                0.09661251                0.00105412
              11.79693922                0.06390742               55.59917771                0.86282875                0.14032234                0.14114564               -0.46872218               -0.02136246                0.07341280                0.00160742
              12.79855621                0.06060541               55.47682635                0.86455767                0.18301231                0.18380975               -0.61150627               -0.02191744                0.04107851                0.00226233
              13.80059946                0.05727670               55.35414294                0.93298074                0.20432496                0.22827152               -0.75430110               -0.02196349                0.02006448                0.00410207
               3.80240905                1.08797077               56.57336108                0.86590352               -0.17956434               -0.20220547                0.67030485               -0.00054818                0.01598991               -0.00375563
               4.80061340                1.08516277               56.45062724                0.72885057               -0.15832935               -0.15815027                0.52752168               -0.00011705                0.04413190               -0.00461395
               5.79924246                1.08235017               56.32837900                0.72534455               -0.11557611               -0.11541630                0.38482571                0.00003837                0.08201441               -0.00156788
               6.79830188                1.07953369               56.20634387                0.72300393               -0.07263777               -0.07261334                0.24210604                0.00012167                0.10140401               -0.00061433
               7.79778970                1.07670904               56.08444304                0.72161744               -0.02981666               -0.02979704                0.09937289                0.00008015                0.11202102               -0.00026250
               8.79770555                1.07387566               55.96259833                0.72117526                0.01298324                0.01303248               -0.04337194                0.00005326                0.11405368               -0.00017511
               9.79804937                1.07103314               55.84073468                0.72167594                0.05579202                0.05586658               -0.18612957                0.00003256                0.10770712               -0.00019877
              10.79882139                1.06818109               55.71877802                0.72312105                0.09863455                0.09870140               -0.32890259                0.00000975                0.09301423               -0.00022733
              11.80002206                1.06531888               55.59665395                0.72551792                0.14155054                0.14155033               -0.47169179               -0.00012526                0.06984718               -0.00013847
              12.80165240                1.06244351               55.47428586                0.72888105                0.18432387                0.18444601               -0.61449317               -0.00017683                0.03808540                0.00028225
              13.80370854                1.05955942               55.35159699                0.86580611                0.20561385                0.22830845               -0.75729422                0.00047497                0.01760657                0.00178179
               3.80499108                2.08595683               56.57088802                0.86582375               -0.17869678               -0.20081833                0.66743761               -0.00059815                0.01298316               -0.00255018
               4.80320411                2.08358416               56.44813186                0.72868048               -0.15739902               -0.15751997                0.52465435               -0.00024099                0.04368305               -0.00324051
               5.80184310                2.08120135               56.32591282                0.72520237               -0.11470659               -0.11451453                0.38197659               -0.00008984                0.08300166               -0.00133256
               6.80090998                2.07881218               56.20388453                0.72293043               -0.07186576               -0.07171572                0.23924188                0.00005134                0.10075464               -0.00039019
               7.80040578                2.07641556               56.08198050                0.72158599               -0.02899261               -0.02890716                0.09648517                0.00007532                0.11063717               -0.00015932
               8.80033013                2.07401036               55.96012829                0.72115783                0.01385621                0.01391288               -0.04628576                0.00004735                0.11233595               -0.00028094
               9.80068291                2.07159610               55.83825513                0.72164465                0.05670499                0.05674262               -0.18907063                0.00000479                0.10585381               -0.00057714
              10.80146423                2.06917238               55.71628864                0.72304985                0.09956925                0.09958528               -0.33187125               -0.00007801                0.09120069               -0.00091786
              11.80267429                2.06673843               55.59415626                0.72538032                0.14239570                0.14246406               -0.47468690               -0.00021048                0.06835411               -0.00114942
              12.80431214                2.06429433               55.47178516                0.72864987                0.18514280                0.18555226               -0.61750891               -0.00028421                0.03733631               -0.00100724
              13.80637715                2.06184287               55.34910318                0.86565235                0.20650079                0.22869042               -0.76031087                0.00024830                0.01733420               -0.00022612
               3.80714242                3.08395441               56.56841471                0.86582053               -0.17783499               -0.19975645                0.66455729               -0.00051648                0.01334102                0.00247951
               4.80536407                3.08201237               56.44566059                0.72867513               -0.15648846               -0.15676647                0.52177916               -0.00017657                0.04402200                0.00153799
               5.80401265                3.08005988               56.32344360                0.72519504               -0.11376861               -0.11375881                0.37910071               -0.00016513                0.08345945                0.00103444
               6.80308869                3.07809938               56.20142014                0.72292287               -0.07098069               -0.07086783                0.23635899               -0.00005295                0.10110613                0.00078766
               7.80259303                3.07613090               56.07951642                0.72157753               -0.02813693               -0.02803198                0.09358753               -0.00000789                0.11058894                0.00036039
               8.80252595                3.07415392               55.95766142                0.72114983                0.01472078                0.01479910               -0.04920165               -0.00001689                0.11201953               -0.00025644
               9.80288745                3.07216800               55.83578358                0.72163928                0.05757739                0.05764073               -0.19200622               -0.00006000                0.10537535               -0.00102615
              10.80367750                3.07017280               55.71381144                0.72304620                0.10042241                0.10050934               -0.33482651               -0.00013050                0.09066494               -0.00191552
              11.80489590                3.06816816               55.59167361                0.72537945                0.14323860                0.14344507               -0.47765922               -0.00020653                0.06789764               -0.00286960
              12.80654227                3.06615456               55.46929880                0.72865257                0.18602651                0.18645885               -0.62049161               -0.00017878                0.03707553               -0.00381178
              13.80861643                3.06413323               55.34661566                0.86565415                0.20741522                0.22943513               -0.76329456                0.00034392                0.01718066               -0.00470160
               3.80886483                4.08196170               56.56595609                0.86581815               -0.17697261               -0.19881966                0.66166953               -0.00047220                0.01354166                0.00786272
               4.80709510                4.08044883               56.44319319                0.72867095               -0.15560247               -0.15592105                0.51889172               -0.00009719                0.04461940                0.00507210
               5.80575278                4.07892617               56.32097574                0.72519099               -0.11285998               -0.11295305                0.37621188               -0.00012760                0.08455238                0.00338324
               6.80483790                4.07739482               56.19895381                0.72291853               -0.07008466               -0.07003283                0.23346471               -0.00009590                0.10230734                0.00206559
               7.80435109                4.07585492               56.07705218                0.72157277               -0.02726084               -0.02716381                0.09068349               -0.00007809                0.11174644                0.00093002
               8.80429269                4.07430634               55.95519821                0.72114682                0.01558702                0.01568396               -0.05211846               -0.00008476                0.11302761               -0.00021059
               9.80466283                4.07274892               55.83331986                0.72163673                0.05843815                0.05854018               -0.19493713               -0.00010621                0.10619564               -0.00147457
              10.80546145                4.07118256               55.71134538                0.72304578                0.10127865                0.10142994               -0.33777125               -0.00013281                0.09127980               -0.00295391
              11.80668840                4.06960733               55.58920330                0.72538079                0.14410242                0.14436749               -0.48061569               -0.00014122                0.06830367               -0.00472317
              12.80834350                4.06802351               55.46682235                0.72865523                0.18691417                0.18733236               -0.62345555               -0.00009906                0.03727658               -0.00684056
              13.81042668                4.06643157               55.34413123                0.86565672                0.20831850                0.23025842               -0.76626022                0.00039234                0.01727078               -0.00934289
               3.81015870                5.07997801               56.56350472                0.86581625               -0.17610531               -0.19793544                0.65877417               -0.00044397                0.01389965                0.01242056
               4.80839765                5.07889395               56.44072539                0.72866685               -0.15472997               -0.15505303                0.51599427               -0.00002658                0.04562358                0.00795249
               5.80706410                5.07780082               56.31850479                0.72518778               -0.11198134               -0.11209593                0.37331333               -0.00006205                0.08645514                0.00519179
               6.80615802                5.07669872               56.19648478                0.72291540               -0.06920754               -0.06917038                0.23056263               -0.00009635                0.10457881                0.00310263
               7.80567995                5.07558762               56.07458777                0.72157064               -0.02638795               -0.02629132                0.08777520               -0.00012566                0.11416305                0.00140639
               8.80563026                5.07446760               55.95273900                0.72114524                0.01645743                0.01656392               -0.05503527               -0.00013964                0.11538943               -0.00016014
               9.80600910                5.07333880               55.83086455                0.72163727                0.05930845                0.05942628               -0.19786380               -0.00013439                0.10833023               -0.00183547
              10.80681643                5.07220139               55.70889110                0.72304655                0.10215125                0.10232066               -0.34070768               -0.00010988                0.09303830               -0.00383684
              11.80805213                5.07105551               55.58674578                0.72538295                0.14498087                0.14525584               -0.48356076               -0.00007137                0.06955745               -0.00637226
              12.80971605                5.06990120               55.46435614                0.72865954                0.18780090                0.18820914               -0.62640654               -0.00003136                0.03792794               -0.00962737
              13.81180814                5.06873839               55.34165011                0.86565853                0.20920940                0.23112400               -0.76921361                0.00042898                0.01759157               -0.01373221
               3.81102409                6.07800299               56.56105192                0.86581385               -0.17523223               -0.19708881                0.65587146               -0.00041337                0.01444095                0.01589193
               4.80927177                6.07734777               56.43824874                0.72866331               -0.15386633               -0.15417619                0.51308703                0.00004735                0.04716873                0.00979389
               5.80794676                6.07668425               56.31602476                0.72518605               -0.11112938               -0.11119573                0.37040650                0.00000452                0.08940379                0.00623667
               6.80704918                6.07601142               56.19400935                0.72291472               -0.06835298               -0.06827507                0.22765451               -0.00009756                0.10814650                0.00366039
               7.80657970                6.07532910               56.07212171                0.72157104               -0.02552317               -0.02540906                0.08486398               -0.00017153                0.11803159                0.00166548
               8.80653871                6.07463762               55.95028393                0.72114751                0.01733201                0.01743763               -0.05795156               -0.00019053                0.11925735               -0.00011520
               9.80692634                6.07393744               55.82841921                0.72163887                0.06019135                0.06029393               -0.20078625               -0.00015925                0.11191475               -0.00200788
              10.80774254                6.07322898               55.70645146                0.72304974                0.10304116                0.10318206               -0.34363662               -0.00008643                0.09606352               -0.00433515
              11.80898716                6.07251245               55.58430507                0.72538727                0.14587234                0.14611874               -0.48649578               -0.00000058                0.07175854               -0.00744615
              12.81065999                6.07178769               55.46190504                0.72866425                0.18868573                0.18909126               -0.62934605                0.00003949                0.03908667               -0.01169236
              13.81276088                6.07105405               55.33917749                0.86566089                0.21008910                0.23202979               -0.77215696                0.00046910                0.01817415               -0.01734458
               3.81146087                7.07603624               56.55858502                0.86581176               -0.17435360               -0.19630391                0.65295956               -0.00036336                0.01523509                0.01780288
               4.80971734                7.07581042               56.43575130                0.72866018               -0.15301604               -0.15327070                0.51016805                0.00013347                0.04944379                0.01017714
               5.80840055                7.07557691               56.31352676                0.72518481               -0.11030538               -0.11024387                0.36749023                0.00003850                0.09372228                0.00623100
               6.80751123                7.07533322               56.19152202                0.72291625               -0.06751160               -0.06736040                0.22474027               -0.00014298                0.11333090                0.00359101
               7.80705032                7.07507944               56.06965151                0.72157506               -0.02465608               -0.02452921                0.08195010               -0.00023130                0.12363284                0.00163626
               8.80701811                7.07481635               55.94783312                0.72115245                0.01821203                0.01830482               -0.06086685               -0.00024021                0.12488452               -0.00007392
               9.80741456                7.07454468               55.82598642                0.72164509                0.06107971                0.06115112               -0.20370415               -0.00018993                0.11720348               -0.00190196
              10.80823970                7.07426504               55.70403167                0.72305501                0.10394202                0.10402150               -0.34655785               -0.00008371                0.10061905               -0.00422927
              11.80949340                7.07397789               55.58188903                0.72539204                0.14677670                0.14694989               -0.48941991                0.00006008                0.07514468               -0.00754107
              12.81117524                7.07368303               55.45947901                0.72866881                0.18957018                0.18997023               -0.63227421                0.00012609                0.04089770               -0.01245670
              13.81328480                7.07337899               55.33672410                0.86566330                0.21095688                0.23299527               -0.77509165                0.00052827                0.01909802               -0.01952338
               3.81146845                8.07407691               56.55608584                0.86581003               -0.17346865               -0.19566212                0.65003311               -0.00027168                0.01642112                0.01749847
               4.80973377                8.07428236               56.43321623                0.72865824               -0.15218613               -0.15225219                0.50723286                0.00018170                0.05277329                0.00845791
               5.80842473                8.07447938               56.31099907                0.72518684               -0.10949904               -0.10926083                0.36456238               -0.00006200                0.09992034                0.00498668
               6.80754379                8.07466421               56.18901616                0.72292151               -0.06663907               -0.06648297                0.22181862               -0.00023932                0.12057403                0.00285660
               7.80709195                8.07483851               56.06717428                0.72158173               -0.02375575               -0.02366705                0.07903298               -0.00027792                0.13130811                0.00130661
               8.80706867                8.07500372               55.94538675                0.72116081                0.01909537                0.01916793               -0.06378108               -0.00025627                0.13258299               -0.00003302
               9.80747386                8.07516047               55.82356954                0.72165403                0.06194947                0.06201451               -0.20661653               -0.00020999                0.12454913               -0.00147872
              10.80830766                8.07530941               55.70163898                0.72306436                0.10482589                0.10487014               -0.34946887               -0.00011373                0.10714233               -0.00338492
              11.80957037                8.07545145               55.57950976                0.72539894                0.14768729                0.14775125               -0.49233048                0.00005908                0.08017664               -0.00627254
              12.81126141                8.07558710               55.45709449                0.72867403                0.19045727                0.19080133               -0.63518782                0.00021594                0.04367356               -0.01109698
              13.81337952                8.07571396               55.33430828                0.86566635                0.21181136                0.23407930               -0.77801352                0.00062727                0.02055256               -0.01928944
               3.81104455                9.07212300               56.55352858                0.86580791               -0.17260380               -0.19531590                0.64708676               -0.00031588                0.01809972                0.01291732
               4.80931851                9.07276538               56.43061871                0.72865710               -0.15135419               -0.15103790                0.50427560               -0.00000716                0.05782135                0.00432578
               5.80801746                9.07339169               56.30842906                0.72519008               -0.10856014               -0.10846908                0.36161974               -0.00021630                0.10893123                0.00274751
               6.80714730                9.07400356               56.18648549                0.72292890               -0.06561043               -0.06566023                0.21888757               -0.00027354                0.13036972                0.00157314
               7.80670525                9.07460610               56.06468729                0.72159352               -0.02281384               -0.02282256                0.07611134               -0.00021177                0.14137768                0.00072542
               8.80669103                9.07519971               55.94294501                0.72117378                0.01997082                0.02003533               -0.06669422               -0.00018172                0.14265597               -0.00000351
               9.80710467                9.07578497               55.82117194                0.72166722                0.06277096                0.06289915               -0.20952207               -0.00015799                0.13433563               -0.00079689
              10.80794645                9.07636244               55.69928127                0.72307581                0.10561115                0.10576087               -0.35236733               -0.00012889                0.11624138               -0.00187189
              11.80921689                9.07693291               55.57718278                0.72540911                0.14852968                0.14862541               -0.49522313               -0.00000533                0.08778386               -0.00358254
              12.81091704                9.07749905               55.45477790                0.72867988                0.19133661                0.19152737               -0.63807854                0.00019275                0.04815935               -0.00670161
              13.81304362                9.07806058               55.33196039                0.86566835                0.21265840                0.23539249               -0.78091216                0.00062868                0.02293557               -0.01406702
               3.81017737               10.07017060               56.55085373                0.93290340               -0.17124413               -0.19523995                0.64410507                0.02238315                0.02395161                0.01123657
               4.80846493               10.07126160               56.42793579                0.86432858               -0.14975756               -0.15037757                0.50129071                0.02161213                0.06723482                0.00328803
               5.80718222               10.07230999               56.30580988                0.86259807               -0.10705115               -0.10816948                0.35865785                0.02094591                0.12167675                0.00261077
               6.80632391               10.07335100               56.18392567                0.86146915               -0.06453252               -0.06525578                0.21594284                0.02126358                0.14295882                0.00151189
               7.80589157               10.07438206               56.06218860                0.86080240               -0.02188706               -0.02240354                0.07318277                0.02130255                0.15405484                0.00061417
               8.80588617               10.07540442               55.94050786                0.86059250                0.02081982                0.02047167               -0.06960698                0.02133314                0.15530697               -0.00022436
               9.80630797               10.07641845               55.81879579                0.86083959                0.06354874                0.06334814               -0.21241941                0.02133968                0.14685577               -0.00109832
              10.80715714               10.07742462               55.69696440                0.86154292                0.10628429                0.10621870               -0.35524966                0.02134453                0.12846648               -0.00212779
              11.80843365               10.07842395               55.57492133                0.86270904                0.14902278                0.14910436               -0.49809093                0.02132687                0.09940298               -0.00352801
              12.81013760               10.07941764               55.45256387                0.86434300                0.19176988                0.19185903               -0.64093320                0.02194823                0.05719844               -0.00571681
              13.81226905               10.08042181               55.32975034                0.93283528                0.21314532                0.23612329               -0.78376413                0.02295890                0.02979225               -0.01227284
               3.92301110                0.09237590               57.58243108                0.93286824               -0.17613826               -0.19864100                0.65865582               -0.02257647                0.01976136               -0.00501304
               4.92124972                0.08914441               57.45830494                0.86433036               -0.15522054               -0.15502669                0.51896138               -0.02133665                0.04665142               -0.00479286
               5.91990669                0.08592887               57.33463888                0.86264332               -0.11347545               -0.11345430                0.37934953               -0.02075775                0.08424861               -0.00196781
               6.91898021                0.08270575               57.21120546                0.86149372               -0.07177971               -0.07150524                0.23972665               -0.02090048                0.10474681               -0.00110252
               7.91847110                0.07947507               57.08790855                0.86081197               -0.03000813               -0.02960109                0.10009139               -0.02091932                0.11555854               -0.00045708
               8.91838005                0.07623574               56.96466900                0.86059392                0.01180858                0.01231535               -0.03955504               -0.02093643                0.11769803                0.00007257
               9.91870727                0.07298746               56.84141101                0.86083873                0.05363873                0.05423273               -0.17921410               -0.02093778                0.11139603                0.00055946
              10.91945282                0.06972990               56.71806004                0.86154810                0.09546246                0.09614472               -0.31888784               -0.02094328                0.09669445                0.00104895
              11.92061652                0.06646207               56.59454113                0.86272457                0.13728530                0.13809079               -0.45857698               -0.02090130                0.07347239                0.00159837
              12.92219853                0.06318339               56.47077732                0.86437498                0.17905365                0.17983385               -0.59827863               -0.02144410                0.04111464                0.00224905
              13.92419759                0.05987861               56.34668134                0.93285820                0.19990622                0.22333579               -0.73799116               -0.02148916                0.02007989                0.00409592
               3.92601682                1.09038949               57.57999203                0.86566043               -0.17569509               -0.19784729                0.65585784               -0.00053584                0.01601016               -0.00374851
               4.92425987                1.08759415               57.45584574                0.72849808               -0.15491857               -0.15474312                0.51615729               -0.00011413                0.04420979               -0.00460012
               5.92291845                1.08479432               57.33218592                0.72515020               -0.11308829               -0.11293217                0.37654232                0.00003750                0.08213485               -0.00153675
               6.92199810                1.08199069               57.20873898                0.72291656               -0.07107699               -0.07105342                0.23690434                0.00011858                0.10151370               -0.00058897
               7.92149691                1.07917906               57.08542619                0.72159355               -0.02918057               -0.02916149                0.09725288                0.00007786                0.11212253               -0.00024730
               8.92141449                1.07635889               56.96216942                0.72117123                0.01269514                0.01274341               -0.04240991                0.00005159                0.11414429               -0.00017125
               9.92175081                1.07352978               56.83889357                0.72164799                0.05457967                0.05465283               -0.18208553                0.00003140                0.10778176               -0.00020700
              10.92250609                1.07069134               56.71552457                0.72302729                0.09649727                0.09656292               -0.32177611                0.00000918                0.09306780               -0.00024780
              11.92368076                1.06784297               56.59198799                0.72531584                0.13848659                0.13848677               -0.46148223               -0.00012263                0.06987793               -0.00017050
              12.92527582                1.06498173               56.46820728                0.72852778                0.18033644                0.18045635               -0.60120043               -0.00017269                0.03809791                0.00024122
              13.92728749                1.06211197               56.34410578                0.86556794                0.20116688                0.22337149               -0.74091866                0.00046509                0.01760364                0.00174702
               3.92859106                2.08841895               57.57749059                0.86558436               -0.17484620               -0.19648999                0.65305250               -0.00058509                0.01299640               -0.00253643
               4.92684260                2.08604955               57.45332199                0.72833588               -0.15400838               -0.15412677                0.51335235               -0.00023569                0.04376271               -0.00321810
               5.92551090                2.08367022               57.32969157                0.72501358               -0.11223784               -0.11205020                0.37375602               -0.00008795                0.08311588               -0.00129515
               6.92459785                2.08128468               57.20625131                0.72284524               -0.07032191               -0.07017549                0.23410284                0.00004979                0.10083709               -0.00035755
               7.92410446                2.07889184               57.08293509                0.72156042               -0.02837436               -0.02829107                0.09442803                0.00007299                0.11070624               -0.00013939
               8.92403036                2.07649061               56.95967055                0.72115230                0.01354930                0.01360460               -0.04526035                0.00004558                0.11239222               -0.00027636
               9.92437544                2.07408051               56.83638493                0.72161868                0.05547293                0.05550977               -0.18496255                0.00000405                0.10589306               -0.00058936
              10.92513982                2.07166115               56.71300582                0.72295974                0.09741168                0.09742763               -0.32468030               -0.00007679                0.09121940               -0.00094704
              11.92632368                2.06923180               56.58946068                0.72518426                0.13931334                0.13938068               -0.46441227               -0.00020610                0.06835341               -0.00119349
              12.92792608                2.06679252               56.46567674                0.72830661                0.18113745                0.18153849               -0.60415018               -0.00027795                0.03732963               -0.00105993
              13.92994643                2.06434604               56.34158213                0.86542056                0.20203432                0.22374489               -0.74386905                0.00024299                0.01732147               -0.00027286
               3.93074392                3.08645969               57.57498881                0.86558178               -0.17400316               -0.19545131                0.65023510               -0.00050523                0.01335412                0.00249993
               4.92900388                3.08451161               57.45082229                0.72833006               -0.15311758               -0.15338972                0.51053966               -0.00017298                0.04409886                0.00156328
               5.92768156                3.08255332               57.32719390                0.72500781               -0.11132022               -0.11131085                0.37094245               -0.00016181                0.08356521                0.00106129
               6.92677748                3.08058718               57.20375840                0.72283743               -0.06945617               -0.06934598                0.23128268               -0.00005201                0.10117322                0.00081143
               7.92629244                3.07861324               57.08044235                0.72155360               -0.02753735               -0.02743491                0.09159351               -0.00000808                0.11063698                0.00037504
               8.92622673                3.07663098               56.95717484                0.72114618                0.01439510                0.01447151               -0.04811275               -0.00001697                0.11205229               -0.00025402
               9.92658034                3.07463998               56.83388435                0.72161176                0.05632640                0.05638833               -0.18783434               -0.00005915                0.10539028               -0.00103735
              10.92735326                3.07263990               56.71049939                0.72295550                0.09824632                0.09833156               -0.32757128               -0.00012810                0.09066049               -0.00193979
              11.92854527                3.07063059               56.58694863                0.72518276                0.14013803                0.14034037               -0.46732026               -0.00020235                0.06787848               -0.00290522
              12.93015602                3.06861250               56.46316089                0.72830868                0.18200213                0.18242534               -0.60706863               -0.00017481                0.03705864               -0.00385298
              13.93218531                3.06658686               56.33906510                0.86542205                0.20292905                0.22447366               -0.74678828                0.00033668                0.01716242               -0.00474007
               3.93247711                4.08450992               57.57250163                0.86557927               -0.17315981               -0.19453519                0.64741087               -0.00046186                0.01355321                0.00789084
               4.93074551                4.08298176               57.44832633                0.72832554               -0.15225100               -0.15256287                0.50771564               -0.00009529                0.04469407                0.00509883
               5.92943209                4.08144400               57.32469746                0.72500357               -0.11043130               -0.11052258                0.36811647               -0.00012514                0.08465328                0.00340818
               6.92853688                4.07989776               57.20126344                0.72283280               -0.06857956               -0.06852906                0.22845117               -0.00009402                0.10236557                0.00208575
               7.92806050                4.07834314               57.07794938                0.72154848               -0.02668026               -0.02658561                0.08875270               -0.00007659                0.11178195                0.00094214
               8.92800328                4.07678004               56.95468279                0.72114212                0.01524247                0.01533713               -0.05096610               -0.00008315                0.11304555               -0.00020934
               9.92836535                4.07520828               56.83139163                0.72160948                0.05716832                0.05726824               -0.19070160               -0.00010411                0.10619551               -0.00148523
              10.92914665                4.07362779               56.70800420                0.72295517                0.09908391                0.09923211               -0.33045203               -0.00013010                0.09126118               -0.00297619
              11.93034703                4.07203861               56.58444907                0.72518503                0.14098325                0.14124274               -0.47021268               -0.00013834                0.06827291               -0.00475581
              12.93196631                4.07044103               56.46065510                0.72831147                0.18287061                0.18327989               -0.60996855               -0.00009704                0.03725357               -0.00687996
              13.93400444                4.06883551               56.33655133                0.86542459                0.20381266                0.22527897               -0.74968904                0.00038375                0.01724975               -0.00938398
               3.93379101                5.08256898               57.57002162                0.86557686               -0.17231144               -0.19367030                0.64457866               -0.00043432                0.01391194                0.01245663
               4.93206790                5.08146035               57.44582987                0.72832172               -0.15139756               -0.15171382                0.50488146               -0.00002602                0.04569905                0.00798174
               5.93076306                5.08034287               57.32219784                0.72499995               -0.10957181               -0.10968414                0.36528121               -0.00006078                0.08655583                0.00521703
               6.92987646                5.07921660               57.19876570                0.72283072               -0.06772148               -0.06768539                0.22561237               -0.00009428                0.10463436                0.00312203
               7.92940863                5.07808153               57.07545621                0.72154704               -0.02582638               -0.02573211                0.08590775               -0.00012293                0.11419330                0.00141759
               8.92935993                5.07693772               56.95219472                0.72114082                0.01609391                0.01619800               -0.05381956               -0.00013664                0.11540026               -0.00015930
               9.92973051                5.07578534               56.82890738                0.72160975                0.05801976                0.05813508               -0.19356457               -0.00013145                0.10832219               -0.00184596
              10.93052033                5.07462454               56.70552088                0.72295636                0.09993756                0.10010342               -0.33332442               -0.00010738                0.09301217               -0.00385902
              11.93172926                5.07345544               56.58196241                0.72518693                0.14184245                0.14211161               -0.47309314               -0.00006998                0.06952122               -0.00640483
              12.93335718                5.07227810               56.45815971                0.72831494                0.18373796                0.18413752               -0.61285498               -0.00003126                0.03790233               -0.00966836
              13.93540402                5.07109244               56.33404100                0.86542575                0.20468422                0.22612575               -0.75257851                0.00041924                0.01756956               -0.01377992
               3.93468568                6.08063652               57.56754010                0.86557565               -0.17145727               -0.19284186                0.64173864               -0.00040440                0.01445409                0.01593590
               4.93297111                6.07994748               57.44332447                0.72831861               -0.15055266               -0.15085587                0.50203714                0.00004646                0.04724750                0.00982510
               5.93167463                6.07925032               57.31968906                0.72499951               -0.10873835               -0.10880346                0.36243737                0.00000455                0.08950957                0.00626264
               6.93079634                6.07854405               57.19626151                0.72283060               -0.06688547               -0.06680957                0.22276747               -0.00009533                0.10820522                0.00367978
               7.93033692                6.07782850               57.07296135                0.72154790               -0.02498046               -0.02486903                0.08305983               -0.00016766                0.11806284                0.00167639
               8.93029673                6.07710400               56.94971080                0.72114274                0.01694941                0.01705269               -0.05667237               -0.00018618                0.11926766               -0.00011437
               9.93067590                6.07637098               56.82643312                0.72161252                0.05888346                0.05898384               -0.19642347               -0.00015555                0.11190542               -0.00201822
              10.93147440                6.07562985               56.70305226                0.72295955                0.10080800                0.10094608               -0.33618957               -0.00008446                0.09603634               -0.00435720
              11.93269206                6.07488084               56.57949267                0.72519113                0.14271425                0.14295565               -0.47596386               -0.00000077                0.07172223               -0.00747933
              12.93432868                6.07412378               56.45567954                0.72831876                0.18460358                0.18500054               -0.61573080                0.00003826                0.03906163               -0.01173646
              13.93638414                6.07335803               56.33153926                0.86542909                0.20554517                0.22701226               -0.75545943                0.00045874                0.01815300               -0.01740056
               3.93516100                7.07871215               57.56504440                0.86557348               -0.17059753               -0.19207385                0.63888943               -0.00035548                0.01525008                0.01785114
               4.93345502                7.07844324               57.44079815                0.72831620               -0.14972077               -0.14996993                0.49918130                0.00013055                0.04952940                0.01020714
               5.93216658                7.07816680               57.31716222                0.72499768               -0.10793236               -0.10787231                0.35958467                0.00003757                0.09383911                0.00625557
               6.93129638                7.07788041               57.19374536                0.72283199               -0.06606250               -0.06591483                0.21991672               -0.00013994                0.11339907                0.00360928
               7.93084533                7.07758415               57.07046233                0.72155179               -0.02413227               -0.02400834                0.08020932               -0.00022614                0.12367188                0.00164673
               8.93081373                7.07727878               56.94723115                0.72114794                0.01781032                0.01790098               -0.05952425               -0.00023464                0.12490127               -0.00007291
               9.93120154                7.07696502               56.82397148                0.72161847                0.05975244                0.05982234               -0.19927765               -0.00018550                0.11719954               -0.00191128
              10.93200878                7.07664346               56.70060358                0.72296484                0.10168914                0.10176724               -0.33904690               -0.00008194                0.10059678               -0.00424960
              11.93323532                7.07631455               56.57704771                0.72519576                0.14359893                0.14376887               -0.47882461                0.00005874                0.07511295               -0.00757313
              12.93488076                7.07597811               56.45322454                0.72832369                0.18546886                0.18586054               -0.61859557                0.00012367                0.04087586               -0.01250217
              13.93694470                7.07563269               56.32905685                0.86543143                0.20639413                0.22795686               -0.75833050                0.00051708                0.01907902               -0.01958588
               3.93521639                8.07679504               57.56251628                0.86557173               -0.16973206               -0.19144625                0.63602733               -0.00026587                0.01643919                0.01754555
               4.93351907                8.07694808               57.43823405                0.72831326               -0.14890911               -0.14897357                0.49631037                0.00017741                0.05286981                0.00848125
               5.93223820                8.07709288               57.31460556                0.72499916               -0.10714365               -0.10691077                0.35672067               -0.00006101                0.10005565                0.00500683
               6.93137619                8.07722575               57.19121059                0.72283667               -0.06520891               -0.06505661                0.21705877               -0.00023413                0.12065965                0.00287222
               7.93093403                8.07734833               57.06795624                0.72155867               -0.02325144               -0.02316501                0.07735574               -0.00027160                0.13136283                0.00131574
               8.93091116                8.07746201               56.94475596                0.72115603                0.01867439                0.01874530               -0.06237505               -0.00025027                0.13261400               -0.00003182
               9.93130751                8.07756743               56.82152579                0.72162694                0.06060311                0.06066694               -0.20212651               -0.00020506                0.12455861               -0.00148619
              10.93212323                8.07766520               56.69818210                0.72297304                0.10255379                0.10259746               -0.34189449               -0.00011108                0.10713235               -0.00340153
              11.93335859                8.07775622               56.57463965                0.72520178                0.14448995                0.14455305               -0.48167257                0.00005812                0.08015509               -0.00629949
              12.93501302                8.07784099               56.45081120                0.72832929                0.18633669                0.18667365               -0.62144586                0.00021181                0.04365790               -0.01113764
              13.93708532                8.07791716               56.32661212                0.86543278                0.20722981                0.22901705               -0.76118775                0.00061401                0.02053694               -0.01935114
               3.93484960                9.07488322               57.55992987                0.86556957               -0.16888618               -0.19110791                0.63314543               -0.00030921                0.01812217                0.01295218
               4.93316074                9.07546377               57.43560728                0.72831356               -0.14809534               -0.14778543                0.49341743               -0.00000749                0.05793475                0.00433674
               5.93188769                9.07602858               57.31200644                0.72500274               -0.10622507               -0.10613643                0.35384189               -0.00021182                0.10909482                0.00276029
               6.93103624                9.07657928               57.18865094                0.72284608               -0.06420261               -0.06425181                0.21419143               -0.00026739                0.13048114                0.00158333
               7.93060364                9.07712085               57.06544035                0.72156936               -0.02233016               -0.02233886                0.07449767               -0.00020680                0.14145649                0.00073123
               8.93058963                9.07765368               56.94228541                0.72116954                0.01953069                0.01959388               -0.06522483               -0.00017740                0.14271007               -0.00000249
               9.93099425                9.07817836               56.81909945                0.72164034                0.06140674                0.06153239               -0.20496892               -0.00015414                0.13436745               -0.00080137
              10.93181777                9.07869541               56.69579572                0.72298540                0.10332208                0.10346887               -0.34473011               -0.00012560                0.11625299               -0.00188218
              11.93306070                9.07920562               56.57228406                0.72521207                0.14531410                0.14540826               -0.48450242               -0.00000469                0.08778129               -0.00359918
              12.93472405                9.07971158               56.44846602                0.72833551                0.18719680                0.18738396               -0.62427340                0.00018902                0.04815567               -0.00672713
              13.93680463                9.08021303               56.32423556                0.86543614                0.20805820                0.23030134               -0.76402236                0.00061519                0.02292663               -0.01411161
               3.93404911               10.07297288               57.55722553                0.93278427               -0.16755572               -0.19103375                0.63022825                0.02190028                0.02399046                0.01126919
               4.93237355               10.07399237               57.43289483                0.86415636               -0.14653283               -0.14713919                0.49049712                0.02114485                0.06737738                0.00329753
               5.93111845               10.07497015               57.30935797                0.86250428               -0.10474865               -0.10584349                0.35094453                0.02049337                0.12187896                0.00262349
               6.93027858               10.07594072               57.18606199                0.86142657               -0.06314856               -0.06385613                0.21131084                0.02080497                0.14310494                0.00152121
               7.92985548               10.07690156               57.06291270                0.86078994               -0.02142393               -0.02192889                0.07163271                0.02084304                0.15416781                0.00061884
               8.92985010               10.07785389               56.93981945                0.86059039                0.02036112                0.02002077               -0.06807423                0.02087287                0.15539492               -0.00022413
               9.93026271               10.07879807               56.81669464                0.86082608                0.06216770                0.06197164               -0.20780320                0.02087937                0.14692086               -0.00110307
              10.93109346               10.07973458               56.69345034                0.86149774                0.10398076                0.10391675               -0.34754977                0.02088429                0.12851104               -0.00213790
              11.93234232               10.08066438               56.56999424                0.86261052                0.14579676                0.14587675               -0.48730763                0.02086708                0.09943268               -0.00354352
              12.93400939               10.08158867               56.44622375                0.86416988                0.18762072                0.18770845               -0.62706548                0.02147450                0.05722105               -0.00573895
              13.93609474               10.08252319               56.32199730                0.93271892                0.20853438                0.23101607               -0.76681172                0.02246253                0.02980401               -0.01231261
               4.04803353                0.09477878               58.58894495                0.93274826               -0.17224467               -0.19424911                0.64409269               -0.02207651                0.01979800               -0.00501750
               5.04631108                0.09156972               58.46343731                0.86415397               -0.15179034               -0.15160035                0.50749225               -0.02086383                0.04674310               -0.00479072
               6.04499772                0.08837624               58.33839056                0.86254510               -0.11096997               -0.11094927                0.37097269               -0.02029792                0.08438650               -0.00195650
               7.04409168                0.08517535               58.21357634                0.86144903               -0.07019761               -0.06992903                0.23444168               -0.02043776                0.10488071               -0.00109365
               8.04359377                0.08196708               58.08889852                0.86079890               -0.02935090               -0.02895284                0.09789875               -0.02045618                0.11568537               -0.00045167
               9.04350466                0.07875033               57.96427795                0.86059232                0.01153986                0.01203526               -0.03865500               -0.02047297                0.11781413                0.00007461
              10.04382456                0.07552484               57.83963880                0.86082533                0.05244368                0.05302449               -0.17522136               -0.02047433                0.11149656                0.00055812
              11.04455353                0.07229027               57.71490654                0.86150102                0.09334127                0.09400846               -0.31180209               -0.02047961                0.09677496                0.00104345
              12.04569139                0.06904567               57.59000617                0.86262285                0.13423817                0.13502567               -0.44839796               -0.02043851                0.07353019                0.00158889
              13.04723830                0.06579047               57.46486078                0.86419728                0.17508164                0.17584446               -0.58500627               -0.02096917                0.04114896                0.00223695
              14.04919302                0.06250974               57.33938311                0.93273834                0.19547238                0.21838293               -0.72162458               -0.02101311                0.02009382                0.00409196
               4.05102183                1.09283629               58.58647824                0.86542376               -0.17181145               -0.19347305                0.64135740               -0.00052374                0.01602970               -0.00374068
               5.04930371                1.09005371               58.46095039                0.72815392               -0.15149522               -0.15132338                0.50475082               -0.00011161                0.04428578               -0.00458609
               6.04799192                1.08726675               58.33590984                0.72496045               -0.11059137               -0.11043880                0.36822819                0.00003664                0.08225267               -0.00150588
               7.04709188                1.08447606               58.21108196                0.72283103               -0.06951028               -0.06948744                0.23168243                0.00011590                0.10162104               -0.00056369
               8.04660172                1.08167755               58.08638809                0.72156869               -0.02854163               -0.02852314                0.09512352                0.00007587                0.11222209               -0.00023227
               9.04652105                1.07887069               57.96175013                0.72116691                0.01240673                0.01245377               -0.04144612                0.00005014                0.11423293               -0.00016758
              10.04684985                1.07605508               57.83709297                0.72162219                0.05336366                0.05343521               -0.17802863                0.00003041                0.10785435               -0.00021495
              11.04758832                1.07323036               57.71234250                0.72293697                0.09435289                0.09441737               -0.31462596                0.00000870                0.09312010               -0.00026792
              12.04873691                1.07039593               57.58742430                0.72511866                0.13541234                0.13541292               -0.45123834               -0.00012005                0.06990810               -0.00020223
              13.05029657                1.06754891               57.46226185                0.72818114                0.17633551                0.17645316               -0.58786263               -0.00016870                0.03811042                0.00020192
              14.05226362                1.06469357               57.33677861                0.86533495                0.19670471                0.21841760               -0.72448669                0.00045497                0.01760117                0.00171486
               4.05358821                2.09090932               58.58394907                0.86535048               -0.17098163               -0.19214610                0.63861551               -0.00057202                0.01300843               -0.00252318
               5.05187839                2.08854325               58.45839890                0.72799825               -0.15060521               -0.15072115                0.50200873               -0.00023064                0.04384024               -0.00319627
               6.05057610                2.08616747               58.33338795                0.72483104               -0.10975962               -0.10957650                0.36550386               -0.00008617                0.08322764               -0.00125838
               7.04968320                2.08378561               58.20856659                0.72276194               -0.06877195               -0.06862923                0.22894358                0.00004857                0.10091755               -0.00032534
               8.04920066                2.08139662               58.08386906                0.72153794               -0.02775335               -0.02767226                0.09236188                0.00007103                0.11077357               -0.00011960
               9.04912813                2.07899941               57.95922308                0.72114885                0.01324184                0.01329574               -0.04423304                0.00004409                0.11244714               -0.00027203
              10.04946550                2.07659354               57.83455588                0.72159284                0.05423691                0.05427306               -0.18084148                0.00000356                0.10593130               -0.00060135
              11.05021287                2.07417862               57.70979503                0.72287132                0.09524684                0.09526278               -0.31746504               -0.00007542                0.09123738               -0.00097535
              12.05137044                2.07175393               57.58486801                0.72499194                0.13622063                0.13628697               -0.45410305               -0.00020169                0.06835309               -0.00123660
              13.05293728                2.06931953               57.45970215                0.72797060                0.17711852                0.17751113               -0.59074625               -0.00027173                0.03732444               -0.00111145
              14.05491281                2.06687809               57.33422580                0.86519444                0.19755258                0.21878240               -0.72737046                0.00023755                0.01731083               -0.00031841
               4.05574253                3.08899337               58.58141942                0.86534799               -0.17015741               -0.19113060                0.63586078               -0.00049382                0.01336687                0.00251883
               5.05404095                3.08703929               58.45587139                0.72799279               -0.14973432               -0.15000061                0.49925897               -0.00016903                0.04417414                0.00158794
               6.05274784                3.08507522               58.33086245                0.72482419               -0.10886245               -0.10885363                0.36275309               -0.00015840                0.08366887                0.00108741
               7.05186370                3.08310348               58.20604580                0.72275464               -0.06792546               -0.06781817                0.22618619               -0.00005111                0.10123890                0.00083443
               8.05138933                3.08112410               58.08134829                0.72152940               -0.02693503               -0.02683524                0.08959080               -0.00000826                0.11068392                0.00038949
               9.05132500                3.07913660               57.95669916                0.72114165                0.01406877                0.01414333               -0.04702188               -0.00001709                0.11208416               -0.00025162
              10.05167071                3.07714055               57.83202689                0.72158645                0.05507139                0.05513205               -0.18364931               -0.00005825                0.10540484               -0.00104832
              11.05242643                3.07513561               57.70726001                0.72286776                0.09606288                0.09614651               -0.32029153               -0.00012538                0.09065594               -0.00196394
              12.05359197                3.07312166               57.58232721                0.72499175                0.13702696                0.13722515               -0.45694604               -0.00019786                0.06785948               -0.00294007
              13.05516697                3.07109913               57.45715743                0.72797237                0.17796398                0.17837803               -0.59359969               -0.00017121                0.03704249               -0.00389357
              14.05715125                3.06906922               57.33167990                0.86519577                0.19842738                0.21949495               -0.73022444                0.00032884                0.01714549               -0.00477836
               4.05748649                4.08708671               58.57890431                0.86534604               -0.16933269               -0.19023479                0.63309891               -0.00045149                0.01356557                0.00791873
               5.05579316                4.08554324               58.45334750                0.72798872               -0.14888706               -0.14919215                0.49649789               -0.00009313                0.04476755                0.00512548
               6.05450874                4.08399039               58.32833807                0.72482048               -0.10799349               -0.10808297                0.35999036               -0.00012246                0.08475189                0.00343289
               7.05363329                4.08242924               58.20352283                0.72275035               -0.06706844               -0.06701945                0.22341789               -0.00009212                0.10242264                0.00210552
               8.05316738                4.08085991               58.07882724                0.72152593               -0.02609711               -0.02600482                0.08681330               -0.00007508                0.11181680                0.00095394
               9.05311135                4.07928228               57.95417889                0.72113741                0.01489723                0.01498967               -0.04981161               -0.00008149                0.11306289               -0.00020812
              10.05346532                4.07769618               57.82950583                0.72158447                0.05589469                0.05599232               -0.18645255               -0.00010199                0.10619478               -0.00149582
              11.05422924                4.07610155               57.70473634                0.72286660                0.09688193                0.09702700               -0.32310841               -0.00012726                0.09124266               -0.00299832
              12.05540296                4.07449843               57.57979905                0.72499359                0.13785316                0.13810719               -0.45977348               -0.00013535                0.06824322               -0.00478735
              13.05698630                4.07288709               57.45462298                0.72797440                0.17881291                0.17921337               -0.59643439               -0.00009534                0.03723170               -0.00691813
              14.05897922                4.07126799               57.32913745                0.86519754                0.19929131                0.22028246               -0.73306156                0.00037472                0.01723029               -0.00942433
               4.05882044                5.08518867               58.57639630                0.86534389               -0.16850336               -0.18938928                0.63033027               -0.00042467                0.01392385                0.01249242
               5.05713541                5.08405545               58.45082302                0.72798503               -0.14805268               -0.14836207                0.49372711               -0.00002560                0.04577280                0.00801058
               6.05585939                5.08291356               58.32581042                0.72481750               -0.10715316               -0.10726323                0.35721839               -0.00005959                0.08665410                0.00524192
               7.05499234                5.08176309               58.20099702                0.72274853               -0.06622951               -0.06619454                0.22064235               -0.00009235                0.10468833                0.00314092
               8.05453480                5.08060401               58.07630593                0.72152426               -0.02526223               -0.02517030                0.08403169               -0.00012031                0.11422253                0.00142838
               9.05448710                5.07943639               57.95166261                0.72113736                0.01572970                0.01583132               -0.05260140               -0.00013358                0.11541035               -0.00015854
              10.05484939                5.07826039               57.82699326                0.72158465                0.05672704                0.05683978               -0.18925161               -0.00012854                0.10831388               -0.00185638
              11.05562164                5.07707615               57.70222461                0.72286768                0.09771642                0.09787881               -0.32591652               -0.00010526                0.09298696               -0.00388026
              12.05680372                5.07588381               57.57728391                0.72499534                0.13869313                0.13895659               -0.46258940               -0.00006884                0.06948620               -0.00643607
              13.05839550                5.07468340               57.45209904                0.72797840                0.17966096                0.18005184               -0.59925634               -0.00003075                0.03787725               -0.00970881
              14.06039694                5.07347487               57.32659854                0.86519916                0.20014355                0.22111042               -0.73588700                0.00040995                0.01754817               -0.01382820
               4.05974444                6.08329892               58.57388669                0.86534210               -0.16766828               -0.18857940                0.62755376               -0.00039552                0.01446732                0.01597816
               5.05806776                6.08257600               58.44828949                0.72798252               -0.14722668               -0.14752328                0.49094621                0.00004527                0.04732470                0.00985513
               6.05679991                6.08184513               58.32327351                0.72481553               -0.10633836               -0.10640213                0.35443794                0.00000431                0.08961266                0.00628756
               7.05594099                6.08110535               58.19846470                0.72274768               -0.06541221               -0.06533824                0.21786089               -0.00009336                0.10826229                0.00369837
               8.05549167                6.08035650               58.07378290                0.72152447               -0.02443512               -0.02432648                0.08124726               -0.00016405                0.11809336                0.00168697
               9.05545229                6.07959890               57.94915048                0.72113923                0.01656617                0.01666694               -0.05539053               -0.00018205                0.11927741               -0.00011355
              10.05582299                6.07883298               57.82449074                0.72158690                0.05757136                0.05766959               -0.19204657               -0.00015213                0.11189607               -0.00202814
              11.05660372                6.07805913               57.69972767                0.72287042                0.09856729                0.09870262               -0.32871751               -0.00008291                0.09601019               -0.00437816
              12.05779433                6.07727756               57.57478579                0.72499827                0.13954563                0.13978201               -0.46539661               -0.00000112                0.07168642               -0.00751150
              13.05939463                6.07648813               57.44959042                0.72798222                0.18050755                0.18089593               -0.60206898                0.00003744                0.03903571               -0.01178007
              14.06140449                6.07569020               57.32406830                0.86520159                0.20098550                0.22197733               -0.73870388                0.00044881                0.01813037               -0.01745667
               4.06025839                7.08141709               58.57136281                0.86533993               -0.16682771               -0.18782847                0.62476811               -0.00034765                0.01526555                0.01789803
               5.05859011                7.08110498               58.44573492                0.72797961               -0.14641335               -0.14665700                0.48815382                0.00012767                0.04961339                0.01023628
               6.05733012                7.08078552               58.32071846                0.72481418               -0.10555039               -0.10549172                0.35164875                0.00003676                0.09395330                0.00627976
               7.05647910                7.08045633               58.19592036                0.72274923               -0.06460766               -0.06446357                0.21507399               -0.00013684                0.11346590                0.00362740
               8.05603797                7.08011748               58.07125570                0.72152817               -0.02360588               -0.02348506                0.07846043               -0.00022104                0.12371040                0.00165702
               9.05600698                7.07976973               57.94664263                0.72114411                0.01740784                0.01749630               -0.05817882               -0.00022931                0.12491767               -0.00007188
              10.05638612                7.07941378               57.82200087                0.72159177                0.05842087                0.05848947               -0.19483722               -0.00018132                0.11719597               -0.00192040
              11.05717540                7.07905021               57.69725073                0.72287547                0.09942876                0.09950565               -0.33151124               -0.00008004                0.10057567               -0.00426956
              12.05837470                7.07867945               57.57231254                0.72500288                0.14041070                0.14057739               -0.46819419                0.00005760                0.07508149               -0.00760491
              13.05998362                7.07830132               57.44710710                0.72798643                0.18135371                0.18173708               -0.60487071                0.00012111                0.04085277               -0.01254665
              14.06200177                7.07791441               57.32155749                0.86520421                0.20181570                0.22290127               -0.74151165                0.00050572                0.01905805               -0.01964622
               4.06036170                8.07954235               58.56880639                0.86533848               -0.16598143               -0.18721482                0.62196971               -0.00025990                0.01645783                0.01759185
               5.05870188                8.07964286               58.44314244                0.72797749               -0.14561978               -0.14568268                0.48534691                0.00017347                0.05296489                0.00850434
               6.05744930                8.07973529               58.31813348                0.72481603               -0.10477935               -0.10455177                0.34884905               -0.00005981                0.10018815                0.00502723
               7.05660630                8.07981608               58.19335733                0.72275385               -0.06377319               -0.06362465                0.21228005               -0.00022893                0.12074316                0.00288774
               8.05617384                8.07988680               58.06872139                0.72153524               -0.02274479               -0.02266058                0.07567053               -0.00026522                0.13141636                0.00132467
               9.05615140                8.07994883               57.94413925                0.72115291                0.01825255                0.01832178               -0.06096589               -0.00024427                0.13264418               -0.00003059
              10.05653889                8.08000277               57.81952701                0.72160057                0.05925262                0.05931533               -0.19762279               -0.00020010                0.12456797               -0.00149361
              11.05733645                8.08004924               57.69480109                0.72288366                0.10027425                0.10031756               -0.33429600               -0.00010812                0.10712307               -0.00341831
              12.05854437                8.08008911               57.56987631                0.72500920                0.14128184                0.14134419               -0.47097883                0.00005741                0.08013395               -0.00632679
              13.06016209                8.08012287               57.44466557                0.72799203                0.18220202                0.18253203               -0.60765713                0.00020760                0.04364220               -0.01117745
              14.06218841                8.08014822               57.31908452                0.86520581                0.20263254                0.22393772               -0.74430456                0.00060051                0.02052133               -0.01941007
               4.06005218                9.07767279               58.56619149                0.86533632               -0.16515453               -0.18688420                0.61915211               -0.00030227                0.01814485                0.01298664
               5.05840064                9.07819133               58.44048706                0.72797645               -0.14482428               -0.14452081                0.48251871               -0.00000785                0.05804651                0.00434711
               6.05715570                9.07869448               58.31550590                0.72482021               -0.10388131               -0.10379499                0.34603473               -0.00020764                0.10925493                0.00277240
               7.05632301                9.07918383               58.19076932                0.72276280               -0.06278929               -0.06283772                0.20947645               -0.00026151                0.13058968                0.00159287
               8.05589991                9.07966427               58.06617724                0.72154749               -0.02184405               -0.02185283                0.07287623               -0.00020182                0.14153351                0.00073684
               9.05588613                9.08013617               57.94164051                0.72116549                0.01908971                0.01915144               -0.06375210               -0.00017294                0.14276272               -0.00000153
              10.05628171                9.08060009               57.81707256                0.72161435                0.06003832                0.06016141               -0.20040162               -0.00015018                0.13439846               -0.00080555
              11.05708690                9.08105656               57.69238666                0.72289644                0.10102553                0.10116943               -0.33706820               -0.00012235                0.11626439               -0.00189211
              12.05830222                9.08150633               57.56749273                0.72501952                0.14208768                0.14218018               -0.47374537               -0.00000415                0.08777886               -0.00361552
              13.05992865                9.08195196               57.44229243                0.72799845                0.18304268                0.18322628               -0.61042064                0.00018532                0.04815267               -0.00675201
              14.06196307                9.08239317               57.31667994                0.86520774                0.20344196                0.22519261               -0.74707398                0.00060167                0.02291929               -0.01415437
               4.05931857               10.07580467               58.56345830                0.93266732               -0.16385392               -0.18681185                0.61630024                0.02141574                0.02402780                0.01130169
               5.05768003               10.07675244               58.43774573                0.86398902               -0.14329640               -0.14388885                0.47966372                0.02067556                0.06751686                0.00330603
               6.05645264               10.07765939               58.31282877                0.86241220               -0.10243765               -0.10350876                0.34320185                0.02003879                0.12207688                0.00263488
               7.05563128               10.07855933               58.18815188                0.86138540               -0.06175895               -0.06245072                0.20665963                0.02034434                0.14324781                0.00152968
               8.05521747               10.07944975               58.06362125                0.86077847               -0.02095814               -0.02145198                0.07007514                0.02038176                0.15427845                0.00062328
               9.05521212               10.08033186               57.93914638                0.86058858                0.01990150                0.01956882               -0.06653804                0.02041108                0.15548092               -0.00022396
              10.05561550               10.08120600               57.81463973                0.86081234                0.06078226                0.06059077               -0.20317245                0.02041744                0.14698475               -0.00110740
              11.05642776               10.08207263               57.69001340                0.86145347                0.10166964                0.10160715               -0.33982422                0.02042218                0.12855484               -0.00214720
              12.05764889               10.08293271               57.56517518                0.86251456                0.14255988                0.14263806               -0.47648750                0.02040528                0.09946162               -0.00355821
              13.05927896               10.08378739               57.44002256                0.86400188                0.18345729                0.18354342               -0.61314996                0.02099901                0.05724360               -0.00576022
              14.06131803               10.08465208               57.31441410                0.93260532                0.20390737                0.22589094               -0.74980018                0.02196443                0.02981731               -0.01235013
               4.17442235                0.09720898               59.59531293                0.93263054               -0.16833726               -0.18984180                0.62947806               -0.02157485                0.01983477               -0.00502219
               5.17273897                0.09402245               59.46845479                0.86398227               -0.14834782               -0.14816189                0.49598230               -0.02038956                0.04683346               -0.00478926
               6.17145539                0.09085117               59.34205833                0.86244983               -0.10845524               -0.10843514                0.36256550               -0.01983663                0.08452153               -0.00194576
               7.17056987                0.08767264               59.21589429                0.86140604               -0.06860947               -0.06834694                0.22913698               -0.01997347                0.10501151               -0.00108507
               8.17008320                0.08448689               59.08986652                0.86078703               -0.02869093               -0.02830192                0.09569691               -0.01999156                0.11580928               -0.00044646
               9.16999605                0.08129286               58.96389590                0.86058985                0.01127060                0.01175483               -0.03775367               -0.02000793                0.11792778                0.00007656
              10.17030861                0.07809028               58.83790658                0.86081225                0.05124493                0.05181244               -0.17121616               -0.02000916                0.11159481                0.00055664
              11.17102095                0.07487884               58.71182400                0.86145490                0.09121337                0.09186520               -0.30469347               -0.02001444                0.09685332                0.00103853
              12.17213288                0.07165759               58.58557317                0.86252386                0.13118110                0.13195051               -0.43818561               -0.01997435                0.07358687                0.00158044
              13.17364457                0.06842598               58.45907719                0.86402347                0.17109616                0.17184148               -0.57168879               -0.02049280                0.04118332                0.00222484
              14.17555480                0.06516944               58.33224885                0.93262098                0.19102323                0.21341319               -0.70520207               -0.02053536                0.02010863                0.00408619
               4.17739312                1.09531056               59.59281918                0.86519129               -0.16791409               -0.18908337                0.62680580               -0.00051160                0.01604970               -0.00373308
               5.17571398                1.09254084               59.46594076                0.72781727               -0.14805960               -0.14789146                0.49330372               -0.00010909                0.04436091               -0.00457269
               6.17443193                1.08976682               59.33955048                0.72477549               -0.10808522               -0.10793633                0.35988371                0.00003557                0.08236824               -0.00147628
               7.17355228                1.08698917               59.21337263                0.72274711               -0.06793761               -0.06791556                0.22644086                0.00011300                0.10172587               -0.00053929
               8.17307318                1.08420387               59.08732866                0.72154369               -0.02790001               -0.02788213                0.09298535                0.00007373                0.11231949               -0.00021765
               9.17299428                1.08141041               58.96134049                0.72116228                0.01211776                0.01216370               -0.04048095                0.00004850                0.11431993               -0.00016393
              10.17331553                1.07860841               58.83533300                0.72159613                0.05214387                0.05221387               -0.17395927                0.00002933                0.10792556               -0.00022282
              11.17403715                1.07579749               58.70923205                0.72284799                0.09220166                0.09226484               -0.30745251                0.00000823                0.09317116               -0.00028735
              12.17515956                1.07297709               58.58296323                0.72492541                0.13232809                0.13232900               -0.44096084               -0.00011779                0.06993736               -0.00023305
              13.17668371                1.07014440               58.45645003                0.72784342                0.17232126                0.17243660               -0.57448018               -0.00016517                0.03812227                0.00016291
              14.17860599                1.06730357               58.32961605                0.86510728                0.19222756                0.21344714               -0.70799946                0.00044485                0.01759830                0.00168202
               4.17995156                2.09342731               59.59026290                0.86512180               -0.16710331               -0.18778671                0.62412704               -0.00055895                0.01302061               -0.00250950
               5.17828053                2.09106462               59.46336217                0.72766773               -0.14718999               -0.14730331                0.49062476               -0.00022553                0.04391622               -0.00317450
               6.17700776                2.08869245               59.33700164                0.72465036               -0.10727249               -0.10709379                0.35722191               -0.00008444                0.08333700               -0.00122272
               7.17613508                2.08631433               59.21083018                0.72268104               -0.06721609               -0.06707709                0.22376464                0.00004709                0.10099645               -0.00029412
               8.17566344                2.08392925               59.08478233                0.72151476               -0.02712968               -0.02705081                0.09028692                0.00006895                0.11083967               -0.00010023
               9.17559249                2.08153613               58.95878589                0.72114496                0.01293384                0.01298633               -0.04320397                0.00004258                0.11250103               -0.00026777
              10.17592212                2.07913456               58.83276810                0.72156687                0.05299719                0.05303263               -0.17670798                0.00000300                0.10596889               -0.00061317
              11.17665243                2.07672414               58.70665652                0.72278459                0.09307505                0.09309100               -0.31022677               -0.00007398                0.09125492               -0.00100314
              12.17778362                2.07430417               58.58037862                0.72480508                0.13311773                0.13318304               -0.44375995               -0.00019733                0.06835208               -0.00127892
              13.17931478                2.07187471               58.45386182                0.72764191                0.17308644                0.17347052               -0.57729851               -0.00026577                0.03731859               -0.00116196
              14.18124535                2.06943839               58.32703472                0.86497224                0.19305631                0.21380365               -0.71081816                0.00023193                0.01729982               -0.00036282
               4.18210731                3.09155482               59.58770602                0.86511953               -0.16629792               -0.18679451                0.62143541               -0.00048259                0.01337959                0.00253767
               5.18044433                3.08959477               59.46080747                0.72766417               -0.14633897               -0.14659933                0.48793791               -0.00016532                0.04424759                0.00161224
               6.17918053                3.08762495               59.33444896                0.72464468               -0.10639583               -0.10638749                0.35453410               -0.00015484                0.08376988                0.00111332
               7.17831642                3.08564763               59.20828213                0.72267325               -0.06638894               -0.06628459                0.22107057               -0.00005010                0.10130319                0.00085711
               8.17785275                3.08366286               59.08223417                0.72150745               -0.02632999               -0.02623292                0.08757916               -0.00000836                0.11072977                0.00040364
               9.17778982                3.08167014               58.95623440                0.72113715                0.01374186                0.01381453               -0.04592900               -0.00001699                0.11211512               -0.00024939
              10.17812759                3.07966906               58.83021136                0.72156152                0.05381256                0.05387192               -0.17945147               -0.00005720                0.10541911               -0.00105909
              11.17886607                3.07765931               58.70409356                0.72278147                0.09387246                0.09395442               -0.31298854               -0.00012275                0.09065139               -0.00198758
              12.18000504                3.07564075               58.57780970                0.72480486                0.13390562                0.13409950               -0.44653733               -0.00019351                0.06784062               -0.00297380
              13.18154418                3.07361381               58.45128889                0.72764410                0.17391240                0.17431723               -0.58008583               -0.00016732                0.03702679               -0.00393272
              14.18348329                3.07157965               58.32446061                0.86497429                0.19391084                0.21449976               -0.71360620                0.00032128                0.01712974               -0.00481615
               4.18386202                4.08969142               59.58516361                0.86511749               -0.16549208               -0.18591913                0.61873674               -0.00044125                0.01357783                0.00794535
               5.18220710                4.08813264               59.45825629                0.72765950               -0.14551102               -0.14580927                0.48523970               -0.00009108                0.04483951                0.00515111
               6.18095180                4.08656470               59.33189726                0.72464055               -0.10554669               -0.10563431                0.35183433               -0.00011971                0.08484835                0.00345691
               7.18009617                4.08498864               59.20573179                0.72267003               -0.06555160               -0.06550403                0.21836556               -0.00009014                0.10247821                0.00212477
               8.17964077                4.08340459               59.07968565                0.72150317               -0.02551128               -0.02542145                0.08486516               -0.00007364                0.11185055                0.00096539
               9.17958594                4.08181243               58.95368655                0.72113316                0.01455138                0.01464151               -0.04865496               -0.00007999                0.11307985               -0.00020693
              10.17993180                4.08021200               58.82766258                0.72155845                0.05461700                0.05471247               -0.18219060               -0.00010005                0.10619434               -0.00150596
              11.18067828                4.07860322               58.70154204                0.72278027                0.09467270                0.09481467               -0.31574056               -0.00012473                0.09122478               -0.00301984
              12.18182525                4.07698616               58.57525360                0.72480450                0.13471297                0.13496137               -0.44930025               -0.00013245                0.06821407               -0.00481806
              13.18337254                4.07536106               58.44872642                0.72764626                0.17474212                0.17513345               -0.58285600               -0.00009305                0.03720909               -0.00695524
              14.18532009                4.07372838               58.32189010                0.86497547                0.19475524                0.21526926               -0.71637850                0.00036638                0.01720900               -0.00946477
               4.18521605                5.08783644               59.58262822                0.86511569               -0.16468160               -0.18509279                0.61603102               -0.00041498                0.01393628                0.01252734
               5.18356923                5.08667858               59.45570441                0.72765695               -0.14469569               -0.14499802                0.48253199               -0.00002502                0.04584522                0.00803866
               6.18232214                5.08551226               59.32934221                0.72463773               -0.10472566               -0.10483321                0.34912560               -0.00005828                0.08675013                0.00526604
               7.18147472                5.08433755               59.20317855                0.72266689               -0.06473196               -0.06469794                0.21565348               -0.00009040                0.10474122                0.00315937
               8.18102750                5.08315443               59.07713684                0.72150153               -0.02469559               -0.02460600                0.08214718               -0.00011778                0.11425127                0.00143894
               9.18098081                5.08196297               58.95114269                0.72113200                0.01536472                0.01546392               -0.05138082               -0.00013080                0.11542056               -0.00015771
              10.18133479                5.08076331               58.82512234                0.72155794                0.05543032                0.05554059               -0.18492574               -0.00012594                0.10830607               -0.00186628
              11.18208941                5.07955560               58.69900254                0.72278042                0.09548827                0.09564713               -0.31848504               -0.00010303                0.09296226               -0.00390115
              12.18324456                5.07833998               58.57271062                0.72480713                0.13553394                0.13579155               -0.45205270               -0.00006715                0.06945199               -0.00646741
              13.18480009                5.07711648               58.44617458                0.72764973                0.17557088                0.17595286               -0.58561391               -0.00002987                0.03785189               -0.00974856
              14.18675597                5.07588503               58.31932326                0.86497820                0.19558799                0.21607836               -0.71913920                0.00040058                0.01752516               -0.01387402
               4.18616944                6.08598956               59.58009118                0.86511401               -0.16386566               -0.18430145                0.61331819               -0.00038638                0.01448026                0.01602049
               5.18453078                6.08523268               59.45314339                0.72765319               -0.14388860               -0.14417846                0.47981478                0.00004419                0.04740019                0.00988482
               6.18329167                6.08446803               59.32677782                0.72463565               -0.10392953               -0.10399193                0.34640907                0.00000406                0.08971369                0.00631232
               7.18245219                6.08369468               59.20061873                0.72266699               -0.06393340               -0.06386134                0.21293607               -0.00009133                0.10831839                0.00371712
               8.18201300                6.08291247               59.07458629                0.72150264               -0.02388745               -0.02378153                0.07942660               -0.00016022                0.11812332                0.00169743
               9.18197444                6.08212170               58.94860299                0.72113392                0.01618200                0.01628045               -0.05410621               -0.00017775                0.11928740               -0.00011276
              10.18233664                6.08132281               58.82259219                0.72156079                0.05625537                0.05635146               -0.18765679               -0.00014849                0.11188724               -0.00203801
              11.18309955                6.08051617               58.69647791                0.72278412                0.09631982                0.09645216               -0.32122217               -0.00008075                0.09598410               -0.00439915
              12.18426304                6.07970199               58.57018474                0.72481100                0.13636694                0.13659803               -0.45479543               -0.00000097                0.07165133               -0.00754401
              13.18582689                6.07888012               58.44363816                0.72765302                0.17639791                0.17677751               -0.58836168                0.00003652                0.03901120               -0.01182347
              14.18779099                6.07804995               58.31676519                0.86498002                0.19641043                0.21692534               -0.72189146                0.00043845                0.01810943               -0.01751057
               4.18672209                7.08415041               59.57753977                0.86511197               -0.16304457               -0.18356795                0.61059687               -0.00033959                0.01527991                0.01794426
               5.18509165                7.08379501               59.45056122                0.72765040               -0.14309406               -0.14333219                0.47708700                0.00012460                0.04969536                0.01026488
               6.18386021                7.08343242               59.32419519                0.72463567               -0.10315956               -0.10310257                0.34368424                0.00003564                0.09406539                0.00630354
               7.18302846                7.08306032               59.19804684                0.72266903               -0.06314711               -0.06300678                0.21021286               -0.00013369                0.11353129                0.00364531
               8.18259727                7.08267880               59.07203154                0.72150687               -0.02307714               -0.02295938                0.07670347               -0.00021567                0.12374766                0.00166713
               9.18256691                7.08228857               58.94606758                0.72113959                0.01700438                0.01709083               -0.05683061               -0.00022365                0.12493372               -0.00007083
              10.18293736                7.08189034               58.82007473                0.72156601                0.05708547                0.05715260               -0.19038372               -0.00017674                0.11719236               -0.00192958
              11.18370862                7.08148465               58.69397336                0.72278990                0.09716147                0.09723676               -0.32395171               -0.00007791                0.10055407               -0.00428960
              12.18488059                7.08107194               58.56768383                0.72481596                0.13721200                0.13737517               -0.45752849                0.00005624                0.07505035               -0.00763618
              13.18645286                7.08065203               58.44112713                0.72765787                0.17722467                0.17759948               -0.59109945                0.00011813                0.04083111               -0.01259069
              14.18842508                7.08022354               58.31422662                0.86498240                0.19722175                0.21782814               -0.72463508                0.00049409                0.01903880               -0.01970628
               4.18687345                8.08231820               59.57495567                0.86511001               -0.16221784               -0.18296852                0.60786263               -0.00025397                0.01647538                0.01763686
               5.18525127                8.08236603               59.44794099                0.72764770               -0.14231878               -0.14238014                0.47434459                0.00016937                0.05305777                0.00852693
               6.18402707                8.08240598               59.32158254                0.72463759               -0.10240616               -0.10218415                0.34094838               -0.00005862                0.10031809                0.00504710
               7.18320314                8.08243455               59.19545619                0.72267283               -0.06233169               -0.06218706                0.20748263               -0.00022351                0.12082489                0.00290279
               8.18278044                8.08245328               59.06946965                0.72151317               -0.02223577               -0.02215377                0.07397749               -0.00025889                0.13146857                0.00133346
               9.18275843                8.08246352               58.94353664                0.72114796                0.01782978                0.01789741               -0.05955392               -0.00023835                0.13267371               -0.00002934
              10.18313703                8.08246586               58.81757334                0.72157588                0.05789814                0.05795949               -0.19310524               -0.00019514                0.12457666               -0.00150083
              11.18391639                8.08246090               58.69149618                0.72279695                0.09798749                0.09803013               -0.32667275               -0.00010543                0.10711331               -0.00343467
              12.18509678                8.08244949               58.56522007                0.72482155                0.13806306                0.13812461               -0.46024952                0.00005607                0.08011312               -0.00635291
              13.18667765                8.08243211               58.43865806                0.72766218                0.17805352                0.17837645               -0.59382217                0.00020253                0.04362682               -0.01121603
              14.18865785                8.08240651               58.31172603                0.86498405                0.19801993                0.21884107               -0.72736468                0.00058650                0.02050592               -0.01946803
               4.18662136                9.08049104               59.57231292                0.86510896               -0.16140975               -0.18264549                0.60510905               -0.00029548                0.01816688                0.01302029
               5.18500726                9.08094741               59.44525765                0.72764888               -0.14154142               -0.14124443                0.47158073               -0.00000791                0.05815576                0.00435805
               6.18379053                9.08138874               59.31892713                0.72464232               -0.10152865               -0.10144468                0.33819811               -0.00020292                0.10941162                0.00278489
               7.18297669                9.08181658               59.19284046                0.72268229               -0.06137045               -0.06141807                0.20474319               -0.00025528                0.13069595                0.00160220
               8.18256312                9.08223572               59.06689788                0.72152481               -0.02135589               -0.02136448                0.07124726               -0.00019699                0.14160896                0.00074247
               9.18254957                9.08264652               58.94101036                0.72116046                0.01864774                0.01870811               -0.06227643               -0.00016886                0.14281448               -0.00000063
              10.18293607                9.08304953               58.81509142                0.72158851                0.05866593                0.05878617               -0.19582043               -0.00014649                0.13442861               -0.00080964
              11.18372289                9.08344525               58.68905435                0.72280996                0.09872158                0.09886247               -0.32938142               -0.00011920                0.11627512               -0.00190156
              12.18491050                9.08383443               58.56280915                0.72483210                0.13885034                0.13894140               -0.46295253               -0.00000399                0.08777652               -0.00363144
              13.18649989                9.08421956               58.43625760                0.72766798                0.17887486                0.17905499               -0.59652246                0.00018083                0.04815002               -0.00677602
              14.18848800                9.08460036               58.30929408                0.86498616                0.19881089                0.22006753               -0.73007170                0.00058768                0.02291272               -0.01419572
               4.18595480               10.07866530               59.56955153                0.93255420               -0.16013848               -0.18257479                0.60232173                0.02092936                0.02406523                0.01133347
               5.18435341               10.07954115               59.44248811                0.86382551               -0.14004795               -0.14062664                0.46879047                0.02020524                0.06765370                0.00331572
               6.18315384               10.08037709               59.31622201                0.86232338               -0.10011788               -0.10116503                0.33542967                0.01958326                0.12226996                0.00264713
               7.18235106               10.08120619               59.19019518                0.86134546               -0.06036411               -0.06103987                0.20199069                0.01988238                0.14338739                0.00153781
               8.18194656               10.08202599               59.06431420                0.86076774               -0.02049059               -0.02097277                0.06851026                0.01991883                0.15438686                0.00062785
               9.18194124               10.08283768               58.93848869                0.86058573                0.01944087                0.01911597               -0.06499857                0.01994735                0.15556527               -0.00022391
              10.18233537               10.08364159               58.81263120                0.86080025                0.05939296                0.05920574               -0.19852816                0.01995364                0.14704753               -0.00111169
              11.18312910               10.08443815               58.68665385                0.86140978                0.09935109                0.09929010               -0.33207422                0.01995844                0.12859726               -0.00215590
              12.18432240               10.08522832               58.56046449                0.86242030                0.13931183                0.13938863               -0.46563124                0.01994193                0.09948985               -0.00357262
              13.18591534               10.08601321               58.43396075                0.86383683                0.17928001                0.17936498               -0.59918921                0.02052192                0.05726636               -0.00578086
              14.18790800               10.08680786               58.30700130                0.93249454                0.19926563                0.22075002               -0.73273565                0.02146501                0.02983143               -0.01238637
               4.30214651                0.09966585               60.60153452                0.93251572               -0.16441628               -0.18541929                0.61481308               -0.02107142                0.01987038               -0.00502619
               5.30050235                0.09650199               60.47335696                0.86381464               -0.14489317               -0.14471132                0.48443174               -0.01991368                0.04692170               -0.00478750
               6.29924865                0.09335303               60.34564187                0.86235650               -0.10593145               -0.10591185                0.35412776               -0.01937387                0.08465358               -0.00193551
               7.29838372                0.09019698               60.21815908                0.86136330               -0.06701553               -0.06675899                0.22381272               -0.01950766                0.10513948               -0.00107680
               8.29790834                0.08703387               60.09081246                0.86077485               -0.02802829               -0.02764827                0.09348603               -0.01952513                0.11593062               -0.00044114
               9.29782315                0.08386268               59.96352288                0.86058709                0.01100108                0.01147395               -0.03685102               -0.01954114                0.11803923                0.00007844
              10.29812836                0.08068314               59.83621448                0.86079832                0.05004290                0.05059701               -0.16719968               -0.01954244                0.11169111                0.00055507
              11.29882401                0.07749495               59.70881267                0.86141159                0.08907875                0.08971509               -0.29756221               -0.01954766                0.09692976                0.00103361
              12.29990993                0.07429717               59.58124246                0.86242725                0.12811384                0.12886509               -0.42793926               -0.01950850                0.07364234                0.00157184
              13.30138629                0.07108929               59.45342700                0.86385386                0.16709768                0.16782552               -0.55832804               -0.02001448                0.04121684                0.00221269
              14.30325189                0.06785707               59.32527907                0.93250704                0.18655990                0.20842714               -0.68872661               -0.02005593                0.02012259                0.00408110
               4.30509966                1.09781166               60.59901435                0.86496533               -0.16400329               -0.18467849                0.61220395               -0.00049918                0.01606836               -0.00372528
               5.30345962                1.09505488               60.47081646                0.72748827               -0.14461201               -0.14444749                0.48181656               -0.00010636                0.04443366               -0.00455913
               6.30220742                1.09229391               60.34310752                0.72459436               -0.10557012               -0.10542483                0.35150932                0.00003455                0.08248093               -0.00144680
               7.30134822                1.08952939               60.21561078                0.72266553               -0.06635906               -0.06633782                0.22117993                0.00011003                0.10182861               -0.00051525
               8.30088024                1.08675739               60.08824780                0.72152289               -0.02725564               -0.02723842                0.09083817                0.00007180                0.11241468               -0.00020319
               9.30080311                1.08397742               59.96094051                0.72115856                0.01182835                0.01187317               -0.03951417                0.00004714                0.11440489               -0.00016037
              10.30111680                1.08118911               59.83361378                0.72157037                0.05092058                0.05098899               -0.16987834                0.00002821                0.10799536               -0.00023065
              11.30182152                1.07839210               59.70619345                0.72276177                0.09004369                0.09010549               -0.30025657                0.00000750                0.09322082               -0.00030653
              12.30291768                1.07558582               59.57860509                0.72473718                0.12923377                0.12923496               -0.43064982               -0.00011534                0.06996595               -0.00026317
              13.30440620                1.07276755               59.45077225                0.72751383                0.16829383                0.16840684               -0.56105413               -0.00016118                0.03813422                0.00012458
              14.30628355                1.06994134               59.32261863                0.86488473                0.18773572                0.20846006               -0.69145764                0.00043478                0.01759573                0.00165010
               4.30765009                2.09597228               60.59643161                0.86489853               -0.16321166               -0.18341215                0.60958832               -0.00054572                0.01303206               -0.00249658
               5.30601797                2.09361304               60.46821140                0.72734561               -0.14376288               -0.14387347                0.47920117               -0.00022023                0.04399045               -0.00315342
               6.30477483                2.09124453               60.34053238                0.72447583               -0.10477649               -0.10460224                0.34891077               -0.00008261                0.08344372               -0.00118742
               7.30392244                2.08887022               60.21304188                0.72260173               -0.06565438               -0.06551916                0.21856658                0.00004556                0.10107328               -0.00026324
               8.30346174                2.08648910               60.08567480                0.72149304               -0.02650325               -0.02642670                0.08820311                0.00006676                0.11090404               -0.00008142
               9.30339238                2.08410014               59.95835900                0.72114079                0.01262524                0.01267642               -0.04217317                0.00004097                0.11255346               -0.00026355
              10.30371425                2.08170292               59.83102172                0.72154237                0.05175373                0.05178851               -0.17256236                0.00000229                0.10600558               -0.00062477
              11.30442745                2.07929706               59.70359050                0.72269996                0.09089649                0.09091245               -0.30296611               -0.00007287                0.09127208               -0.00103036
              12.30553218                2.07688187               59.57599281                0.72462242                0.13000485                0.13006920               -0.43338374               -0.00019314                0.06835125               -0.00131971
              13.30702755                2.07445743               59.44815618                0.72732065                0.16904113                0.16941673               -0.56380678               -0.00025991                0.03731298               -0.00121109
              14.30891300                2.07202627               59.32000944                0.86475675                0.18854516                0.20880852               -0.69421118                0.00022633                0.01728891               -0.00040656
               4.30980722                3.09414342               60.59384812                0.86489620               -0.16242514               -0.18244330                0.60696001               -0.00047131                0.01339168                0.00255596
               5.30818297                3.09217741               60.46563015                0.72734163               -0.14293179               -0.14318605                0.47657734               -0.00016149                0.04431962                0.00163565
               6.30694859                3.09020187               60.33795313                0.72446838               -0.10392044               -0.10391256                0.34628627               -0.00015130                0.08386905                0.00113815
               7.30610456                3.08821901               60.21046721                0.72259437               -0.06484681               -0.06474532                0.21593621               -0.00004924                0.10136589                0.00087925
               8.30565165                3.08622886               60.08309988                0.72148481               -0.02572245               -0.02562802                0.08555895               -0.00000875                0.11077445                0.00041732
               9.30559011                3.08423095               59.95578058                0.72113263                0.01341439                0.01348515               -0.04483420               -0.00001717                0.11214561               -0.00024717
              10.30591994                3.08222488               59.82843786                0.72153670                0.05255007                0.05260806               -0.17524145               -0.00005632                0.10543310               -0.00106963
              11.30664111                3.08021035               59.70100024                0.72269643                0.09167517                0.09175555               -0.30566303               -0.00012027                0.09064732               -0.00201038
              12.30775344                3.07818721               59.57339646                0.72462144                0.13077425                0.13096407               -0.43609597               -0.00018912                0.06782265               -0.00300691
              13.30925660                3.07615588               59.44555572                0.72732297                0.16984795                0.17024355               -0.56652911               -0.00016325                0.03701096               -0.00397126
              14.31115040                3.07411751               59.31740778                0.86475838                0.18938008                0.20948877               -0.69693544                0.00031384                0.01711286               -0.00485244
               4.31157267                4.09232342               60.59127904                0.86489507               -0.16163813               -0.18158838                0.60432453               -0.00043091                0.01358907                0.00797193
               5.30995629                4.09074932               60.46305230                0.72733800               -0.14212323               -0.14241446                0.47394222               -0.00008899                0.04490955                0.00517625
               6.30873021                4.08916628               60.33537475                0.72446524               -0.10309130               -0.10317698                0.34364977               -0.00011699                0.08494282                0.00348027
               7.30789447                4.08757532               60.20789014                0.72258977               -0.06402921               -0.06398310                0.21329490               -0.00008812                0.10253286                0.00214367
               8.30744963                4.08597654               60.08052454                0.72148094               -0.02492293               -0.02483563                0.08290877               -0.00007214                0.11188375                0.00097664
               9.30739601                4.08436985               59.95320579                0.72112945                0.01420497                0.01429270               -0.04749607               -0.00007837                0.11309646               -0.00020573
              10.30773373                4.08275508               59.82586202                0.72153421                0.05333562                0.05342883               -0.17791624               -0.00009786                0.10619406               -0.00151623
              11.30846272                4.08113217               59.69842153                0.72269566                0.09245673                0.09259547               -0.30835022               -0.00012191                0.09120722               -0.00304111
              12.30958286                4.07950115               59.57081304                0.72462255                0.13156295                0.13180558               -0.43879424               -0.00012916                0.06818523               -0.00484908
              13.31109398                4.07786230               59.44296586                0.72732582                0.17065809                0.17104036               -0.56923373               -0.00009034                0.03718788               -0.00699255
              14.31299602                4.07621604               59.31480988                0.86475973                0.19020413                0.21023970               -0.69964024                0.00035802                0.01719015               -0.00950343
               4.31294679                5.09051165               60.58871692                0.86489311               -0.16084663               -0.18078138                0.60168198               -0.00040529                0.01394741                0.01256142
               5.31133833                5.08932912               60.46047366                0.72733475               -0.14132700               -0.14162223                0.47129795               -0.00002454                0.04591573                0.00806608
               6.31012025                5.08813833               60.33279293                0.72446291               -0.10228948               -0.10239463                0.34100445               -0.00005701                0.08684447                0.00528996
               7.30929254                5.08693934               60.20531009                0.72258839               -0.06322883               -0.06319589                0.21064637               -0.00008823                0.10479306                0.00317776
               8.30885568                5.08573214               60.07794887                0.72147861               -0.02412646               -0.02403933                0.08025474               -0.00011499                0.11427941                0.00144939
               9.30881001                5.08451680               59.95063499                0.72112795                0.01499924                0.01509581               -0.05015798               -0.00012781                0.11543039               -0.00015692
              10.30915566                5.08329346               59.82329474                0.72153398                0.05412992                0.05423753               -0.18058721               -0.00012304                0.10829815               -0.00187629
              11.30989261                5.08206225               59.69585491                0.72269607                0.09325318                0.09340839               -0.31103034               -0.00010052                0.09293778               -0.00392208
              12.31102073                5.08082332               59.56824286                0.72462375                0.13236466                0.13261633               -0.44148221               -0.00006550                0.06941816               -0.00649781
              13.31253990                5.07957669               59.44038676                0.72732869                0.17146734                0.17184053               -0.57192685               -0.00002922                0.03782833               -0.00978726
              14.31445007                5.07832230               59.31221576                0.86476156                0.19101722                0.21102969               -0.70233590                0.00039123                0.01750543               -0.01392008
               4.31392962                6.08870779               60.58615306                0.86489123               -0.16004985               -0.18000868                0.59903305               -0.00037741                0.01449246                0.01606141
               5.31232913                6.08791688               60.45788578                0.72733224               -0.14053884               -0.14082193                0.46864457                0.00004304                0.04747415                0.00991413
               6.31111885                6.08711839               60.33020169                0.72446152               -0.10151199               -0.10157310                0.33835165                0.00000382                0.08981294                0.00633679
               7.31029889                6.08631140               60.20272342                0.72258815               -0.06244899               -0.06237888                0.20799259               -0.00008920                0.10837311                0.00373514
               8.30986987                6.08549576               60.07537143                0.72148037               -0.02333737               -0.02323418                0.07759794               -0.00015637                0.11815230                0.00170763
               9.30983214                6.08467176               59.94806836                0.72113024                0.01579725                0.01589318               -0.05281932               -0.00017354                0.11929689               -0.00011193
              10.31018581                6.08383983               59.82073760                0.72153553                0.05493562                0.05502946               -0.18325446               -0.00014502                0.11187846               -0.00204758
              11.31093085                6.08300033               59.69330322                0.72269871                0.09406518                0.09419468               -0.31370356               -0.00007873                0.09595906               -0.00441919
              12.31206712                6.08215348               59.56568988                0.72462727                0.13317795                0.13340389               -0.44416049               -0.00000082                0.07161731               -0.00757429
              13.31359441                6.08129911               59.43782319                0.72733257                0.17227504                0.17264585               -0.57461044                0.00003549                0.03898668               -0.01186501
              14.31551262                6.08043664               59.30963047                0.86476395                0.19182069                0.21185694               -0.70502445                0.00042785                0.01808791               -0.01756441
               4.31452107                7.08691148               60.58357475                0.86488990               -0.15924797               -0.17929244                0.59637557               -0.00033167                0.01529424                0.01798975
               5.31292859                7.08651268               60.45527666                0.72732987               -0.13976297               -0.13999553                0.46598083                0.00012167                0.04977588                0.01029364
               6.31172581                7.08610686               60.32759214                0.72446103               -0.10076019               -0.10070460                0.33569064                0.00003469                0.09417464                0.00632698
               7.31091338                7.08569177               60.20012462                0.72259063               -0.06168123               -0.06154432                0.20533300               -0.00013054                0.11359472                0.00366248
               8.31049218                7.08526746               60.07278976                0.72148317               -0.02254612               -0.02243130                0.07493871               -0.00021042                0.12378425                0.00167704
               9.31046246                7.08483467               59.94550602                0.72113534                0.01660030                0.01668453               -0.05547971               -0.00021814                0.12494937               -0.00006978
              10.31082419                7.08439405               59.81819319                0.72154109                0.05574620                0.05581175               -0.18591712               -0.00017231                0.11718911               -0.00193821
              11.31157739                7.08394615               59.69077170                0.72270355                0.09488713                0.09496084               -0.31636916               -0.00007592                0.10053418               -0.00430857
              12.31272193                7.08349139               59.56316197                0.72463316                0.13400315                0.13416254               -0.44682857                0.00005486                0.07501994               -0.00766643
              13.31425745                7.08302961               59.43528511                0.72733729                0.17308204                0.17344812               -0.57728225                0.00011507                0.04080879               -0.01263351
              14.31618357                7.08255944               59.30706479                0.86476635                0.19261241                0.21273807               -0.70770225                0.00048208                0.01901921               -0.01976464
               4.31472058                8.08512194               60.58096364                0.86488817               -0.15844056               -0.17870713                0.59370536               -0.00024810                0.01649293                0.01768122
               5.31313617                8.08511697               60.45262933                0.72732856               -0.13900592               -0.13906572                0.46330279                0.00016529                0.05314848                0.00854922
               6.31194046                8.08510430               60.32495245                0.72446284               -0.10002453               -0.09980778                0.33301888               -0.00005735                0.10044438                0.00506637
               7.31113568                8.08508051               60.19750698                0.72259551               -0.06088491               -0.06074390                0.20266689               -0.00021815                0.12090439                0.00291763
               8.31072276                8.08504713               60.07020094                0.72149169               -0.02172455               -0.02164460                0.07227672               -0.00025245                0.13151958                0.00134224
               9.31070119                8.08500545               59.94294817                0.72114370                0.01740622                0.01747221               -0.05813916               -0.00023226                0.13270271               -0.00002826
              10.31107088                8.08495607               59.81566491                0.72155057                0.05653974                0.05659963               -0.18857456               -0.00019014                0.12458561               -0.00150772
              11.31183198                8.08489955               59.68826763                0.72271343                0.09569362                0.09573534               -0.31902540               -0.00010289                0.10710411               -0.00345074
              12.31298476                8.08483673               59.56067132                0.72463808                0.13483403                0.13489437               -0.44948531                0.00005427                0.08009252               -0.00637902
              13.31452866                8.08476807               59.43278913                0.72734055                0.17389146                0.17420703               -0.57994148                0.00019718                0.04361146               -0.01125416
              14.31646259                8.08469140               59.30453723                0.86476807                0.19339209                0.21372737               -0.71036879                0.00057265                0.02049068               -0.01952564
               4.31452605                9.08333733               60.57829367                0.86488659               -0.15765147               -0.17839182                0.59101642               -0.00028878                0.01818858                0.01305272
               5.31294954                9.08373137               60.44991867                0.72732814               -0.13824680               -0.13795631                0.46060350               -0.00000821                0.05826244                0.00436757
               6.31176112                9.08411071               60.32226986                0.72446713               -0.09916755               -0.09908580                0.33033306               -0.00019839                0.10956458                0.00279622
               7.31096619                9.08447689               60.19486418                0.72260395               -0.05994619               -0.05999307                0.19999206               -0.00024924                0.13079985                0.00161141
               8.31056219                9.08483457               60.06760219                0.72150325               -0.02086531               -0.02087383                0.06961056               -0.00019211                0.14168247                0.00074797
               9.31054888                9.08518411               59.94039498                0.72115702                0.01820485                0.01826390               -0.06079766               -0.00016448                0.14286496                0.00000027
              10.31092629                9.08552604               59.81315615                0.72156356                0.05728928                0.05740695               -0.19122603               -0.00014286                0.13445847               -0.00081393
              11.31169467                9.08586086               59.68579903                0.72272357                0.09641031                0.09654822               -0.32167045               -0.00011652                0.11628601               -0.00191094
              12.31285450                9.08618928               59.55823368                0.72464760                0.13560276                0.13569233               -0.45212548               -0.00000413                0.08777401               -0.00364640
              13.31440672                9.08651375               59.43036198                0.72734602                0.17469384                0.17487038               -0.58258010                0.00017633                0.04814614               -0.00679984
              14.31634837                9.08683399               59.30207851                0.86477040                0.19416513                0.21492593               -0.71301476                0.00057384                0.02290374               -0.01423780
               4.31392673               10.08155410               60.57550473                0.93244251               -0.15640990               -0.17832289                0.58829427                0.02044134                0.02410136                0.01136377
               5.31236263               10.08235784               60.44712154                0.86366416               -0.13678798               -0.13735275                0.45787817                0.01973304                0.06778721                0.00332329
               6.31119097               10.08312258               60.31953737                0.86223650               -0.09778971               -0.09881282                0.32762948                0.01912579                0.12245952                0.00265758
               7.31040684               10.08388065               60.19219170                0.86130551               -0.05896374               -0.05962376                0.19730427                0.01941860                0.14352454                0.00154579
               8.31001170               10.08462965               60.06499146                0.86075698               -0.02002043               -0.02049130                0.06693788                0.01945426                0.15449285                0.00063213
               9.31000643               10.08537073               59.93784641                0.86058416                0.01897932                0.01866217               -0.06345579                0.01948224                0.15564743               -0.00022365
              10.31039128               10.08610421               59.81066917                0.86078713                0.05799910                0.05781669               -0.19386999                0.01948830                0.14710893               -0.00111638
              11.31116641               10.08683052               59.68337192                0.86136770                0.09702505                0.09696600               -0.32430080                0.01949275                0.12864019               -0.00216453
              12.31233178               10.08755057               59.55586255                0.86232803                0.13605371                0.13612925               -0.45474195                0.01947685                0.09951752               -0.00358525
              13.31388748               10.08826548               59.42803878                0.86367540                0.17508965                0.17517339               -0.58518430                0.02004334                0.05728657               -0.00580116
              14.31583358               10.08898992               59.29975939                0.93238634                0.19460914                0.21559283               -0.71561669                0.02096399                0.02984226               -0.01242360
               4.43117487                0.10214877               61.60760920                0.93240412               -0.16048176               -0.18098145                0.60009779               -0.02056638                0.01990487               -0.00503090
               5.42957005                0.09900770               61.47814342                0.86365125               -0.14142659               -0.14124883                0.47284143               -0.01943607                0.04700778               -0.00478582
               6.42834634                0.09588117               61.34914089                0.86226610               -0.10339881               -0.10337980                0.34566073               -0.01890935                0.08478275               -0.00192493
               7.42750207                0.09274772               61.22037054                0.86132316               -0.06541571               -0.06516527                0.21846912               -0.01904030                0.10526461               -0.00106890
               8.42703802                0.08960738               61.09173624                0.86076379               -0.02736293               -0.02699190                0.09126614               -0.01905753                0.11604886               -0.00043630
               9.42695482                0.08645915               60.96315888                0.86058498                0.01073105                0.01119261               -0.03594692               -0.01907309                0.11814766                0.00008041
              10.42725264                0.08330277               60.83456259                0.86078627                0.04883719                0.04937805               -0.16317157               -0.01907423                0.11178536                0.00055379
              11.42793156                0.08013795               60.70587276                0.86136698                0.08693742                0.08755859               -0.29040939               -0.01907926                0.09700539                0.00102871
              12.42899139                0.07696377               60.57701439                0.86233288                0.12503700                0.12577019               -0.41766130               -0.01904104                0.07369646                0.00156293
              13.43043230                0.07377974               60.44791063                0.86368839                0.16308652                0.16379687               -0.54492505               -0.01953488                0.04124902                0.00220087
              14.43225312                0.07057196               60.31847432                0.93239457                0.18208222                0.20342543               -0.67219832               -0.01957520                0.02013604                0.00407700
               4.43411028                1.10033896               61.60506326                0.86474506               -0.16007874               -0.18025831                0.59755141               -0.00048691                0.01608672               -0.00371799
               5.43250949                1.09759521               61.47557709                0.72716841               -0.14115232               -0.14099150                0.47028932               -0.00010359                0.04450510               -0.00454573
               6.43128723                1.09484738               61.34658067                0.72441870               -0.10304621               -0.10290451                0.34310554                0.00003373                0.08259111               -0.00141792
               7.43044857                1.09209607               61.21779622                0.72258450               -0.06477496               -0.06475438                0.21589995                0.00010714                0.10192866               -0.00049212
               8.42999173                1.08933746               61.08914542                0.72149887               -0.02660878               -0.02659204                0.08868222                0.00006952                0.11250756               -0.00018935
               9.42991639                1.08657108               60.96055021                0.72115447                0.01153855                0.01158215               -0.03854580                0.00004552                0.11448772               -0.00015684
              10.43022250                1.08379655               60.83193543                0.72154655                0.04969378                0.04976052               -0.16578547                0.00002718                0.10806353               -0.00023804
              11.43091027                1.08101353               60.70322692                0.72267674                0.08787900                0.08793954               -0.29303867                0.00000697                0.09326993               -0.00032542
              12.43198008                1.07822148               60.57435023                0.72455493                0.12612971                0.12613118               -0.42030637               -0.00011282                0.06999373               -0.00029325
              13.43343286                1.07541771               60.44522895                0.72719124                0.16425366                0.16436435               -0.54758538               -0.00015732                0.03814578                0.00008694
              14.43526516                1.07260621               60.31578689                0.86466799                0.18322964                0.20345747               -0.67486392                0.00042453                0.01759409                0.00161870
               4.43665262                2.09854361               61.60245467                0.86468180               -0.15930611               -0.17902240                0.59499882               -0.00053245                0.01304353               -0.00248342
               5.43505956                2.09618787               61.47294619                0.72703295               -0.14032360               -0.14043156                0.46773698               -0.00021497                0.04406301               -0.00313233
               6.43384615                2.09382308               61.34397986                0.72430436               -0.10227178               -0.10210176                0.34056971               -0.00008080                0.08354753               -0.00115283
               7.43301413                2.09145264               61.21520151                0.72252457               -0.06408739               -0.06395556                0.21334988                0.00004419                0.10114816               -0.00023320
               8.43256440                2.08907554               61.08654639                0.72147088               -0.02587449               -0.02580002                0.08611088                0.00006475                0.11096719               -0.00006300
               9.43249664                2.08669080               60.95794243                0.72113762                0.01231637                0.01236598               -0.04114070                0.00003949                0.11260478               -0.00025951
              10.43281073                2.08429798               60.82931685                0.72151860                0.05050690                0.05054068               -0.16840444                0.00000166                0.10604117               -0.00063596
              11.43350678                2.08189674               60.70059720                0.72261850                0.08871124                0.08872703               -0.29568258               -0.00007165                0.09128862               -0.00105712
              12.43458496                2.07948640               60.57171094                0.72444426                0.12688219                0.12694545               -0.42297450               -0.00018862                0.06835011               -0.00136044
              13.43604442                2.07706703               60.44258568                0.72700911                0.16498290                0.16534996               -0.55027178               -0.00025344                0.03730720               -0.00125986
              14.43788461                2.07464110               60.31315049                0.86454638                0.18401955                0.20379735               -0.67755118                0.00022100                0.01727824               -0.00045085
               4.43881110                3.09675851               61.59984522                0.86467924               -0.15853873               -0.17807710                0.59243435               -0.00045987                0.01340332                0.00257394
               5.43722572                3.09478658               61.47033902                0.72702810               -0.13951265               -0.13976091                0.46517700               -0.00015772                0.04438983                0.00165857
               6.43602085                3.09280534               61.34137468                0.72429928               -0.10143631               -0.10142881                0.33800880               -0.00014787                0.08396533                0.00116291
               7.43519699                3.09081696               61.21260085                0.72251754               -0.06329913               -0.06320034                0.21078274               -0.00004823                0.10142667                0.00090135
               8.43475487                3.08882146               61.08394534                0.72146299               -0.02511247               -0.02502061                0.08353053               -0.00000874                0.11081811                0.00043086
               9.43469474                3.08681840               60.95533772                0.72112976                0.01308631                0.01315522               -0.04373749               -0.00001718                0.11217530               -0.00024502
              10.43501659                3.08480737               60.82670653                0.72151190                0.05128387                0.05134058               -0.17101913               -0.00005554                0.10544662               -0.00107991
              11.43572042                3.08278807               60.69798030                0.72261395                0.08947127                0.08954997               -0.29831502               -0.00011771                0.09064292               -0.00203279
              12.43680602                3.08076038               60.56908779                0.72444374                0.12763331                0.12781891               -0.42562217               -0.00018464                0.06780425               -0.00303934
              13.43827308                3.07872471               60.43995831                0.72701148                0.16577032                0.16615677               -0.55292850               -0.00015934                0.03699449               -0.00400857
              14.44012143                3.07668216               60.31052190                0.86454783                0.18483416                0.20446119               -0.68020870                0.00030630                0.01709495               -0.00488791
               4.44058729                4.09498207               61.59725010                0.86467775               -0.15777072               -0.17724296                0.58986268               -0.00042061                0.01360037                0.00799712
               5.43900958                4.09339265               61.46773514                0.72702567               -0.13872356               -0.13900802                0.46260555               -0.00008701                0.04497851                0.00520055
               6.43781282                4.09179451               61.33877026                0.72429429               -0.10062710               -0.10071106                0.33543612               -0.00011435                0.08503515                0.00350307
               7.43699704                4.09018863               61.20999769                0.72251391               -0.06250125               -0.06245657                0.20820532               -0.00008624                0.10258556                0.00216213
               8.43656279                4.08857513               61.08134382                0.72145864               -0.02433234               -0.02424730                0.08094426               -0.00007066                0.11191583                0.00098775
               9.43651039                4.08695390               60.95273663                0.72112577                0.01385771                0.01394333               -0.04633508               -0.00007679                0.11311274               -0.00020459
              10.43683995                4.08532479               60.82410426                0.72150883                0.05205056                0.05214167               -0.17362970               -0.00009579                0.10619371               -0.00152594
              11.43755140                4.08368774               60.69537503                0.72261390                0.09023407                0.09036968               -0.30093777               -0.00011904                0.09118996               -0.00306162
              12.43864463                4.08204278               60.56647771                0.72444311                0.12840290                0.12863999               -0.42825508               -0.00012625                0.06815720               -0.00487882
              13.44011946                4.08039016               60.43734174                0.72701182                0.16656103                0.16693443               -0.55556825               -0.00008857                0.03716681               -0.00702776
              14.44197585                4.07873033               60.30789730                0.86454896                0.18563869                0.20519435               -0.68284961                0.00034923                0.01717077               -0.00954020
               4.44198152                5.09321365               61.59466186                0.86467555               -0.15699830               -0.17645546                0.58728411               -0.00039555                0.01395951                0.01259493
               5.44041153                5.09200642               61.46513037                0.72702222               -0.13794656               -0.13823492                0.46002502               -0.00002412                0.04598527                0.00809301
               6.43922259                5.09079112               61.33616230                0.72429171               -0.09984470               -0.09994757                0.33285459               -0.00005594                0.08693637                0.00531294
               7.43841464                5.08956783               61.20739147                0.72251130               -0.06172015               -0.06168836                0.20562084               -0.00008632                0.10484344                0.00319527
               8.43798818                5.08833652               61.07874193                0.72145720               -0.02355499               -0.02347020                0.07835426               -0.00011235                0.11430674                0.00145958
               9.43794354                5.08709726               60.95013953                0.72112467                0.01463285                0.01472705               -0.04893281               -0.00012475                0.11544005               -0.00015611
              10.43828084                5.08585020               60.82151060                0.72150886                0.05282571                0.05293077               -0.17623611               -0.00012002                0.10829064               -0.00188606
              11.43900006                5.08459547               60.69278194                0.72261429                0.09101130                0.09116275               -0.30355262               -0.00009820                0.09291363               -0.00394236
              12.44010107                5.08333318               60.56388098                0.72444557                0.12918523                0.12943083               -0.43087747               -0.00006394                0.06938504               -0.00652793
              13.44158376                5.08206340               60.43473604                0.72701652                0.16735081                0.16771512               -0.55819637               -0.00002830                0.03780475               -0.00982579
              14.44344808                5.08078604               60.30527655                0.86455121                0.18643229                0.20596518               -0.68548023                0.00038186                0.01748471               -0.01396479
               4.44299384                6.09145296               61.59207184                0.86467454               -0.15622082               -0.17570131                0.58469896               -0.00036836                0.01450476                0.01610215
               5.44143163                6.09062795               61.46251628                0.72701887               -0.13717750               -0.13745391                0.45743583                0.00004186                0.04754642                0.00994266
               6.44025029                6.08979556               61.33354485                0.72429152               -0.09908598               -0.09914579                0.33026557                0.00000356                0.08990934                0.00636044
               7.43944991                6.08895486               61.20477858                0.72251147               -0.06095911               -0.06089095                0.20303062               -0.00008709                0.10842627                0.00375282
               8.43903111                6.08810573               61.07613825                0.72145764               -0.02278488               -0.02268449                0.07576157               -0.00015261                0.11818085                0.00171762
               9.43899422                6.08724844               60.94754660                0.72112683                0.01541173                0.01550514               -0.05152998               -0.00016925                0.11930612               -0.00011107
              10.43933934                6.08638341               60.81892710                0.72151294                0.05361193                0.05370345               -0.17883861               -0.00014147                0.11186952               -0.00205710
              11.44006645                6.08551099               60.69020384                0.72261629                0.09180369                0.09193003               -0.30616123               -0.00007706                0.09593376               -0.00443969
              12.44117542                6.08463139               60.56130153                0.72444914                0.12997912                0.13019953               -0.43349175               -0.00000083                0.07158329               -0.00760483
              13.44266604                6.08374447               60.43214595                0.72701938                0.16813892                0.16850090               -0.56081467                0.00003496                0.03896314               -0.01190563
              14.44453820                6.08284963               60.30266470                0.86455233                0.18721590                0.20677217               -0.68810240                0.00041780                0.01806807               -0.01761583
               4.44362416                7.08969963               61.58946728                0.86467280               -0.15543823               -0.17500225                0.58210535               -0.00032390                0.01530803                0.01803382
               5.44206977                7.08925734               61.45988084                0.72701717               -0.13642029               -0.13664730                0.45483598                0.00011855                0.04985421                0.01032105
               6.44089575                7.08880820               61.33090901                0.72429036               -0.09835230               -0.09829814                0.32766853                0.00003386                0.09428130                0.00634966
               7.44010273                7.08835001               61.20215350                0.72251242               -0.06020989               -0.06007655                0.20043544               -0.00012741                0.11365692                0.00367947
               8.43969155                7.08788283               61.07353031                0.72146261               -0.02201272               -0.02190102                0.07316658               -0.00020533                0.12382020                0.00168672
               9.43966247                7.08740737               60.94495798                0.72113105                0.01619537                0.01627744               -0.05412631               -0.00021275                0.12496472               -0.00006879
              10.44001546                7.08692427               60.81635639                0.72151683                0.05440290                0.05446692               -0.18143707               -0.00016811                0.11718508               -0.00194671
              11.44075053                7.08643407               60.68764597                0.72262140                0.09260575                0.09267794               -0.30876306               -0.00007412                0.10051379               -0.00432723
              12.44186758                7.08593718               60.55874726                0.72445231                0.13078440                0.13094029               -0.43609670                0.00005338                0.07499143               -0.00769543
              13.44336622                7.08543342               60.42958148                0.72702271                0.16892670                0.16928412               -0.56342320                0.00011225                0.04078880               -0.01267449
              14.44524611                7.08492149               60.30007257                0.86455560                0.18798896                0.20763235               -0.69071697                0.00047073                0.01900128               -0.01982167
               4.44387193                8.08795291               61.58682978                0.86467080               -0.15465033               -0.17443108                0.57949984               -0.00024222                0.01651012                0.01772432
               5.44232543                8.08789501               61.45720704                0.72701651               -0.13568146               -0.13573968                0.45222208                0.00016115                0.05323731                0.00857072
               6.44115830                8.08782959               61.32824292                0.72429216               -0.09763438               -0.09742290                0.32506108               -0.00005610                0.10056823                0.00508533
               7.44037274                8.08775333               61.19950953                0.72251909               -0.05943286               -0.05929553                0.19783385               -0.00021296                0.12098235                0.00293230
               8.43996964                8.08766771               61.07091519                0.72146901               -0.02121096               -0.02113327                0.07056867               -0.00024631                0.13156966                0.00135059
               9.43994852                8.08757399               60.94237386                0.72114048                0.01698185                0.01704614               -0.05672160               -0.00022655                0.13273111               -0.00002704
              10.44030928                8.08747275               60.81380185                0.72152555                0.05517724                0.05523595               -0.18403083               -0.00018535                0.12459433               -0.00151455
              11.44105206                8.08736455               60.68511567                0.72263043                0.09339273                0.09343387               -0.31135532               -0.00010012                0.10709545               -0.00346565
              12.44217714                8.08725020               60.55623037                0.72445891                0.13159526                0.13165445               -0.43868894                0.00005303                0.08007300               -0.00640393
              13.44368397                8.08713015               60.42705923                0.72702765                0.16971672                0.17002483               -0.56601855                0.00019252                0.04359653               -0.01129232
              14.44557147                8.08700228               60.29751866                0.86455607                0.18874997                0.20859782               -0.69331910                0.00055905                0.02047529               -0.01958327
               4.44373512                9.08621101               61.58413324                0.86466972               -0.15388030               -0.17412353                0.57687570               -0.00028167                0.01820966                0.01308519
               5.44219632                9.08654255               61.45446972                0.72701540               -0.13494069               -0.13465680                0.44958800               -0.00000821                0.05836694                0.00437764
               6.44103631                9.08685975               61.32553379                0.72429731               -0.09679807               -0.09671861                0.32244028               -0.00019388                0.10971453                0.00280808
               7.44026035                9.08716410               61.19684031                0.72252682               -0.05851689               -0.05856278                0.19522346               -0.00024331                0.13090130                0.00162061
               8.43986597                9.08746016               61.06829009                0.72148092               -0.02037270               -0.02038099                0.06796668               -0.00018736                0.14175455                0.00075332
               9.43985290                9.08774829               60.93979441                0.72115237                0.01776119                0.01781875               -0.05931589               -0.00016046                0.14291460                0.00000125
              10.44022119                9.08802899               60.81126690                0.72153798                0.05590890                0.05602386               -0.18661856               -0.00013927                0.13448773               -0.00081764
              11.44097108                9.08830274               60.68262094                0.72264202                0.09409228                0.09422705               -0.31393645               -0.00011341                0.11629666               -0.00192045
              12.44210304                9.08857026               60.55376664                0.72446745                0.13234551                0.13243310               -0.44126513               -0.00000383                0.08777108               -0.00366236
              13.44361799                9.08883391               60.42460600                0.72703285                0.17049968                0.17067232               -0.56859341                0.00017232                0.04814203               -0.00682380
              14.44551303                9.08909344               60.29503378                0.86455864                0.18950418                0.20976708               -0.69590051                0.00056027                0.02289473               -0.01427921
               4.44320321               10.08447044               61.58131742                0.93233405               -0.15266857               -0.17405635                0.57421902                0.01995196                0.02413696                0.01139428
               5.44167652               10.08520187               61.45164567                0.86350868               -0.13351672               -0.13406770                0.44692890                0.01925957                0.06791828                0.00333177
               6.44053287               10.08589522               61.32277460                0.86215148               -0.09545337               -0.09645246                0.31980246                0.01866697                0.12264488                0.00266906
               7.43976746               10.08658208               61.19414127                0.86126723               -0.05755844               -0.05820235                0.19260062                0.01895332                0.14365812                0.00155376
               8.43938170               10.08726009               61.06565296                0.86074552               -0.01954846               -0.02000765                0.06535852                0.01898819                0.15459654                0.00063651
               9.43937649               10.08793036               60.93721957                0.86058296                0.01851679                0.01820744               -0.06190995                0.01901543                0.15572838               -0.00022351
              10.43975204               10.08859323               60.80875380                0.86077543                0.05660171                0.05642372               -0.18919878                0.01902128                0.14716864               -0.00112012
              11.44050852               10.08924909               60.68016783                0.86132615                0.09469248                0.09463471               -0.31650346                0.01902589                0.12868051               -0.00217422
              12.44164589               10.08989886               60.55136965                0.86223895                0.13278586                0.13285959               -0.44381929                0.01901050                0.09954473               -0.00360031
              13.44316424               10.09054360               60.42225707                0.86351970                0.17088623                0.17096825               -0.57113560                0.01956287                0.05730713               -0.00582122
              14.44506362               10.09119762               60.29268896                0.93228014                0.18993776                0.21041775               -0.69844022                0.02046093                0.02985222               -0.01245984
               4.56147615                0.10465712               62.61353647                0.93229491               -0.15653420               -0.17652886                0.58533373               -0.02005977                0.01993889               -0.00503480
               5.55991081                0.10153895               62.48281379                0.86349147               -0.13794855               -0.13777483                0.46121275               -0.01895698                0.04709193               -0.00478400
               6.55871718                0.09843497               62.35255509                0.86217751               -0.10085771               -0.10083914                0.33716520               -0.01844334                0.08490865               -0.00191499
               7.55789366                0.09532424               62.22252847                0.86128276               -0.06381037               -0.06356586                0.21310664               -0.01857117                0.10538653               -0.00106079
               8.55744098                0.09220679               62.09263778                0.86075177               -0.02669492               -0.02633302                0.08903763               -0.01858801                0.11616452               -0.00043108
               9.55735976                0.08908163               61.96280394                0.86058357                0.01046073                0.01091081               -0.03504142               -0.01860334                0.11825374                0.00008217
              10.55765019                0.08594853               61.83295105                0.86077381                0.04762819                0.04815554               -0.15913172               -0.01860455                0.11187695                0.00055257
              11.55831232                0.08280719               61.70300448                0.86132528                0.08478991                0.08539559               -0.28323520               -0.01860937                0.09707850                0.00102419
              12.55934599                0.07965674               61.57288924                0.86224106                0.12195090                0.12266587               -0.40735240               -0.01857214                0.07374963                0.00155487
              13.56075134                0.07649668               61.44252850                0.86352733                0.15906283                0.15975569               -0.53148042               -0.01905396                0.04128118                0.00218946
              14.56252725                0.07331345               61.31183510                0.93228654                0.17759040                0.19840812               -0.65561807               -0.01909291                0.02014958                0.00407178
               4.56439373                1.10289183               62.61096538                0.86453032               -0.15614112               -0.17582346                0.58285022               -0.00047480                0.01610495               -0.00371073
               5.56283231                1.10016120               62.48022225                0.72685622               -0.13768111               -0.13752401                0.45872355               -0.00010089                0.04457468               -0.00453287
               6.56164010                1.09742658               62.34996963                0.72424648               -0.10051374               -0.10037563                0.33467311                0.00003310                0.08269866               -0.00138978
               7.56082204                1.09468858               62.21992878                0.72250713               -0.06318517               -0.06316532                0.21060131                0.00010456                0.10202657               -0.00046898
               8.56037640                1.09194345               62.09002144                0.72147741               -0.02595930               -0.02594314                0.08651788                0.00006761                0.11259839               -0.00017546
               9.56030285                1.08919074               61.96016960                0.72115043                0.01124818                0.01129072               -0.03757596                0.00004402                0.11456876               -0.00015350
              10.56060136                1.08643009               61.83029807                0.72152059                0.04846347                0.04852863               -0.16168102                0.00002609                0.10813001               -0.00024516
              11.56127212                1.08366115               61.70033268                0.72259453                0.08570805                0.08576720               -0.28579948                0.00000652                0.09331751               -0.00034339
              12.56231552                1.08088340               61.57019896                0.72437605                0.12301626                0.12301800               -0.40993158               -0.00011041                0.07002110               -0.00032191
              13.56373245                1.07809424               61.43982054                0.72687724                0.16020101                0.16030939               -0.53407508               -0.00015367                0.03815673                0.00005040
              14.56551955                1.07529753               61.30912135                0.86445580                0.17870968                0.19843942               -0.65821889                0.00041425                0.01759084                0.00158796
               4.56692792                2.10114065               62.60833158                0.86446962               -0.15538746               -0.17461800                0.58036087               -0.00051939                0.01305485               -0.00247095
               5.56537404                2.09878847               62.47756614                0.72672766               -0.13687265               -0.13697805                0.45623402               -0.00020973                0.04413391               -0.00311191
               6.56419046                2.09642746               62.34734378                0.72413825               -0.09975832               -0.09959274                0.33219998               -0.00007873                0.08364948               -0.00111901
               7.56337887                2.09406093               62.21730888                0.72244915               -0.06251465               -0.06238647                0.20811482                0.00004291                0.10122151               -0.00020387
               8.56294017                2.09168792               62.08739702                0.72145099               -0.02524329               -0.02517081                0.08401035                0.00006274                0.11102854               -0.00004501
               9.56287401                2.08930745               61.95753619                0.72113244                0.01200660                0.01205515               -0.04010662                0.00003802                0.11265508               -0.00025547
              10.56318030                2.08691910               61.82765363                0.72149416                0.04925640                0.04928955               -0.16423542                0.00000116                0.10607649               -0.00064690
              11.56385914                2.08452254               61.69767684                0.72253857                0.08651962                0.08653519               -0.28837787               -0.00007023                0.09130489               -0.00108322
              12.56491069                2.08211710               61.56753332                0.72427030                0.12375006                0.12381213               -0.41253357               -0.00018422                0.06834896               -0.00140000
              13.56633414                2.07970287               61.43715075                0.72670425                0.16091224                0.16127065               -0.53669529               -0.00024709                0.03730124               -0.00130680
              14.56812894                2.07728224               61.30645841                0.86434008                0.17948007                0.19877070               -0.66083952                0.00021559                0.01726709               -0.00049176
               4.56908770                3.09939947               62.60569681                0.86446760               -0.15463907               -0.17369621                0.57786012               -0.00044843                0.01341536                0.00259171
               5.56754131                3.09742164               62.47493369                0.72672309               -0.13608177               -0.13632407                0.45373744               -0.00015398                0.04445855                0.00168124
               6.56636606                3.09543473               62.34471331                0.72413142               -0.09894362               -0.09893644                0.32970257               -0.00014454                0.08405942                0.00118682
               7.56556243                3.09344085               62.21468286                0.72244236               -0.06174601               -0.06164992                0.20561132               -0.00004743                0.10148627                0.00092229
               8.56513114                3.09144004               62.08477049                0.72144241               -0.02450008               -0.02441067                0.08149381               -0.00000890                0.11086072                0.00044386
               9.56507243                3.08943184               61.95490583                0.72112623                0.01275759                0.01282478               -0.04263892               -0.00001709                0.11220423               -0.00024277
              10.56538629                3.08741588               61.82501748                0.72148831                0.05001422                0.05006953               -0.16678509               -0.00005449                0.10545974               -0.00109027
              11.56607272                3.08539185               61.69503394                0.72253498                0.08726083                0.08733764               -0.29094481               -0.00011514                0.09063841               -0.00205516
              12.56713151                3.08335965               61.56488402                0.72426948                0.12448266                0.12466384               -0.41511560               -0.00018023                0.06778707               -0.00307129
              13.56856237                3.08131965               61.43449715                0.72670570                0.16168009                0.16205723               -0.53928578               -0.00015530                0.03698019               -0.00404562
              14.57036511                3.07927295               61.30380360                0.86434236                0.18027419                0.19941784               -0.66342962                0.00029881                0.01708016               -0.00492269
               4.57087461                4.09766672               62.60307629                0.86446593               -0.15389034               -0.17288297                0.57535263               -0.00041008                0.01361133                0.00802274
               5.56933570                4.09606199               62.47230441                0.72671952               -0.13531244               -0.13559005                0.45123039               -0.00008508                0.04504542                0.00522439
               6.56816836                4.09444873               62.34208347                0.72412869               -0.09815453               -0.09823656                0.32719392               -0.00011191                0.08512491                0.00352542
               7.56737261                4.09282793               62.21205425                0.72243812               -0.06096785               -0.06092447                0.20309749               -0.00008439                0.10263724                0.00218039
               8.56694900                4.09119971               62.08214342                0.72143796               -0.02373919               -0.02365652                0.07897172               -0.00006920                0.11194741                0.00099845
               9.56689783                4.08956394               61.95227909                0.72112229                0.01350996                0.01359330               -0.04517212               -0.00007518                0.11312831               -0.00020342
              10.56721920                4.08792049               61.82238942                0.72148628                0.05076184                0.05085072               -0.16933077               -0.00009372                0.10619295               -0.00153589
              11.56791307                4.08626929               61.69240277                0.72253196                0.08800468                0.08813718               -0.29350300               -0.00011655                0.09117311               -0.00308173
              12.56897929                4.08461038               61.56224794                0.72426943                0.12523326                0.12546473               -0.41768374               -0.00012341                0.06812963               -0.00490764
              13.57041773                4.08294401               61.43185449                0.72670769                0.16245141                0.16281573               -0.54186084               -0.00008640                0.03714599               -0.00706369
              14.57222832                4.08127060               61.30115289                0.86434386                0.18105908                0.20013308               -0.66600643                0.00034068                0.01715197               -0.00957824
               4.57228897                5.09594181               62.60046260                0.86446377               -0.15313729               -0.17211520                0.57283865               -0.00038577                0.01396987                0.01262766
               5.57075760                5.09470984               62.46967416                0.72671632               -0.13455479               -0.13483626                0.44871428               -0.00002366                0.04605252                0.00811934
               6.56959787                5.09346999               62.33945002                0.72412491               -0.09739147               -0.09749209                0.32467671               -0.00005473                0.08702634                0.00533569
               7.56880977                5.09222236               62.20942251                0.72243572               -0.06020615               -0.06017534                0.20057728               -0.00008442                0.10489256                0.00321266
               8.56839375                5.09096691               62.07951595                0.72143689               -0.02298118               -0.02289872                0.07644597               -0.00010981                0.11433327                0.00146958
               9.56835014                5.08970371               61.94965634                0.72112043                0.01426590                0.01435761               -0.04770551               -0.00012186                0.11544920               -0.00015545
              10.56867907                5.08843289               61.81977002                0.72148544                0.05151773                0.05162033               -0.17187273               -0.00011723                0.10828309               -0.00189528
              11.56938050                5.08715460               61.68978385                0.72253283                0.08876258                0.08891072               -0.29605326               -0.00009599                0.09289072               -0.00396183
              12.57045432                5.08586894               61.55962531                0.72427089                0.12599638                0.12623615               -0.42024191               -0.00006262                0.06935233               -0.00655688
              13.57190043                5.08457596               61.42922283                0.72671033                0.16322180                0.16357722               -0.54442429               -0.00002778                0.03778115               -0.00986225
              14.57371876                5.08327561               61.29850615                0.86434536                0.18183306                0.20088503               -0.66857196                0.00037234                0.01746508               -0.01400751
               4.57333083                6.09422442               62.59784704                0.86446207               -0.15237904               -0.17137978                0.57031770               -0.00035921                0.01451684                0.01614120
               5.57180704                6.09336526               62.46703450                0.72671375               -0.13380482               -0.13407462                0.44618931                0.00004083                0.04761692                0.00997072
               6.57065474                6.09249889               62.33680700                0.72412395               -0.09665166               -0.09671020                0.32215201                0.00000337                0.09000356                0.00638366
               7.56987401                6.09162443               62.20678403                0.72243568               -0.05946395               -0.05939785                0.19805166               -0.00008512                0.10847847                0.00376996
               8.56946546                6.09074173               62.07688667                0.72143774               -0.02223008               -0.02213253                0.07391759               -0.00014893                0.11820864                0.00172748
               9.56942941                6.08985109               61.94703776                0.72112288                0.01502539                0.01511644               -0.05023832               -0.00016503                0.11931518               -0.00011042
              10.56976597                6.08895290               61.81716083                0.72148777                0.05228444                0.05237388               -0.17441072               -0.00013781                0.11186113               -0.00206595
              11.57047510                6.08804751               61.68718000                0.72253627                0.08953540                0.08965882               -0.29859683               -0.00007504                0.09590942               -0.00445908
              12.57155667                6.08713510               61.55702004                0.72427405                0.12677049                0.12698564               -0.42279072               -0.00000096                0.07155079               -0.00763505
              13.57301051                6.08621556               61.42660690                0.72671393                0.16399036                0.16434354               -0.54697738                0.00003390                0.03894034               -0.01194564
              14.57483648                6.08528830               61.29586842                0.86434719                0.18259740                0.20167205               -0.67112935                0.00040745                0.01804867               -0.01766700
               4.57400010                7.09251421               62.59521686                0.86446135               -0.15161590               -0.17069789                0.56778826               -0.00031580                0.01532216                0.01807756
               5.57248394                7.09202834               62.46437338                0.72671203               -0.13306644               -0.13328789                0.44365401                0.00011571                0.04993105                0.01034802
               6.57133877                7.09153579               62.33414551                0.72412359               -0.09593620               -0.09588359                0.31961950                0.00003294                0.09438566                0.00637186
               7.57056522                7.09103441               62.20413332                0.72243811               -0.05873332               -0.05860369                0.19552087               -0.00012428                0.11371784                0.00369629
               8.57016411                7.09052426               62.07425310                0.72144133               -0.02147709               -0.02136848                0.07138688               -0.00020011                0.12385509                0.00169617
               9.57013568                7.09000604               61.94442349                0.72112667                0.01578970                0.01586959               -0.05277035               -0.00020726                0.12497968               -0.00006782
              10.57047990                7.08948037               61.81456445                0.72149390                0.05305585                0.05311840               -0.17694478               -0.00016359                0.11718174               -0.00195523
              11.57119680                7.08894777               61.68459644                0.72254144                0.09031748                0.09038806               -0.30113351               -0.00007199                0.10049343               -0.00434570
              12.57228625                7.08840865               61.55444003                0.72427907                0.12755581                0.12770803               -0.42533103                0.00005229                0.07496190               -0.00772478
              13.57374791                7.08786284               61.42401664                0.72671791                0.16475870                0.16510749               -0.54952193                0.00010968                0.04076791               -0.01271647
              14.57558143                7.08730905               61.29325045                0.86434901                0.18335138                0.20251105               -0.67367951                0.00045914                0.01898283               -0.01987831
               4.57429625                8.09081046               62.59255364                0.86446038               -0.15084742               -0.17014068                0.56524662               -0.00023624                0.01652600                0.01776700
               5.57278778                8.09069950               62.46167377                0.72671104               -0.13234592               -0.13240251                0.44110448                0.00015706                0.05332362                0.00859180
               6.57164934                8.09058122               62.33145367                0.72412630               -0.09523611               -0.09503008                0.31707677               -0.00005496                0.10068941                0.00510380
               7.57088306                8.09045235               62.20146366                0.72244376               -0.05797554               -0.05784201                0.19298360               -0.00020762                0.12105871                0.00294659
               8.57048982                8.09031436               62.07161232                0.72145011               -0.02069526               -0.02061975                0.06885337               -0.00023979                0.13161828                0.00135882
               9.57046915                8.09016849               61.94181374                0.72113587                0.01655666                0.01661927               -0.05530134               -0.00022046                0.13275865               -0.00002584
              10.57082096                8.09001527               61.81198429                0.72150219                0.05381109                0.05386839               -0.17947430               -0.00018041                0.12460267               -0.00152155
              11.57154537                8.08985527               61.68204053                0.72254923                0.09108504                0.09112543               -0.30366203               -0.00009716                0.10708622               -0.00348091
              12.57264266                8.08968926               61.55189754                0.72428531                0.12834652                0.12840469               -0.42785936                0.00005244                0.08005286               -0.00642826
              13.57411230                8.08951771               61.42146876                0.72672165                0.16552890                0.16582984               -0.55205244                0.00018809                0.04358201               -0.01132873
              14.57595324                8.08933852               61.29067085                0.86435056                0.18409320                0.20345249               -0.67621675                0.00054507                0.02046165               -0.01963729
               4.57421729                9.08911140               62.58983118                0.86445768               -0.15009659               -0.16984095                0.56268766               -0.00027480                0.01822978                0.01311593
               5.57271633                9.08938029               62.45891043                0.72671036               -0.13162360               -0.13134624                0.43853582               -0.00000864                0.05846877                0.00438724
               6.57158482                9.08963519               62.32871866                0.72413126               -0.09442048               -0.09434333                0.31452077               -0.00018955                0.10986099                0.00281947
               7.57082792                9.08987756               62.19876865                0.72245330               -0.05708211               -0.05712734                0.19043751               -0.00023717                0.13100054                0.00162947
               8.57044318                9.09011186               62.06896152                0.72146082               -0.01987770               -0.01988610                0.06631584               -0.00018229                0.14182480                0.00075858
               9.57043037                9.09033842               61.93920867                0.72114959                0.01731657                0.01737276               -0.05783131               -0.00015596                0.14296264                0.00000220
              10.57078951                9.09055774               61.80942378                0.72151550                0.05452452                0.05463677               -0.18199780               -0.00013534                0.13451605               -0.00082193
              11.57152086                9.09077028               61.67952031                0.72256005                0.09176740                0.09189908               -0.30617982               -0.00011010                0.11630702               -0.00192938
              12.57262486                9.09097675               61.54940838                0.72429438                0.12907816                0.12916386               -0.43037135               -0.00000316                0.08776816               -0.00367705
              13.57410242                9.09117943               61.41899011                0.72672780                0.16629215                0.16646096               -0.55456209                0.00016836                0.04813884               -0.00684696
              14.57595070                9.09137810               61.28816049                0.86435299                0.18482839                0.20459236               -0.67873305                0.00054636                0.02288823               -0.01431876
               4.57375297               10.08741364               62.58698911                0.93222913               -0.14891503               -0.16977571                0.56009769                0.01946080                0.02417201                0.01142280
               5.57226382               10.08807258               62.45606012                0.86335602               -0.13023467               -0.13077167                0.43594304                0.01878419                0.06804639                0.00333992
               6.57114827               10.08869435               62.32593342                0.86206902               -0.09310882               -0.09408387                0.31194791                0.01820656                0.12282594                0.00268013
               7.57040164               10.08930981               62.19604371                0.86123073               -0.05614761               -0.05677577                0.18787956                0.01848671                0.14378861                0.00156174
               8.57002532               10.08991664               62.06629863                0.86073559               -0.01907406               -0.01952197                0.06377213                0.01852074                0.15469757                0.00064076
               9.57002016               10.09051594               61.93660821                0.86057983                0.01805349                0.01775181               -0.06036101                0.01854739                0.15580655               -0.00022330
              10.57038639               10.09110800               61.80688519                0.86076301                0.05520018                0.05502669               -0.18451400                0.01855329                0.14722702               -0.00112482
              11.57112416               10.09169325               61.67704185                0.86128523                0.09235273                0.09229659               -0.30868279                0.01855754                0.12872067               -0.00218268
              12.57223345               10.09227254               61.54698617                0.86215129                0.12950784                0.12957951               -0.43286164                0.01854245                0.09956987               -0.00361403
              13.57371432               10.09284693               61.41661606                0.86336652                0.16666920                0.16674939               -0.55704084                0.01908120                0.05732692               -0.00584235
              14.57556683               10.09343037               61.28579058                0.93217701                0.18525106                0.20522666               -0.68120893                0.01995665                0.02986438               -0.01249566
               4.69301901                0.10719025               63.61931587                0.93218791               -0.15257411               -0.17206234                0.57052314               -0.01955162                0.01997239               -0.00503918
               5.69149327                0.10409510               63.48736768                0.86333665               -0.13445919               -0.13428977                0.44954652               -0.01847659                0.04717414               -0.00478276
               6.69032983                0.10101379               63.35588419                0.86209087               -0.09830802               -0.09829016                0.32864146               -0.01797605                0.08503138               -0.00190521
               7.68952711                0.09792589               63.22463268                0.86124328               -0.06219942               -0.06196125                0.20772642               -0.01810087                0.10550569               -0.00105290
               8.68908584                0.09483143               63.09351699                0.86074212               -0.02602436               -0.02567169                0.08680084               -0.01811725                0.11627749               -0.00042629
               9.68900662                0.09172947               62.96245805                0.86058161                0.01018988                0.01062867               -0.03413471               -0.01813216                0.11835716                0.00008398
              10.68928964                0.08861977               62.83137996                0.86076173                0.04641573                0.04692979               -0.15508098               -0.01813325                0.11196663                0.00055106
              11.68993494                0.08550204               62.70020805                0.86128300                0.08263611                0.08322635               -0.27604034               -0.01813797                0.09715020                0.00101925
              12.69094236                0.08237543               62.56886734                0.86215070                0.11885578                0.11955243               -0.39701299               -0.01810162                0.07380146                0.00154699
              13.69231205                0.07923945               62.43728102                0.86336969                0.15502746                0.15570249               -0.51799622               -0.01857085                0.04131257                0.00217773
              14.69404291                0.07608091               62.30536195                0.93218067                0.17308556                0.19337533               -0.63898866               -0.01860887                0.02016322                0.00406583
               4.69591865                1.10546963               63.61672026                0.86431972               -0.15219115               -0.17137469                0.56810297               -0.00046253                0.01612325               -0.00370371
               5.69439674                1.10275220               63.48475156                0.72655207               -0.13419871               -0.13404542                0.44712075               -0.00009825                0.04464308               -0.00452055
               6.69323468                1.10003089               63.35327413                0.72407829               -0.09797282               -0.09783845                0.32621309                0.00003213                0.08280377               -0.00136251
               7.69243728                1.09730628               63.22200825                0.72243158               -0.06158992               -0.06157096                0.20528492                0.00010163                0.10212213               -0.00044655
               8.69200288                1.09457472               63.09087578                0.72145737               -0.02530728               -0.02529174                0.08434510                0.00006561                0.11268694               -0.00016209
               9.69193114                1.09183576               62.95979869                0.72114622                0.01095738                0.01099886               -0.03660466                0.00004262                0.11464756               -0.00015017
              10.69222202                1.08908907               62.82870181                0.72149835                0.04722972                0.04729340               -0.15756540                0.00002519                0.10819487               -0.00025252
              11.69287573                1.08633430               62.69751093                0.72251289                0.08353069                0.08358859               -0.27853936                0.00000620                0.09336449               -0.00036149
              12.69389264                1.08357095               62.56615160                0.72420143                0.11989379                0.11989570               -0.39952678               -0.00010766                0.07004787               -0.00035024
              13.69527361                1.08079647               62.43454745                0.72657303                0.15613639                0.15624209               -0.52052450               -0.00014963                0.03816711                0.00001412
              14.69701537                1.07801466               62.30262251                0.86425029                0.17417598                0.19340549               -0.64152210                0.00040396                0.01758780                0.00155723
               4.69844462                2.10376276               63.61406189                0.86426265               -0.15145672               -0.17019970                0.56567718               -0.00050606                0.01306608               -0.00245814
               5.69693005                2.10141419               63.48207087                0.72642935               -0.13341083               -0.13351351                0.44469468               -0.00020438                0.04420327               -0.00309214
               6.69577640                2.09905702               63.35062386                0.72397615               -0.09723660               -0.09707552                0.32380302               -0.00007687                0.08374904               -0.00108610
               7.69498532                2.09669447               63.21936381                0.72237602               -0.06093645               -0.06081192                0.20286163                0.00004163                0.10129312               -0.00017491
               8.69455767                2.09432560               63.08822660                0.72142982               -0.02460943               -0.02453907                0.08190128                0.00006076                0.11108832               -0.00002751
               9.69449313                2.09194945               62.95714029                0.72112945                0.01169660                0.01174375               -0.03907074                0.00003656                0.11270367               -0.00025156
              10.69479160                2.08956564               62.82603215                0.72147112                0.04800254                0.04803500               -0.16005494                0.00000071                0.10611064               -0.00065764
              11.69545318                2.08717381               62.69482964                0.72246040                0.08432156                0.08433714               -0.28105243               -0.00006879                0.09132125               -0.00110849
              12.69647803                2.08477334               62.56346027                0.72410198                0.12060872                0.12066961               -0.40206228               -0.00017994                0.06834793               -0.00143876
              13.69786535                2.08236429               62.43185178                0.72640696                0.15682941                0.15717895               -0.52307785               -0.00024136                0.03729517               -0.00135325
              14.69961462                2.07994902               62.29993370                0.86414047                0.17492683                0.19372851               -0.64407649                0.00020988                0.01725620               -0.00053271
               4.70060566                3.10206564               63.61140243                0.86426112               -0.15072733               -0.16930134                0.56323972               -0.00043689                0.01342632                0.00260918
               5.69909839                3.10008193               63.47941377                0.72642394               -0.13264007               -0.13287620                0.44226182               -0.00014991                0.04452553                0.00170346
               6.69795286                3.09808938               63.34796874                0.72397094               -0.09644260               -0.09643591                0.32136933               -0.00014085                0.08415185                0.00121061
               7.69716954                3.09609004               63.21671308                0.72236950               -0.06018745               -0.06009406                0.20042178               -0.00004630                0.10154431                0.00094316
               8.69674911                3.09408394               63.08557522                0.72142144               -0.02388532               -0.02379831                0.07944912               -0.00000898                0.11090211                0.00045669
               9.69669183                3.09207064               62.95448494                0.72112107                0.01242844                0.01249380               -0.04153867               -0.00001704                0.11223257               -0.00024068
              10.69699768                3.09004977               62.82337083                0.72146605                0.04874103                0.04879504               -0.16253951               -0.00005344                0.10547289               -0.00109979
              11.69766665                3.08802104               62.69216140                0.72245550                0.08504381                0.08511902               -0.28355367               -0.00011268                0.09063453               -0.00207662
              12.69869856                3.08598434               62.56078547                0.72409937                0.12132262                0.12149954               -0.40457831               -0.00017614                0.06776954               -0.00310248
              13.70009310                3.08394005               62.42917260                0.72640832                0.15757801                0.15794562               -0.52560342               -0.00015168                0.03696510               -0.00408139
              14.70185012                3.08188923               62.29725331                0.86414268                0.17570133                0.19435976               -0.64660282                0.00029103                0.01706487               -0.00495627
               4.70240328                4.10037673               63.60875715                0.86425962               -0.14999751               -0.16850873                0.56079567               -0.00039957                0.01362211                0.00804730
               5.70090331                4.09875667               63.47675974                0.72642279               -0.13189028               -0.13216082                0.43981843               -0.00008280                0.04511110                0.00524822
               6.69976548                4.09712830               63.34531414                0.72396670               -0.09567370               -0.09575380                0.31892458               -0.00010908                0.08521287                0.00354747
               7.69898983                4.09549259               63.21405964                0.72236491               -0.05942917               -0.05938711                0.19797216               -0.00008245                0.10268746                0.00219784
               8.69857689                4.09384963               63.08292326                0.72141867               -0.02314384               -0.02306342                0.07699139               -0.00006765                0.11197794                0.00100911
               9.69852696                4.09219933               62.95183319                0.72111811                0.01316157                0.01324274               -0.04400741               -0.00007345                0.11314379               -0.00020240
              10.69884013                4.09054154               62.82071764                0.72146398                0.04946957                0.04955618               -0.16501992               -0.00009161                0.10619227               -0.00154511
              11.69951635                4.08887619               62.68950497                0.72245448                0.08576874                0.08589798               -0.28604608               -0.00011378                0.09115631               -0.00310174
              12.70055550                4.08720333               62.55812404                0.72410078                0.12205421                0.12228001               -0.40708138               -0.00012030                0.06810278               -0.00493687
              13.70195743                4.08552320               62.42650452                0.72640979                0.15832959                0.15868473               -0.52811247               -0.00008428                0.03712584               -0.00709803
              14.70372209                4.08383621               62.29457717                0.86414305                0.17646590                0.19505662               -0.64911299                0.00033176                0.01713386               -0.00961419
               4.70383780                5.09869546               63.60611864                0.86425750               -0.14926364               -0.16776063                0.55834578               -0.00037592                0.01398086                0.01265999
               5.70234516                5.09743872               63.47410465                0.72641789               -0.13115201               -0.13142632                0.43736664               -0.00002316                0.04611859                0.00814520
               6.70121476                5.09617430               63.34265583                0.72396305               -0.09493022               -0.09502838                0.31647172               -0.00005348                0.08711378                0.00535782
               7.70044656                5.09490230               63.21140302                0.72236249               -0.05868689               -0.05865716                0.19551632               -0.00008250                0.10494044                0.00322967
               8.70004102                5.09362267               63.08027085                0.72141632               -0.02240504               -0.02232497                0.07453001               -0.00010726                0.11435916                0.00147928
               9.69999846                5.09233549               62.94918542                0.72111746                0.01389822                0.01398754               -0.04647604               -0.00011898                0.11545822               -0.00015474
              10.70031899                5.09104089               62.81807314                0.72146126                0.05020621                0.05030622               -0.16749725               -0.00011443                0.10827559               -0.00190474
              11.70100258                5.08973900               62.68686087                0.72245479                0.08650750                0.08665192               -0.28853192               -0.00009348                0.09286713               -0.00398108
              12.70204914                5.08842994               62.55547614                0.72410239                0.12279780                0.12303184               -0.40957413               -0.00006098                0.06932065               -0.00658564
              13.70345854                5.08711375               62.42384756                0.72641230                0.15908018                0.15942686               -0.53061041               -0.00002731                0.03775919               -0.00989900
              14.70523074                5.08579036               62.29190511                0.86414488                0.17722016                0.19578944               -0.65161391                0.00036269                0.01744631               -0.01405028
               4.70490925                6.09702152               63.60347819                0.86425593               -0.14852494               -0.16704420                0.55588985               -0.00035020                0.01452788                0.01617998
               5.70342400                6.09612814               63.47144007                0.72641623               -0.13042121               -0.13068422                0.43490639                0.00003959                0.04768565                0.00999798
               6.70230083                6.09522774               63.33998789                0.72396219               -0.09420921               -0.09426654                0.31401177                0.00000318                0.09009575                0.00640631
               7.70153982                6.09431945               63.20873961                0.72236253               -0.05796370               -0.05789958                0.19305540               -0.00008301                0.10852917                0.00378704
               8.70114156                6.09340313               63.07761660                0.72141728               -0.02167320               -0.02157829                0.07206607               -0.00014516                0.11823548                0.00173694
               9.70110636                6.09247908               62.94654184                0.72111811                0.01463845                0.01472705               -0.04894434               -0.00016088                0.11932385               -0.00010966
              10.70143432                6.09154766               62.81543889                0.72146564                0.05095352                0.05104070               -0.16997099               -0.00013427                0.11185284               -0.00207511
              11.70212543                6.09060923               62.68423190                0.72245745                0.08726055                0.08738113               -0.29101100               -0.00007291                0.09588550               -0.00447792
              12.70317954                6.08966397               62.55284572                0.72410533                0.12355210                0.12376227               -0.41205794               -0.00000086                0.07151820               -0.00766363
              13.70459647                6.08871174               62.42120640                0.72641592                0.15982924                0.16017379               -0.53309904                0.00003289                0.03891773               -0.01198464
              14.70637612                6.08775200               62.28924211                0.86414690                0.17796520                0.19655666               -0.65410689                0.00039689                0.01802993               -0.01771639
               4.70561755                7.09535458               63.60082304                0.86425544               -0.14778119               -0.16637968                0.55342490               -0.00030787                0.01533498                0.01811903
               5.70413974                7.09482503               63.46875392                0.72641515               -0.12970159               -0.12991747                0.43243531                0.00011270                0.05000581                0.01037400
               6.70302352                7.09428897               63.33730140                0.72396273               -0.09351195               -0.09346096                0.31154346                0.00003195                0.09448754                0.00639366
               7.70226950                7.09374431               63.20606392                0.72236602               -0.05725164               -0.05712562                0.19058881               -0.00012111                0.11377685                0.00371238
               8.70187849                7.09319110               63.07495805                0.72142144               -0.02093940               -0.02083370                0.06959978               -0.00019478                0.12388879                0.00170540
               9.70185071                7.09263003               62.94390258                0.72112349                0.01538316                0.01546105               -0.05141185               -0.00020172                0.12499421               -0.00006695
              10.70218615                7.09206170               62.81281749                0.72146889                0.05170524                0.05176631               -0.17244061               -0.00015926                0.11717862               -0.00196341
              11.70288482                7.09148663               62.68162330                0.72246284                0.08802275                0.08809180               -0.29348295               -0.00006999                0.10047409               -0.00436342
              12.70394661                7.09090519               62.55024064                0.72410967                0.12431731                0.12446614               -0.41453287                0.00005115                0.07493332               -0.00775275
              13.70537116                7.09031722               62.41859104                0.72641875                0.16057780                0.16091821               -0.53557785                0.00010698                0.04074829               -0.01275582
              14.70715816                7.08972149               62.28659898                0.86414906                0.17869975                0.19737430               -0.65659150                0.00044745                0.01896622               -0.01993281
               4.70596219                8.09369393               63.59813471                0.86425303               -0.14703216               -0.16583655                0.55094745               -0.00023024                0.01654282                0.01780778
               5.70449186                8.09352979               63.46602913                0.72641393               -0.12899946               -0.12905451                0.42995076                0.00015295                0.05340906                0.00861221
               6.70338220                8.09335852               63.33458445                0.72396553               -0.09282978               -0.09262917                0.30906550               -0.00005382                0.10080782                0.00512192
               7.70263527                8.09317693               63.20336920                0.72237065               -0.05651316               -0.05638329                0.18811583               -0.00020238                0.12113259                0.00296023
               8.70225193                8.09298646               63.07229225                0.72142877               -0.02017745               -0.02010406                0.06713082               -0.00023358                0.13166557                0.00136683
               9.70223172                8.09278830               62.94126783                0.72113291                0.01613057                0.01619159               -0.05387822               -0.00021462                0.13278552               -0.00002467
              10.70257454                8.09258299               62.81021236                0.72147800                0.05244113                0.05249717               -0.17490554               -0.00017559                0.12461115               -0.00152800
              11.70328054                8.09237106               62.67904243                0.72247030                0.08877075                0.08881037               -0.29594711               -0.00009458                0.10707763               -0.00349612
              12.70434996                8.09215329               62.54767318                0.72411460                0.12508795                0.12514515               -0.41699707                0.00005143                0.08003353               -0.00645229
              13.70578230                8.09193011               62.41601818                0.72642386                0.16132842                0.16162222               -0.53804410                0.00018391                0.04356765               -0.01136413
              14.70757653                8.09169949               62.28399432                0.86415040                0.17942272                0.19829171               -0.65906404                0.00053159                0.02044727               -0.01969189
               4.70594121                9.09203785               63.59538700                0.86425223               -0.14630055               -0.16554461                0.54845400               -0.00026794                0.01825027                0.01314771
               5.70447821                9.09224394               63.46324044                0.72641388               -0.12829558               -0.12802491                0.42744761               -0.00000884                0.05856885                0.00439735
               6.70337530                9.09243639               63.33182421                0.72397000               -0.09203494               -0.09196002                0.30657445               -0.00018495                0.11000385                0.00283047
               7.70263751                9.09261664               63.20064906                0.72238011               -0.05564263               -0.05568681                0.18563481               -0.00023118                0.13109699                0.00163801
               8.70226245                9.09278902               63.06961640                0.72144027               -0.01938088               -0.01938904                0.06465796               -0.00017759                0.14189334                0.00076361
               9.70224989                9.09295386               62.93863778                0.72114436                0.01687113                0.01692588               -0.05634375               -0.00015188                0.14300976                0.00000323
              10.70259987                9.09311165               62.80762694                0.72149129                0.05313653                0.05324587               -0.17736452               -0.00013182                0.13454347               -0.00082536
              11.70331262                9.09326283               62.67649735                0.72248185                0.08943593                0.08956428               -0.29840069               -0.00010709                0.11631686               -0.00193882
              12.70438859                9.09340809               62.54515921                0.72412339                0.12580117                0.12588514               -0.41944580               -0.00000251                0.08776605               -0.00369193
              13.70582865                9.09354967               62.41351476                0.72643032                0.16207208                0.16223717               -0.54048929                0.00016485                0.04813519               -0.00686895
              14.70763003                9.09368733               62.28145912                0.86415158                0.18013869                0.19940210               -0.66151446                0.00053263                0.02287986               -0.01435743
               4.70554464               10.09038304               63.59251937                0.93212611               -0.14514894               -0.16548119                0.54592993                0.01896803                0.02420509                0.01145347
               5.70409315               10.09096930               63.46036453                0.86320788               -0.12694167               -0.12746480                0.42492045                0.01830771                0.06817062                0.00334892
               6.70300580               10.09151932               63.32901356                0.86198842               -0.09075661               -0.09170722                0.30406692                0.01774497                0.12300202                0.00269060
               7.70227801               10.09206320               63.19789886                0.86119367               -0.05473218               -0.05534417                0.18314196                0.01801842                0.14391570                0.00156932
               8.70191116               10.09259868               63.06692840                0.86072503               -0.01859791               -0.01903415                0.06217900                0.01805166                0.15479629                0.00064472
               9.70190606               10.09312682               62.93601235                0.86057844                0.01758902                0.01729530               -0.05880902                0.01807756                0.15588377               -0.00022304
              10.70226294               10.09364791               62.80506352                0.86075170                0.05379504                0.05362580               -0.17981651                0.01808319                0.14728367               -0.00112826
              11.70298196               10.09416235               62.67399418                0.86124614                0.09000677                0.08995164               -0.30083986                0.01808768                0.12875905               -0.00219137
              12.70406307               10.09467099               62.54271242                0.86206592                0.12622019                0.12629020               -0.42187239                0.01807317                0.09959621               -0.00362741
              13.70550636               10.09517485               62.41111625                0.86321683                0.16243932                0.16251803               -0.54290365                0.01859805                0.05734685               -0.00586049
              14.70731186               10.09568753               62.27906478                0.93207700                0.18055004                0.20001984               -0.66392567                0.01945052                0.02987506               -0.01252844
               4.82577199                0.10974755               64.62494693                0.93208494               -0.14860129               -0.16758164                0.55566570               -0.01904195                0.02000406               -0.00504318
               5.82428597                0.10667553               64.49180472                0.86318575               -0.13095867               -0.13079343                0.43784281               -0.01799476                0.04725375               -0.00478127
               6.82315281                0.10361699               64.35912792                0.86200602               -0.09575024               -0.09573294                0.32009065               -0.01750725                0.08515134               -0.00189538
               7.82237097                0.10055203               64.22668299                0.86120568               -0.06058325               -0.06035129                0.20232857               -0.01762893                0.10562214               -0.00104526
               8.82194115                0.09748069               64.09437380                0.86073145               -0.02535134               -0.02500774                0.08455542               -0.01764499                0.11638736               -0.00042171
               9.82186394                0.09440203               63.96212124                0.86057973                0.00991874                0.01034610               -0.03322674               -0.01765942                0.11845799                0.00008570
              10.82213952                0.09131584               63.82984943                0.86075002                0.04520012                0.04570077               -0.15101956               -0.01766057                0.11205388                0.00054984
              11.82276794                0.08822183               63.69748367                0.86124326                0.08047624                0.08105107               -0.26882526               -0.01766526                0.09721970                0.00101498
              12.82374905                0.08511917               63.56494898                0.86206346                0.11575169                0.11643016               -0.38664413               -0.01762968                0.07385174                0.00153886
              13.82508298                0.08200739               63.43216858                0.86321653                0.15098024                0.15163759               -0.50447292               -0.01808654                0.04134272                0.00216718
              14.82676865                0.07887365               63.29905533                0.93207742                0.16856743                0.18832810               -0.62231074               -0.01812363                0.02017571                0.00406222
               4.82865359                1.10807174               64.62232744                0.86411635               -0.14822850               -0.16691180                0.55330901               -0.00045012                0.01613969               -0.00369668
               5.82717131                1.10536759               64.48916466                0.72625594               -0.13070515               -0.13055568                0.43548072               -0.00009567                0.04470898               -0.00450830
               6.82603949                1.10265966               64.35649389                0.72391671               -0.09542374               -0.09529305                0.31772563                0.00003110                0.08290623               -0.00133548
               7.82526283                1.09994852               64.22403447                0.72235800               -0.05998955               -0.05997121                0.19995083                0.00009893                0.10221535               -0.00042460
               8.82483970                1.09723061               64.09170835                0.72143578               -0.02465293               -0.02463783                0.08216411                0.00006376                0.11277317               -0.00014913
               9.82476977                1.09450550               63.95943751                0.72114383                0.01066622                0.01070653               -0.03563189                0.00004137                0.11472464               -0.00014691
              10.82505302                1.09177285               63.82714677                0.72147495                0.04599274                0.04605481               -0.15343867                0.00002438                0.10825805               -0.00025952
              11.82568963                1.08903234               63.69476189                0.72243558                0.08134728                0.08140376               -0.27125858                0.00000580                0.09340942               -0.00037891
              12.82667997                1.08628347               63.56220842                0.72403232                0.11676227                0.11676435               -0.38909179               -0.00010501                0.07007396               -0.00037763
              13.82802487                1.08352377               63.42941005                0.72627494                0.15205979                0.15216307               -0.50693446               -0.00014565                0.03817849               -0.00002041
              14.82972116                1.08075693               63.29629091                0.86405096                0.16962901                0.18835719               -0.62477716                0.00039350                0.01758644                0.00152822
               4.83117127                2.10640932               64.61964513                0.86406186               -0.14751346               -0.16576752                0.55094687               -0.00049269                0.01307579               -0.00244641
               5.82969613                2.10406441               64.48646003                0.72613897               -0.12993797               -0.13003802                0.43311877               -0.00019915                0.04427050               -0.00307247
               6.82857251                2.10171113               64.35381984                0.72381870               -0.09470673               -0.09455013                0.31537877               -0.00007515                0.08384604               -0.00105375
               7.82780200                2.09935261               64.22136611                0.72230486               -0.05935307               -0.05923204                0.19759068                0.00004024                0.10136265               -0.00014720
               8.82738545                2.09698793               64.08903504                0.72141013               -0.02397326               -0.02390499                0.07978442                0.00005895                0.11114666               -0.00001026
               9.82732253                2.09461617               63.95675477                0.72112600                0.01138611                0.01143186               -0.03803330                0.00003534                0.11275131               -0.00024777
              10.82761317                2.09223693               63.82445253                0.72145114                0.04674521                0.04677686               -0.15586241                0.00000038                0.10614348               -0.00066816
              11.82825744                2.08984990               63.69205580                0.72238464                0.08211727                0.08213263               -0.27370530               -0.00006729                0.09133653               -0.00113344
              12.82925552                2.08745445               63.55949208                0.72393698                0.11745840                0.11751792               -0.39156057               -0.00017543                0.06834723               -0.00147608
              13.83060661                2.08505065               63.42668919                0.72611881                0.15273454                0.15307526               -0.50942036               -0.00023511                0.03728989               -0.00139860
              14.83231021                2.08264079               63.29357688                0.86394554                0.17035997                0.18867144               -0.62726384                0.00020425                0.01724613               -0.00057369
               4.83333354                3.10475639               64.61696161                0.86405990               -0.14680321               -0.16489285                0.54857361               -0.00042551                0.01343785                0.00262557
               5.83186551                3.10276683               64.48377892                0.72613612               -0.12918748               -0.12941756                0.43074994               -0.00014603                0.04459105                0.00172518
               6.83074979                3.10076866               64.35114070                0.72381184               -0.09393366               -0.09392733                0.31300904               -0.00013725                0.08424107                0.00123354
               7.82998684                3.09876388               64.21869130                0.72229795               -0.05862358               -0.05853304                0.19521492               -0.00004540                0.10160090                0.00096310
               8.82957732                3.09675251               64.08635947                0.72140317               -0.02326795               -0.02318368                0.07739655               -0.00000918                0.11094274                0.00046936
               9.82952148                3.09473413               63.95407506                0.72111739                0.01209870                0.01216228               -0.04043661               -0.00001711                0.11225999               -0.00023874
              10.82981929                3.09270838               63.82176669                0.72144364                0.04746431                0.04751707               -0.15828212               -0.00005249                0.10548517               -0.00110931
              11.83047076                3.09067499               63.68936287                0.72237972                0.08282060                0.08289411               -0.27614133               -0.00010991                0.09063027               -0.00209728
              12.83147571                3.08863383               63.55679245                0.72393525                0.11815359                0.11832617               -0.39401096               -0.00017172                0.06775268               -0.00313298
              13.83283383                3.08658527               63.42398508                0.72611890                0.15346357                0.15382182               -0.51188006               -0.00014805                0.03695010               -0.00411702
              14.83454498                3.08453036               63.29087154                0.86394745                0.17111425                0.18928638               -0.62972478                0.00028327                0.01704893               -0.00499009
               4.83514186                4.10311146               64.61429221                0.86405845               -0.14609238               -0.16412104                0.54619353               -0.00038916                0.01363310                0.00807142
               5.83368094                4.10147606               64.48110078                0.72613252               -0.12845725               -0.12872087                0.42837022               -0.00008053                0.04517501                0.00527102
               6.83257272                4.09983258               64.34846197                0.72380816               -0.09318495               -0.09326312                0.31062837               -0.00010612                0.08529819                0.00356894
               7.83181724                4.09818195               64.21601369                0.72229344               -0.05788538               -0.05784474                0.19282997               -0.00008042                0.10273672                0.00221546
               8.83141501                4.09652426               64.08368325                0.72139725               -0.02254602               -0.02246805                0.07500331               -0.00006627                0.11200799                0.00101933
               9.83136632                4.09485941               63.95139894                0.72111519                0.01281266                0.01289161               -0.04284059               -0.00007200                0.11315893               -0.00020121
              10.83167126                4.09318728               63.81908903                0.72144013                0.04817385                0.04825843               -0.16069821               -0.00008947                0.10619217               -0.00155440
              11.83232980                4.09150778               63.68668185                0.72237839                0.08352660                0.08365269               -0.27856860               -0.00011082                0.09113985               -0.00312087
              12.83334180                4.08982098               63.55410631                0.72393576                0.11886597                0.11908611               -0.39644811               -0.00011740                0.06807597               -0.00496431
              13.83470712                4.08812709               63.42129224                0.72612108                0.15419559                0.15454171               -0.51432379               -0.00008253                0.03710587               -0.00713150
              14.83642571                4.08642652               63.28817063                0.86394773                0.17185916                0.18996535               -0.63217013                0.00032290                0.01711553               -0.00965001
               4.83659655                5.10147397               64.61162951                0.86405694               -0.14537763               -0.16339246                0.54380750               -0.00036599                0.01399150                0.01269162
               5.83514277                5.10019242               64.47842149                0.72612946               -0.12773826               -0.12800554                0.42598254               -0.00002236                0.04618288                0.00817065
               6.83404178                5.09890340               64.34577945                0.72380513               -0.09246098               -0.09255675                0.30824012               -0.00005204                0.08719922                0.00537987
               7.83329355                5.09760698               64.21333284                0.72229189               -0.05716266               -0.05713392                0.19043856               -0.00008034                0.10498705                0.00324658
               8.83289853                5.09630315               64.08100655                0.72139659               -0.02182675               -0.02174890                0.07260641               -0.00010444                0.11438443                0.00148882
               9.83285702                5.09499196               63.94872682                0.72111296                0.01353004                0.01361687               -0.04524446               -0.00011594                0.11546706               -0.00015397
              10.83316913                5.09367355               63.81642008                0.72144088                0.04889134                0.04898870               -0.16311031               -0.00011149                0.10826828               -0.00191391
              11.83383485                5.09234804               63.68401322                0.72237834                0.08424591                0.08438673               -0.28098899               -0.00009108                0.09284508               -0.00400032
              12.83485405                5.09101555               63.55143383                0.72393727                0.11958990                0.11981802               -0.39887484               -0.00005948                0.06928947               -0.00661300
              13.83622664                5.08967611               63.41861062                0.72612296                0.15492657                0.15526432               -0.51675601               -0.00002665                0.03773584               -0.00993394
              14.83795258                5.08832966               63.28547388                0.86395038                0.17259382                0.19067903               -0.63460581                0.00035317                0.01742549               -0.01409202
               4.83769764                6.09984361               64.60896483                0.86405634               -0.14465818               -0.16269458                0.54141529               -0.00034094                0.01453918                0.01621763
               5.83625106                6.09891595               64.47573263                0.72612664               -0.12702663               -0.12728278                0.42358665                0.00003859                0.04775283                0.01002449
               6.83515711                6.09798145               64.34308724                0.72380468               -0.09175894               -0.09181485                0.30584462                0.00000294                0.09018516                0.00642835
               7.83441588                6.09703927               64.21064514                0.72229145               -0.05645837               -0.05639608                0.18804181               -0.00008087                0.10857824                0.00380338
               8.83402794                6.09608928               64.07832799                0.72139722               -0.02111408               -0.02102181                0.07020716               -0.00014129                0.11826161                0.00174631
               9.83399360                6.09513175               63.94605887                0.72111487                0.01425075                0.01433701               -0.04764813               -0.00015662                0.11933237               -0.00010905
              10.83431296                6.09416705               63.81376141                0.72144215                0.04961895                0.04970389               -0.16551914               -0.00013081                0.11184449               -0.00208396
              11.83498598                6.09319552               63.68135978                0.72238172                0.08497924                0.08509686               -0.28340318               -0.00007119                0.09586238               -0.00449663
              12.83601254                6.09221734               63.54877889                0.72393788                0.12032453                0.12052944               -0.40129424               -0.00000079                0.07148710               -0.00769204
              13.83739247                6.09123238               63.41594491                0.72612642                0.15565603                0.15599164               -0.51917973                0.00003246                0.03889476               -0.01202265
              14.83912566                6.09024010               63.28278628                0.86395158                0.17331928                0.19142598               -0.63703322                0.00038690                0.01800908               -0.01776537
               4.83844505                7.09822007               64.60628536                0.86405494               -0.14393398               -0.16204749                0.53901476               -0.00029987                0.01534748                0.01816020
               5.83700571                7.09764676               64.47302209                0.72612549               -0.12632597               -0.12653616                0.42118037                0.00010936                0.05007870                0.01039930
               6.83591853                7.09706710               64.34037638                0.72380565               -0.09108001               -0.09103033                0.30344093                0.00003078                0.09458670                0.00641447
               7.83518411                7.09647906               64.20794510                0.72229336               -0.05576499               -0.05564241                0.18563980               -0.00011803                0.11383447                0.00372790
               8.83480323                7.09588271               64.07564509                0.72140259               -0.02039946               -0.02029679                0.06780565               -0.00018964                0.12392188                0.00171434
               9.83477612                7.09527871               63.94339526                0.72111977                0.01497600                0.01505175               -0.05005085               -0.00019636                0.12500822               -0.00006594
              10.83510275                7.09466763               63.81111564                0.72144785                0.05035090                0.05041058               -0.16792426               -0.00015503                0.11717524               -0.00197158
              11.83578313                7.09404998               63.67872678                0.72238597                0.08572144                0.08578910               -0.28581073               -0.00006810                0.10045558               -0.00438114
              12.83681718                7.09342614               63.54614938                0.72394370                0.12106989                0.12121517               -0.40370514                0.00004993                0.07490582               -0.00778061
              13.83820453                7.09279594               63.41330509                0.72613078                0.15638513                0.15671657               -0.52159397                0.00010451                0.04072706               -0.01279553
              14.83994488                7.09215818               63.28011862                0.86395228                0.17403459                0.19222196               -0.63945182                0.00043602                0.01894591               -0.01998661
               4.83883827                8.09660266               64.60357259                0.86405264               -0.14320507               -0.16151908                0.53660389               -0.00022431                0.01655819                0.01784831
               5.83740622                8.09638523               64.47027278                0.72612458               -0.12564244               -0.12569594                0.41876166                0.00014855                0.05349140                0.00863242
               6.83632542                8.09616084               64.33763498                0.72380817               -0.09041564               -0.09022036                0.30102767               -0.00005271                0.10092274                0.00513945
               7.83559791                8.09592642               64.20522598                0.72229937               -0.05504578               -0.05491964                0.18323180               -0.00019708                0.12120501                0.00297379
               8.83522451                8.09568334               64.07295493                0.72140902               -0.01965753               -0.01958627                0.06540140               -0.00022728                0.13171215                0.00137466
               9.83520476                8.09543278               63.94073617                0.72112833                0.01570375                0.01576314               -0.05245253               -0.00020872                0.13281157               -0.00002353
              10.83553858                8.09517526               63.80848618                0.72145580                0.05106760                0.05112226               -0.17032443               -0.00017063                0.12461871               -0.00153452
              11.83622611                8.09491130               63.67612158                0.72239391                0.08644989                0.08648889               -0.28821044               -0.00009181                0.10706935               -0.00351081
              12.83726758                8.09464164               63.54355760                0.72394915                0.12182028                0.12187640               -0.40610454                0.00005003                0.08001469               -0.00647654
              13.83866251                8.09436671               63.41070788                0.72613390                0.15711599                0.15740215               -0.52399519                0.00017884                0.04355261               -0.01139902
              14.84040990                8.09408454               63.27748956                0.86395488                0.17473847                0.19311531               -0.64185926                0.00051762                0.02043192               -0.01974233
               4.83887542                9.09498969               64.60080026                0.86405157               -0.14249266               -0.16123502                0.53417584               -0.00026099                0.01826931                0.01317746
               5.83745049                9.09513284               64.46745938                0.72612410               -0.12495704               -0.12469313                0.41632408               -0.00000873                0.05866569                0.00440643
               6.83637628                9.09526269               64.33485015                0.72381226               -0.08964159               -0.08956894                0.29860215               -0.00018026                0.11014307                0.00284125
               7.83565766                9.09538067               64.20248135                0.72230914               -0.05419806               -0.05424145                0.18081597               -0.00022510                0.13119147                0.00164665
               8.83529232                9.09549099               64.07025468                0.72141958               -0.01888190               -0.01889000                0.06299343               -0.00017279                0.14196051                0.00076858
               9.83528003                9.09559397               63.93808179                0.72114229                0.01642493                0.01647815               -0.05485348               -0.00014755                0.14305569                0.00000400
              10.83562082                9.09569007               63.80587649                0.72146964                0.05174471                0.05185130               -0.17271895               -0.00012779                0.13457017               -0.00082937
              11.83631492                9.09577976               63.67355229                0.72240595                0.08709749                0.08722289               -0.29059917               -0.00010401                0.11632629               -0.00194750
              12.83736277                9.09586367               63.54101946                0.72395736                0.12251466                0.12259692               -0.40848880               -0.00000272                0.08776376               -0.00370671
              13.83876521                9.09594398               63.40818033                0.72613842                0.15784027                0.15800145               -0.52637734                0.00016013                0.04813297               -0.00689018
              14.84051957                9.09602049               63.27493021                0.86395739                0.17543607                0.19419703               -0.64424684                0.00051872                0.02287398               -0.01439316
               4.83854675               10.09337796               64.59790771                0.93202591               -0.14137078               -0.16117318                0.53171664                0.01847373                0.02423804                0.01148094
               5.83713304               10.09389137               64.46455853                0.86306322               -0.12363818               -0.12414745                0.41386254                0.01783012                0.06829248                0.00335622
               6.83607399               10.09436946               64.33201476                0.86190961               -0.08839669               -0.08932293                0.29616065                0.01728203                0.12317459                0.00270090
               7.83536511               10.09484159               64.19970655                0.86115876               -0.05331177               -0.05390777                0.17838847                0.01754874                0.14404017                0.00157676
               8.83500775               10.09530554               64.06754221                0.86071587               -0.01811954               -0.01854443                0.06057956                0.01758106                0.15489280                0.00064861
               9.83500272               10.09576235               63.93543203                0.86057665                0.01712415                0.01683786               -0.05725413                0.01760661                0.15595850               -0.00022296
              10.83535024               10.09621229               63.80328886                0.86074042                0.05238591                0.05222129               -0.17510661                0.01761234                0.14733910               -0.00113273
              11.83605044               10.09665576               63.67102505                0.86120834                0.08765315                0.08759999               -0.29297402                0.01761640                0.12879692               -0.00219974
              12.83710330               10.09709358               63.53854872                0.86198347                0.12292278                0.12299135               -0.41085164                0.01760211                0.09962154               -0.00364038
              13.83850889               10.09752674               63.40575799                0.86307173                0.15819822                0.15827537               -0.52872919                0.01811303                0.05736770               -0.00587853
              14.84026726               10.09796848               63.27251207                0.93197946                0.17583699                0.19479889               -0.64659574                0.01894303                0.02988833               -0.01256041
               4.95970353                0.11232837               65.63042918                0.93198428               -0.14461627               -0.16308712                0.54076233               -0.01853064                0.02003518               -0.00504761
               5.95825736                0.10927959               65.49612453                0.86303822               -0.12744741               -0.12728643                0.42610320               -0.01751136                0.04733204               -0.00477995
               6.95715458                0.10624394               65.36228600                0.86192540               -0.09318452               -0.09316776                0.31151304               -0.01703725                0.08526859               -0.00188667
               7.95639367                0.10320203               65.22867925                0.86116887               -0.05896194               -0.05873593                0.19691275               -0.01715585                0.10573508               -0.00103823
               8.95597534                0.10015390               65.09520810                0.86072032               -0.02467594               -0.02434141                0.08230201               -0.01717125                0.11649443               -0.00041697
               9.95590015                0.09709866               64.96179352                0.86057801                0.00964730                0.01006311               -0.03231755               -0.01718538                0.11855647                0.00008741
              10.95616829                0.09403609               64.82835956                0.86073857                0.04398139                0.04446854               -0.14694763               -0.01718651                0.11213900                0.00054857
              11.95677978                0.09096590               64.69483155                0.86120496                0.07831023                0.07886959               -0.26158980               -0.01719107                0.09728741                0.00101054
              12.95773449                0.08788731               64.56113446                0.86197827                0.11263856                0.11329870               -0.37624513               -0.01715671                0.07390066                0.00153182
              13.95903255                0.08479984               64.42719157                0.86306679                0.14692145                0.14756117               -0.49091105               -0.01760129                0.04137246                0.00215680
              14.96067292                0.08169100               64.29291574                0.93197683                0.16403653                0.18326678               -0.60558538               -0.01763692                0.02018843                0.00405731
               4.96256701                1.11069750               65.62778644                0.86391708               -0.14425359               -0.16243522                0.53846933               -0.00043784                0.01615641               -0.00369010
               5.96112447                1.10800672               65.49346117                0.72596661               -0.12720090               -0.12705525                0.42380500               -0.00009296                0.04477377               -0.00449618
               6.96002299                1.10531226               65.35962864                0.72375621               -0.09286684               -0.09273973                0.30921200                0.00003013                0.08300645               -0.00130979
               7.95926713                1.10261467               65.22600727                0.72228701               -0.05838393               -0.05836625                0.19459926                0.00009594                0.10230624               -0.00040370
               8.95885531                1.09991049               65.09251906                0.72141630               -0.02399618               -0.02398157                0.07997525                0.00006168                0.11285740               -0.00013631
               9.95878721                1.09719930               64.95908605                0.72113911                0.01037459                0.01041383               -0.03465778                0.00003984                0.11479986               -0.00014378
              10.95906280                1.09448077               64.82563304                0.72145294                0.04475259                0.04481304               -0.14930139                0.00002326                0.10831970               -0.00026606
              11.95968226                1.09175460               64.69208576                0.72235899                0.07915765                0.07921289               -0.26395747                0.00000515                0.09345371               -0.00039568
              12.96064595                1.08902030               64.55836976                0.72386603                0.11362168                0.11362411               -0.37862679               -0.00010255                0.07009935               -0.00040423
              13.96195469                1.08627546               64.42440876                0.72598473                0.14797192                0.14807265               -0.49330658               -0.00014176                0.03818869               -0.00005417
              14.96360539                1.08352367               64.29012697                0.86385479                0.16506974                0.18329499               -0.60798609                0.00038323                0.01758388                0.00149992
               4.96507633                2.10907967               65.62508082                0.86386704               -0.14355770               -0.16132166                0.53617075               -0.00047945                0.01308642               -0.00243408
               5.96364075                2.10673848               65.49073325                0.72585734               -0.12645438               -0.12655168                0.42150666               -0.00019387                0.04433615               -0.00305316
               6.96254724                2.10438914               65.35693143                0.72366373               -0.09216928               -0.09201684                0.30692862               -0.00007320                0.08394038               -0.00102239
               7.96179736                2.10203470               65.22331562                0.72223532               -0.05776463               -0.05764719                0.19230313                0.00003884                0.10143094               -0.00011991
               8.96139195                2.09967427               65.08982229                0.72138922               -0.02333478               -0.02326861                0.07765990                0.00005676                0.11120389                0.00000637
               9.96133067                2.09730694               64.95637963                0.72112081                0.01107501                0.01111959               -0.03699449                0.00003380                0.11279813               -0.00024411
              10.96161345                2.09493235               64.82291490                0.72142763                0.04548469                0.04551564               -0.15165975               -0.00000016                0.10617621               -0.00067817
              11.96224036                2.09255016               64.68935553                0.72231078                0.07990689                0.07992220               -0.26633823               -0.00006597                0.09135153               -0.00115733
              12.96321158                2.09015979               64.55562906                0.72377654                0.11429916                0.11435762               -0.38102963               -0.00017088                0.06834631               -0.00151293
              13.96452634                2.08776130               64.42166337                0.72583599                0.14862857                0.14896034               -0.49572575               -0.00022860                0.03728492               -0.00144257
              14.96618416                2.08535690               64.28738843                0.86375633                0.16578105                0.18360068               -0.61040579                0.00019889                0.01723689               -0.00061266
               4.96723979                3.10747107               65.62237390                0.86386464               -0.14286673               -0.16047074                0.53386189               -0.00041398                0.01344791                0.00264241
               5.96581112                3.10547569               65.48802877                0.72585291               -0.12572407               -0.12594805                0.41920172               -0.00014237                0.04465428                0.00174622
               6.96472531                3.10347192               65.35422892                0.72365840               -0.09141694               -0.09141090                0.30462287               -0.00013381                0.08432863                0.00125626
               7.96398278                3.10146172               65.22061737                0.72222896               -0.05705501               -0.05696706                0.18999175               -0.00004433                0.10165630                0.00098332
               8.96358421                3.09944512               65.08712315                0.72138270               -0.02264861               -0.02256674                0.07533644               -0.00000914                0.11098219                0.00048156
               9.96352981                3.09742169               64.95367621                0.72111481                0.01176855                0.01183024               -0.03933278               -0.00001688                0.11228720               -0.00023673
              10.96381958                3.09539108               64.82020519                0.72142189                0.04618445                0.04623587               -0.15401424               -0.00005129                0.10549775               -0.00111905
              11.96445350                3.09335304               64.68663857                0.72230615                0.08059126                0.08066308               -0.26870843               -0.00010694                0.09062607               -0.00211814
              12.96543140                3.09130745               64.55290525                0.72377356                0.11497570                0.11514387               -0.38341387               -0.00016687                0.06773620               -0.00316265
              13.96675301                3.08925466               64.41893499                0.72583715                0.14933791                0.14968653               -0.49811893               -0.00014371                0.03693615               -0.00415157
              14.96841816                3.08719568               64.28465882                0.86375693                0.16651480                0.18419886               -0.61279955                0.00027578                0.01703442               -0.00502337
               4.96905880                4.10587025               65.61968102                0.86386231               -0.14217543               -0.15972008                0.53154700               -0.00037855                0.01364264                0.00809469
               5.96763705                4.10421952               65.48532715                0.72584981               -0.12501370               -0.12527045                0.41688711               -0.00007856                0.04523706                0.00529347
               6.96655853                4.10256092               65.35152670                0.72365508               -0.09068831               -0.09076470                0.30230672               -0.00010358                0.08538207                0.00359025
               7.96582328                4.10089536               65.21791624                0.72222527               -0.05633648               -0.05629724                0.18767084               -0.00007841                0.10278460                0.00223246
               8.96543180                4.09922294               65.08442333                0.72137909               -0.02194608               -0.02187038                0.07300770               -0.00006454                0.11203680                0.00102947
               9.96538436                4.09754355               64.95097638                0.72111205                0.01246317                0.01253987               -0.04167174               -0.00007016                0.11317328               -0.00020017
              10.96568106                4.09585706               64.81750368                0.72141850                0.04687487                0.04695719               -0.15636505               -0.00008727                0.10619146               -0.00156350
              11.96632186                4.09416342               64.68393360                0.72230520                0.08127825                0.08140118               -0.27107052               -0.00010801                0.09112427               -0.00313993
              12.96730663                4.09246267               64.55019508                0.72377534                0.11566881                0.11588306               -0.38578465               -0.00011400                0.06805043               -0.00499145
              13.96863524                4.09075503               64.41621805                0.72583991                0.15005002                0.15038667               -0.50049599               -0.00007978                0.03708616               -0.00716436
              14.97030763                4.08904088               64.28193377                0.86375900                0.16723936                0.18485918               -0.61517789                0.00031442                0.01709724               -0.00968516
               4.97053368                5.10427667               65.61699479                0.86386125               -0.14147997               -0.15901113                0.52922527               -0.00035615                0.01400168                0.01272181
               5.96911888                5.10297028               65.48262430                0.72584699               -0.12431415               -0.12457443                0.41456395               -0.00002167                0.04624569                0.00819528
               6.96804740                5.10165663               65.34882063                0.72365183               -0.08998394               -0.09007736                0.29998283               -0.00005062                0.08728265                0.00540130
               7.96731920                5.10033578               65.21521179                0.72222145               -0.05563331               -0.05560557                0.18534396               -0.00007833                0.10503234                0.00326262
               8.96693473                5.09900771               65.08172298                0.72137612               -0.02124619               -0.02117067                0.07067568               -0.00010188                0.11440891                0.00149810
               9.96689428                5.09767248               64.94828053                0.72110923                0.01316114                0.01324564               -0.04401100               -0.00011300                0.11547579               -0.00015335
              10.96719795                5.09633023               64.81481094                0.72141786                0.04757284                0.04766778               -0.15871200               -0.00010869                0.10826128               -0.00192264
              11.96784573                5.09498107               64.68124109                0.72230388                0.08197826                0.08211547               -0.27342562               -0.00008904                0.09282323               -0.00401841
              12.96883752                5.09362511               64.54749864                0.72377453                0.11637360                0.11659545               -0.38814713               -0.00005796                0.06925938               -0.00664035
              13.97017321                5.09226240               64.41351244                0.72584199                0.15076134                0.15108984               -0.50286271               -0.00002550                0.03771377               -0.00996903
              14.97185274                5.09089287               64.27921299                0.86376021                0.16795393                0.18555359               -0.61754672                0.00034405                0.01740566               -0.01413277
               4.97166445                6.10269003               65.61430650                0.86386085               -0.14077962               -0.15833184                0.52689669               -0.00033184                0.01455040                0.01625387
               5.97025666                6.10172803               65.47991180                0.72584505               -0.12362159               -0.12387097                0.41223195                0.00003764                0.04781854                0.01005047
               6.96919202                6.10075938               65.34610478                0.72365078               -0.08930098               -0.08935542                0.29765190                0.00000297                0.09027282                0.00644998
               7.96847064                6.09978325               65.21250045                0.72222198               -0.05494819               -0.05488771                0.18301216               -0.00007872                0.10862627                0.00381940
               8.96809306                6.09879952               65.07902075                0.72137880               -0.02055273               -0.02046324                0.06834119               -0.00013752                0.11828715                0.00175549
               9.96805958                6.09780846               64.94558888                0.72111248                0.01386248                0.01394630               -0.04634966               -0.00015241                0.11934066               -0.00010833
              10.96837031                6.09681042               64.81212851                0.72142064                0.04828077                0.04836371               -0.16105588               -0.00012726                0.11183672               -0.00209275
              11.96902520                6.09580573               64.67856384                0.72230717                0.08269174                0.08280649               -0.27577467               -0.00006921                0.09583962               -0.00451476
              12.97002414                6.09479458               64.54481983                0.72377810                0.11708852                0.11728786               -0.39050171               -0.00000073                0.07145591               -0.00772034
              13.97136697                6.09377682               64.41082281                0.72584474                0.15147133                0.15179780               -0.50522190                0.00003159                0.03887259               -0.01206041
              14.97305357                6.09275195               64.27650145                0.86376194                0.16865999                0.18628063               -0.61990913                0.00037647                0.01799003               -0.01781151
               4.97245104                7.10111003               65.61160334                0.86385926               -0.14007498               -0.15770220                0.52456121               -0.00029178                0.01536093                0.01820062
               5.97105029                7.10049286               65.47717753                0.72584452               -0.12293985               -0.12314442                0.40989075                0.00010644                0.05015033                0.01042452
               6.96999224                7.09986952               65.34337021                0.72365173               -0.08864036               -0.08859206                0.29531311                0.00002998                0.09468356                0.00643499
               7.96927748                7.09923802               65.20977671                0.72222444               -0.05427350               -0.05415442                0.18067507               -0.00011474                0.11389063                0.00374330
               8.96890677                7.09859844               65.07631416                0.72138147               -0.01985747               -0.01975778                0.06600449               -0.00018443                0.12395413                0.00172318
               9.96888033                7.09795141               64.94290156                0.72111717                0.01456810                0.01464168               -0.04868739               -0.00019089                0.12502174               -0.00006506
              10.96919813                7.09729750               64.80945901                0.72142500                0.04899305                0.04905129               -0.16339594               -0.00015059                0.11717201               -0.00197946
              11.96986019                7.09663720               64.67590709                0.72231221                0.08341397                0.08348002               -0.27811727               -0.00006600                0.10043666               -0.00439843
              12.97086641                7.09597087               64.54216653                0.72378338                0.11781359                0.11795490               -0.39284672                0.00004872                0.07487828               -0.00780777
              13.97221646                7.09529835               64.40815917                0.72584775                0.15218045                0.15250302               -0.50757023                0.00010146                0.04070898               -0.01283297
              14.97391002                7.09461848               64.27380994                0.86376365                0.16935572                0.18705496               -0.62226225                0.00042389                0.01893122               -0.02003734
               4.97289295                8.09953599               65.60886679                0.86385855               -0.13936568               -0.15718799                0.52221514               -0.00021823                0.01657348                0.01788830
               5.97149930                8.09926515               65.47440437                0.72584343               -0.12227477               -0.12232674                0.40753718                0.00014458                0.05357183                0.00865225
               6.97044746                8.09898754               65.34060501                0.72365480               -0.08799394               -0.08780395                0.29296480               -0.00005132                0.10103494                0.00515663
               7.96973942                8.09870016               65.20703384                0.72223082               -0.05357378               -0.05345118                0.17833209               -0.00019172                0.12127554                0.00298696
               8.96937598                8.09840437               65.07360028                0.72138936               -0.01913563               -0.01906645                0.06366516               -0.00022101                0.13175727                0.00138225
               9.96935670                8.09810129               64.94021878                0.72112562                0.01527627                0.01533387               -0.05102438               -0.00020281                0.13283708               -0.00002254
              10.96968151                8.09779145               64.80680587                0.72143407                0.04969039                0.04974372               -0.16573122               -0.00016572                0.12462636               -0.00154069
              11.97035051                8.09747533               64.67327822                0.72231995                0.08412267                0.08416082               -0.28045185               -0.00008918                0.10706064               -0.00352515
              12.97136396                8.09715368               64.53955109                0.72378804                0.11854355                0.11859820               -0.39518108                0.00004852                0.07999644               -0.00649903
              13.97272138                8.09682688               64.40553828                0.72585248                0.15289144                0.15316995               -0.50990599                0.00017357                0.04353968               -0.01143303
              14.97442179                8.09649305               64.27115714                0.86376546                0.17004061                0.18792397               -0.62460457                0.00050340                0.02041908               -0.01979478
               4.97298836                9.09796627               65.60607051                0.86385714               -0.13867248               -0.15691162                0.51985220               -0.00025391                0.01828795                0.01320687
               5.97160163                9.09804633               65.47156692                0.72584333               -0.12160789               -0.12135073                0.40516522               -0.00000881                0.05876028                0.00441560
               6.97055620                9.09811344               65.33779625                0.72365899               -0.08724087               -0.08717025                0.29060490               -0.00017558                0.11027871                0.00285209
               7.96985681                9.09816900               65.20426538                0.72223887               -0.05274898               -0.05279132                0.17598149               -0.00021910                0.13128332                0.00165478
               8.96950122                9.09821711               65.07087627                0.72140136               -0.01838096               -0.01838899                0.06132225               -0.00016798                0.14202569                0.00077343
               9.96948920                9.09825809               64.93754071                0.72113725                0.01597786                0.01602967               -0.05336063               -0.00014343                0.14310039                0.00000484
              10.96982078                9.09829238               64.80417256                0.72144778                0.05034918                0.05045302               -0.16806100               -0.00012432                0.13459628               -0.00083271
              11.97049618                9.09832041               64.67068536                0.72233118                0.08475274                0.08487495               -0.28277606               -0.00010118                0.11633545               -0.00195587
              12.97151583                9.09834283               64.53698944                0.72379671                0.11921907                0.11929936               -0.39750083               -0.00000286                0.08776077               -0.00372053
              13.97288056                9.09836175               64.40298721                0.72585685                0.15359635                0.15375342               -0.51222455                0.00015544                0.04812888               -0.00691252
              14.97458776                9.09837696               64.26857419                0.86376725                0.17071979                0.18897687               -0.62692936                0.00050463                0.02286570               -0.01443161
               4.97272776               10.09639776               65.60315371                0.93192865               -0.13758106               -0.15685158                0.51746009                0.01797809                0.02427031                0.01150831
               5.97135195               10.09683813               65.46864178                0.86292317               -0.12032445               -0.12081968                0.40277050                0.01735067                0.06841141                0.00336394
               6.97032127               10.09724413               65.33493677                0.86183217               -0.08602948               -0.08693103                0.28822952                0.01681758                0.12334244                0.00271134
               7.96963136               10.09764433               65.20146663                0.86112390               -0.05188686               -0.05246665                0.17361966                0.01707757                0.14416115                0.00158386
               8.96928354               10.09803659               65.06813999                0.86070490               -0.01763938               -0.01805275                0.05897365                0.01710919                0.15498679                0.00065257
               9.96927857               10.09842189               64.93486727                0.86057462                0.01665797                0.01637973               -0.05569656                0.01713386                0.15603171               -0.00022270
              10.96961670               10.09880051               64.80156138                0.86072975                0.05097305                0.05081296               -0.17038406                0.01713924                0.14739328               -0.00113600
              11.97029804               10.09917283               64.66813470                0.86117161                0.08529359                0.08524186               -0.28508685                0.01714344                0.12883341               -0.00220741
              12.97132257               10.09953966               64.53449539                0.86190258                0.11961644                0.11968319               -0.39980003                0.01712959                0.09964480               -0.00365323
              13.97269036               10.09990195               64.40054167                0.86293086                0.15394494                0.15402023               -0.51451373                0.01762660                0.05738520               -0.00589800
              14.97440147               10.10027259               64.26613287                0.93188389                0.17111018                0.18956282               -0.62921635                0.01843418                0.02989765               -0.01259373
               5.09478199                0.11493209               66.63576218                0.93188671               -0.14061963               -0.15857945                0.52581492               -0.01801783                0.02006571               -0.00505116
               6.09337579                0.11190665               66.50032678                0.86289476               -0.12392591               -0.12376913                0.41432888               -0.01702668                0.04740795               -0.00477830
               7.09230347                0.10889398               66.36535818                0.86184604               -0.09061108               -0.09059472                0.30290920               -0.01656574                0.08538234               -0.00187716
               8.09156357                0.10587523               66.23062125                0.86113336               -0.05733535               -0.05711549                0.19147974               -0.01668135                0.10584539               -0.00103086
               9.09115676                0.10285043               66.09601984                0.86071054               -0.02399809               -0.02367278                0.08004079               -0.01669650                0.11659892               -0.00041264
              10.09108361                0.09981871               65.96147489                0.86057604                0.00937539                0.00977982               -0.03140725               -0.01671015                0.11865224                0.00008901
              11.09134427                0.09677986               65.82691047                0.86072759                0.04275952                0.04323318               -0.14286531               -0.01671117                0.11222205                0.00054742
              12.09193880                0.09373361               65.69225188                0.86116610                0.07613854                0.07668241               -0.25433532               -0.01671559                0.09735386                0.00100620
              13.09286704                0.09067919               65.55742407                0.86189539                0.10951721                0.11015905               -0.36581831               -0.01668201                0.07394819                0.00152383
              14.09412914                0.08761615               65.42235036                0.86292235                0.14285166                0.14347351               -0.47731193               -0.01711406                0.04140059                0.00214637
              15.09572408                0.08453233               65.28694362                0.93187907                0.15949317                0.17819102               -0.58881334               -0.01714874                0.02019988                0.00405324
               5.09762725                1.11334629               66.63309683                0.86372391               -0.14026719               -0.15794565                0.52358631               -0.00042554                0.01617258               -0.00368359
               6.09622458                1.11066896               66.49764076                0.72568576               -0.12368634               -0.12354454                0.41209493               -0.00009027                0.04483675               -0.00448462
               7.09515352                1.10798804               66.36267813                0.72360232               -0.09030219               -0.09017876                0.30067272                0.00002941                0.08310371               -0.00128400
               8.09441854                1.10530407               66.22792646                0.72221647               -0.05677332               -0.05675632                0.18923098                0.00009303                0.10239453               -0.00038269
               9.09401806                1.10261370               66.09330785                0.72139548               -0.02333710               -0.02332301                0.07777877                0.00005943                0.11293944               -0.00012402
              10.09395179                1.09991651               65.95874435                0.72113508                0.01008259                0.01012076               -0.03368247                0.00003824                0.11487325               -0.00014077
              11.09421971                1.09721219               65.82416074                0.72142974                0.04350927                0.04356820               -0.14515383                0.00002224                0.10838008               -0.00027272
              12.09482198                1.09450044               65.68948274                0.72228486                0.07696236                0.07701631               -0.25663742                0.00000490                0.09349687               -0.00041228
              13.09575896                1.09178078               65.55463589                0.72370556                0.11047290                0.11047554               -0.36813422               -0.00009973                0.07012359               -0.00043074
              14.09703144                1.08905088               65.41954392                0.72570402                0.14387270                0.14397090               -0.47964089               -0.00013780                0.03819825               -0.00008741
              15.09863641                1.08631424               65.28413118                0.86366578                0.16049740                0.17821831               -0.59114695                0.00037280                0.01758096                0.00147186
               5.10012815                2.11177318               66.63036854                0.86367642               -0.13959058               -0.15686290                0.52135188               -0.00046617                0.01309642               -0.00242299
               6.09873225                2.10943576               66.49489016                0.72558251               -0.12296039               -0.12305510                0.40986040               -0.00018849                0.04440059               -0.00303478
               7.09766894                2.10709041               66.35995841                0.72351457               -0.08962394               -0.08947606                0.29845323               -0.00007120                0.08403289               -0.00099168
               8.09693977                2.10474010               66.22521218                0.72216796               -0.05617137               -0.05605747                0.18699933                0.00003758                0.10149700               -0.00009322
               9.09654552                2.10238397               66.09058824                0.72137091               -0.02269411               -0.02262996                0.07552791                0.00005483                0.11125928                0.00002274
              10.09648589                2.10002113               65.95601488                0.72111753                0.01076364                0.01080685               -0.03595418                0.00003235                0.11284372               -0.00024052
              11.09676079                2.09765122               65.82141934                0.72140541                0.04422117                0.04425140               -0.14744731               -0.00000058                0.10620832               -0.00068825
              12.09737031                2.09527394               65.68672903                0.72223974                0.07769079                0.07770601               -0.25895245               -0.00006424                0.09136642               -0.00118096
              13.09831461                2.09288870               65.55187149                0.72362083                0.11113131                0.11118863               -0.37046997               -0.00016621                0.06834509               -0.00154884
              14.09959293                2.09049557               65.41677467                0.72556291                0.14451105                0.14483397               -0.48199312               -0.00022255                0.03727909               -0.00148583
              15.10120483                2.08809669               65.28136877                0.86357241                0.16118915                0.17851561               -0.59350026                0.00019317                0.01722586               -0.00065115
               5.10229276                3.11020904               66.62763884                0.86367487               -0.13891860               -0.15603544                0.51910646               -0.00040247                0.01345887                0.00265880
               6.10090358                3.10820786               66.49216296                0.72558015               -0.12225033               -0.12246816                0.40761915               -0.00013846                0.04471685                0.00176732
               7.09984776                3.10619852               66.35723315                0.72350941               -0.08889253               -0.08888680                0.29621099               -0.00013038                0.08441395                0.00127811
               8.09912573                3.10418292               66.22249113                0.72216071               -0.05548136               -0.05539609                0.18475179               -0.00004341                0.10170991                0.00100217
               9.09873813                3.10216110               66.08786620                0.72136363               -0.02202701               -0.02194763                0.07326920               -0.00000923                0.11102074                0.00049347
              10.09868519                3.10013265               65.95328840                0.72111067                0.01143779                0.01149772               -0.03822740               -0.00001684                0.11231353               -0.00023470
              11.09896689                3.09809722               65.81868641                0.72140063                0.04490149                0.04495149               -0.14973603               -0.00005032                0.10551008               -0.00112806
              12.09958322                3.09605456               65.68398870                0.72223338                0.07835618                0.07842615               -0.26125652               -0.00010445                0.09062233               -0.00213786
              13.10053401                3.09400455               65.54912417                0.72361945                0.11178901                0.11195280               -0.37278738               -0.00016236                0.06771946               -0.00319117
              14.10181900                3.09194756               65.41402270                0.72556451                0.14520065                0.14553976               -0.48431923               -0.00013963                0.03692151               -0.00418497
              15.10343802                3.08988455               65.27861555                0.86357359                0.16190254                0.17909732               -0.59582762                0.00026804                0.01701907               -0.00505440
               5.10412246                4.10865247               66.62492315                0.86367293               -0.13824651               -0.15530562                0.51685604               -0.00036815                0.01365267                0.00811824
               6.10274000                4.10698640               66.48943852                0.72557620               -0.12155976               -0.12180937                0.40536906               -0.00007663                0.04529765                0.00531589
               7.10169127                4.10531267               66.35450810                0.72350470               -0.08818431               -0.08825849                0.29395947               -0.00010097                0.08546275                0.00361075
               8.10097631                4.10363218               66.21976711                0.72215671               -0.05478295               -0.05474478                0.18249534               -0.00007651                0.10283088                0.00224884
               9.10059561                4.10194502               66.08514341                0.72135904               -0.02134403               -0.02127058                0.07100513               -0.00006307                0.11206548                0.00103922
              10.10054943                4.10025108               65.95056551                0.72110659                0.01211316                0.01218762               -0.04050140               -0.00006856                0.11318787               -0.00019915
              11.10083787                4.09855025               65.81596173                0.72139655                0.04557269                0.04565262               -0.15202093               -0.00008521                0.10619136               -0.00157216
              12.10146089                4.09684246               65.68126044                0.72223150                0.07902417                0.07914367               -0.26355282               -0.00010534                0.09110911               -0.00315831
              13.10241836                4.09512776               65.54639062                0.72361837                0.11246316                0.11267153               -0.37509301               -0.00011088                0.06802494               -0.00501809
              14.10371015                4.09340636               65.41128232                0.72556543                0.14589300                0.14622035               -0.48662999               -0.00007722                0.03706695               -0.00719594
              15.10533622                4.09167864               65.27586707                0.86357416                0.16260670                0.17973903               -0.59813892                0.00030596                0.01708032               -0.00971781
               5.10561754                5.10710292               66.62221402                0.86367125               -0.13757047               -0.15461660                0.51459952               -0.00034639                0.01401178                0.01275123
               6.10424184                5.10577167               66.48671277                0.72557492               -0.12087961               -0.12113281                0.40311055               -0.00002144                0.04630660                0.00821907
               7.10319995                5.10443335               66.35177911                0.72350334               -0.08749936               -0.08759025                0.29169993               -0.00004943                0.08736321                0.00542221
               8.10249185                5.10308803               66.21703972                0.72215546               -0.05409925               -0.05407236                0.18023327               -0.00007618                0.10507633                0.00327884
               9.10211797                5.10173569               66.08242007                0.72135773               -0.02066367               -0.02059027                0.06873784               -0.00009903                0.11443289                0.00150722
              10.10207858                5.10037640               65.94784660                0.72110518                0.01279163                0.01287377               -0.04277552               -0.00010986                0.11548436               -0.00015276
              11.10237380                5.09901027               65.81324584                0.72139588                0.04625130                0.04634359               -0.15430323               -0.00010571                0.10825485               -0.00193140
              12.10300360                5.09763743               65.67854470                0.72223261                0.07970477                0.07983818               -0.26584281               -0.00008642                0.09280197               -0.00403676
              13.10396789                5.09625798               65.54367088                0.72362020                0.11314834                0.11336418               -0.37739001               -0.00005623                0.06922963               -0.00666774
              14.10526657                5.09487197               65.40855337                0.72556867                0.14658454                0.14690397               -0.48893141               -0.00002485                0.03769296               -0.01000321
              15.10689959                5.09347933               65.27312294                0.86357584                0.16330138                0.18041385               -0.60044127                0.00033437                0.01738850               -0.01417208
               5.10677805                6.10556014               66.61950277                0.86367023               -0.13688982               -0.15395644                0.51233639               -0.00032261                0.01456171                0.01628935
               6.10540915                6.10456374               66.48397727                0.72557120               -0.12020634               -0.12044910                0.40084381                0.00003643                0.04788279                0.01007534
               7.10437392                6.10356087               66.34904028                0.72350228               -0.08683522               -0.08688846                0.28943383                0.00000270                0.09035796                0.00647095
               8.10367244                6.10255073               66.21430538                0.72215450               -0.05343309               -0.05337450                0.17796630               -0.00007673                0.10867272                0.00383519
               9.10330526                6.10153321               66.07969481                0.72135935               -0.01998951               -0.01990251                0.06646822               -0.00013382                0.11831189                0.00176428
              10.10327265                6.10050856               65.94513188                0.72110906                0.01347344                0.01355492               -0.04504902               -0.00014804                0.11934876               -0.00010764
              11.10357473                6.09947713               65.81054029                0.72139966                0.04693956                0.04702011               -0.15658158               -0.00012358                0.11182901               -0.00210124
              12.10421144                6.09843923               65.67584428                0.72223472                0.08039841                0.08050991               -0.26812630               -0.00006725                0.09581697               -0.00453274
              13.10518269                6.09739504               65.54096885                0.72362288                0.11384318                0.11403711               -0.37967822               -0.00000090                0.07142537               -0.00774707
              14.10648831                6.09634444               65.40584048                0.72557039                0.14727451                0.14759213               -0.49122398                0.00003014                0.03885186               -0.01209664
              15.10812818                6.09528692               65.27038810                0.86357754                0.16398763                0.18112083               -0.60273814                0.00036553                0.01797317               -0.01785832
               5.10760388                7.10402379               66.61677658                0.86366938               -0.13620483               -0.15334429                0.51006588               -0.00028361                0.01537302                0.01823990
               6.10624184                7.10336269               66.48121990                0.72557036               -0.11954364               -0.11974275                0.39856774                0.00010374                0.05021976                0.01044874
               7.10521301                7.10269558               66.34628264                0.72350265               -0.08619311               -0.08614643                0.28716043                0.00002912                0.09477795                0.00645472
               8.10451797                7.10202054               66.21155860                0.72215605               -0.05277725               -0.05266169                0.17569452               -0.00011184                0.11394520                0.00375816
               9.10415747                7.10133764               66.07696518                0.72136318               -0.01931345               -0.01921676                0.06419655               -0.00017942                0.12398556                0.00173166
              10.10413170                7.10064750               65.94242151                0.72111324                0.01415958                0.01423094               -0.04732181               -0.00018550                0.12503517               -0.00006419
              11.10444066                7.09995067               65.80784772                0.72140414                0.04763195                0.04768845               -0.15885611               -0.00014631                0.11716860               -0.00198717
              12.10508434                7.09924763               65.67316443                0.72223954                0.08110033                0.08116465               -0.27040347               -0.00006428                0.10041874               -0.00441515
              13.10606266                7.09853873               65.53829244                0.72362683                0.11454788                0.11468563               -0.38195777                0.00004703                0.07485176               -0.00783343
              14.10737530                7.09782381               65.40315368                0.72557375                0.14796407                0.14827794               -0.49350732                0.00009848                0.04068938               -0.01286955
              15.10902195                7.09710175               65.26767337                0.86358006                0.16466448                0.18187413               -0.60502769                0.00041218                0.01891387               -0.02008830
               5.10809459                8.10249325               66.61401689                0.86366868               -0.13551494               -0.15284408                0.50778380               -0.00021209                0.01658855                0.01792626
               6.10673944                8.10216888               66.47842353                0.72556961               -0.11889708               -0.11894750                0.39627912                0.00014087                0.05365023                0.00867134
               7.10571665                8.10183794               66.34349428                0.72350383               -0.08556494               -0.08538029                0.28487778               -0.00004985                0.10114439                0.00517335
               8.10502814                8.10149750               66.20879262                0.72216378               -0.05209699               -0.05197810                0.17341683               -0.00018639                0.12134421                0.00299990
               9.10467471                8.10114888               66.07422824                0.72137034               -0.01861163               -0.01854469                0.06192231               -0.00021475                0.13180133                0.00138979
              10.10465591                8.10079318               65.93971568                0.72112102                0.01484795                0.01490392               -0.04959385               -0.00019707                0.13286208               -0.00002166
              11.10497167                8.10043089               65.80517155                0.72141203                0.04830982                0.04836170               -0.16112677               -0.00016097                0.12463386               -0.00154676
              12.10562211                8.10006252               65.67051255                0.72224731                0.08178929                0.08182663               -0.27267320               -0.00008656                0.10705263               -0.00353885
              13.10660745                8.09968875               65.53565397                0.72363147                0.11525767                0.11531133               -0.38422792                0.00004738                0.07997846               -0.00652183
              14.10792726                8.09931000               65.40050976                0.72557756                0.14865536                0.14892658               -0.49577891                0.00016919                0.04352606               -0.01146615
              15.10958056                8.09892440               65.26499747                0.86357943                0.16533015                0.18271891               -0.60730401                0.00048964                0.02040594               -0.01984368
               5.10824837                9.10096691               66.61119731                0.86366765               -0.13484090               -0.15257528                0.50548592               -0.00024689                0.01830696                0.01323516
               6.10689996                9.10098374               66.47556269                0.72556963               -0.11824872               -0.11799826                0.39397285               -0.00000879                0.05885282                0.00442437
               7.10588340                9.10098797               66.34066225                0.72351024               -0.08483278               -0.08476430                0.28258348               -0.00017074                0.11041130                0.00286263
               8.10520331                9.10098098               66.20600098                0.72217266               -0.05129518               -0.05133658                0.17113153               -0.00021271                0.13137282                0.00166316
               9.10485749                9.10096675               66.07148112                0.72138219               -0.01787814               -0.01788598                0.05964449               -0.00016310                0.14208898                0.00077833
              10.10484574                9.10094558               65.93701458                0.72113363                0.01552998                0.01558043               -0.05186518               -0.00013925                0.14314412                0.00000543
              11.10516809                9.10091791               65.80251527                0.72142564                0.04895034                0.04905142               -0.16339196               -0.00012055                0.13462219               -0.00083630
              12.10582475                9.10088416               65.66789677                0.72225921                0.08240198                0.08252096               -0.27493278               -0.00009795                0.11634439               -0.00196411
              13.10681613                9.10084495               65.53306944                0.72364125                0.11591446                0.11599293               -0.38648293               -0.00000229                0.08775806               -0.00373456
              14.10814304                9.10080234               65.39793584                0.72558227                0.14934034                0.14949366               -0.49803211                0.00015138                0.04812622               -0.00693358
              15.10980294                9.10075612               65.26239162                0.86358252                0.16598994                0.18374205               -0.60956290                0.00049052                0.02285968               -0.01446728
               5.10805601               10.09944174               66.60825691                0.93183421               -0.13377980               -0.15251696                0.50316050                0.01748083                0.02430143                0.01153527
               6.10671821               10.09980892               66.47261394                0.86278577               -0.11700063               -0.11748178                0.39164461                0.01686987                0.06852721                0.00337138
               7.10571599               10.10014265               66.33777935                0.86175955               -0.08365481               -0.08453178                0.28027359                0.01635197                0.12350628                0.00272153
               8.10504511               10.10047077               66.20317894                0.86109066               -0.05045732               -0.05102090                0.16883523                0.01660555                0.14427896                0.00159140
               9.10470685               10.10079116               66.06872168                0.86069645               -0.01715744               -0.01755901                0.05736117                0.01663608                0.15507777                0.00065662
              10.10470196               10.10110479               65.93431810                0.86057242                0.01619120                0.01592078               -0.05413621                0.01666005                0.15610289               -0.00022277
              11.10503067               10.10141192               65.79988118                0.86071849                0.04955692                0.04940140               -0.16565062                0.01666541                0.14744660               -0.00113982
              12.10569310               10.10171294               65.66532332                0.86113530                0.08292784                0.08287766               -0.27717933                0.01666945                0.12886923               -0.00221532
              13.10668923               10.10200861               65.53055272                0.86182318                0.11630079                0.11636590               -0.38871773                0.01665600                0.09966782               -0.00366576
              14.10801912               10.10229987               65.39546772                0.86279384                0.14967916                0.14975287               -0.50025692                0.01713889                0.05740330               -0.00591652
              15.10968281               10.10259924               65.25992774                0.93179189                0.16636937                0.18431152               -0.61178614                0.01792369                0.02990774               -0.01262629
               5.23097564                0.11755805               67.64094548                0.93179173               -0.13661129               -0.15405856                0.51082459               -0.01750363                0.02009583               -0.00505428
               6.22960953                0.11455606               67.50441111                0.86275566               -0.12039410               -0.12024143                0.40252034               -0.01654055                0.04748207               -0.00477662
               7.22856776                0.11156649               67.36834419                0.86176813               -0.08803020               -0.08801419                0.29428068               -0.01609292                0.08549304               -0.00186808
               8.22784892                0.10857099               67.23250884                0.86109784               -0.05570404               -0.05549031                0.18603088               -0.01620525                0.10595272               -0.00102355
               9.22745368                0.10556962               67.09680892                0.86070055               -0.02331793               -0.02300190                0.07777188               -0.01621999                0.11670076               -0.00040815
              10.22738256                0.10256153               66.96116537                0.86057369                0.00910327                0.00949616               -0.03049587               -0.01623340                0.11874577                0.00009061
              11.22763574                0.09954651               66.82550226                0.86071585                0.04153483                0.04199493               -0.13877323               -0.01623436                0.11230309                0.00054602
              12.22821326                0.09652430               66.68974484                0.86112829                0.07396163                0.07448979               -0.24706284               -0.01623856                0.09741828                0.00100176
              13.22911497                0.09349416               66.55381809                0.86181560                0.10638781                0.10701115               -0.35536451               -0.01620601                0.07399444                0.00151666
              14.23034102                0.09045564               66.41764533                0.86278199                0.13877058                0.13937473               -0.46367539               -0.01662576                0.04142851                0.00213699
              15.23189039                0.08739695               66.28113947                0.93178431                0.15493694                0.17310147               -0.57199453               -0.01665927                0.02021161                0.00404978
               5.23380259                1.11601747               67.63825817                0.86353710               -0.13626892               -0.15344289                0.50865974               -0.00041317                0.01618854               -0.00367668
               6.23243990                1.11335365               67.50170307                0.72541349               -0.12016144               -0.12002349                0.40035043               -0.00008769                0.04489808               -0.00447307
               7.23139936                1.11068635               67.36564210                0.72345324               -0.08773004               -0.08761012                0.29210807                0.00002840                0.08319823               -0.00125910
               8.23068530                1.10801609               67.22979189                0.72214940               -0.05515782               -0.05514143                0.18384646                0.00009034                0.10248047               -0.00036224
               9.23029621                1.10533960               67.09407464                0.72137702               -0.02267576               -0.02266220                0.07557485                0.00005766                0.11301933               -0.00011184
              10.23023179                1.10265649               66.95841240                0.72113156                0.00979021                0.00982729               -0.03270585                0.00003693                0.11494463               -0.00013780
              11.23049201                1.09996646               66.82272996                0.72140891                0.04226307                0.04232034               -0.14099632                0.00002148                0.10843876               -0.00027952
              12.23107705                1.09726920               66.68695301                0.72221347                0.07476163                0.07481406               -0.24929887                0.00000470                0.09353886               -0.00042859
              13.23198724                1.09456427               66.55100708                0.72354923                0.10731576                0.10731854               -0.35761374               -0.00009712                0.07014766               -0.00045589
              14.23322336                1.09184939               66.41481594                0.72542983                0.13976223                0.13985806               -0.46593782               -0.00013399                0.03820825               -0.00011953
              15.23478249                1.08912796               66.27830403                0.86348138                0.15591246                0.17312806               -0.57426181                0.00036218                0.01757891                0.00144480
               5.23629501                2.11448920               67.63550786                0.86349182               -0.13561185               -0.15239129                0.50648990               -0.00045288                0.01310606               -0.00241170
               6.23493889                2.11215559               67.49893045                0.72531552               -0.11945634               -0.11954838                0.39818042               -0.00018334                0.04446291               -0.00301693
               7.23390589                2.10981429               67.36290050                0.72336845               -0.08707110               -0.08692759                0.28995225               -0.00006936                0.08412230               -0.00096221
               8.23319747                2.10746816               67.22705561                0.72210283               -0.05457296               -0.05446264                0.18167854                0.00003615                0.10156115               -0.00006732
               9.23281443                2.10511638               67.09133284                0.72135288               -0.02205114               -0.02198906                0.07338853                0.00005274                0.11131316                0.00003861
              10.23275645                2.10275808               66.95566054                0.72111480                0.01045177                0.01049365               -0.03491234                0.00003096                0.11288757               -0.00023704
              11.23302346                2.10039291               66.81996595                0.72138580                0.04295455                0.04298390               -0.14322386               -0.00000101                0.10623910               -0.00069804
              12.23361554                2.09802058               66.68417648                0.72216848                0.07546902                0.07548392               -0.25154735               -0.00006276                0.09138123               -0.00120382
              13.23453284                2.09564053               66.54821966                0.72346977                0.10795518                0.10801106               -0.35988212               -0.00016161                0.06834409               -0.00158312
              14.23577464                2.09325280               66.41202351                0.72529864                0.14038215                0.14069632               -0.46822245               -0.00021611                0.03727363               -0.00152739
              15.23734049                2.09085951               66.27551842                0.86339421                0.15658416                0.17341658               -0.57654733                0.00018754                0.01721629               -0.00068907
               5.23846074                3.11296964               67.63275603                0.86349023               -0.13495919               -0.15158759                0.50430927               -0.00039110                0.01346890                0.00267415
               6.23711115                3.11096268               67.49618115                0.72531320               -0.11876658               -0.11897823                0.39600324               -0.00013463                0.04477698                0.00178699
               7.23608541                3.10894779               67.36015314                0.72336328               -0.08636067               -0.08635525                0.28777446               -0.00012665                0.08449691                0.00129933
               8.23538393                3.10692684               67.22431241                0.72209383               -0.05390288               -0.05382038                0.17949614               -0.00004244                0.10176258                0.00102093
               9.23500735                3.10489982               67.08858854                0.72134509               -0.02140311               -0.02132632                0.07119454               -0.00000953                0.11105825                0.00050505
              10.23495587                3.10286636               66.95291166                0.72110739                0.01110666                0.01116471               -0.03712038               -0.00001685                0.11233894               -0.00023290
              11.23522948                3.10082613               66.81721047                0.72137818                0.04361535                0.04366395               -0.14544701               -0.00004933                0.10552195               -0.00113675
              12.23582818                3.09877888               66.68141344                0.72216431                0.07611544                0.07618347               -0.25378555               -0.00010183                0.09061913               -0.00215745
              13.23675179                3.09672449               66.54544951                0.72346631                0.10859418                0.10875337               -0.36213319               -0.00015800                0.06770389               -0.00321959
              14.23800006                3.09466332               66.40924861                0.72529971                0.14105191                0.14138166               -0.47048121               -0.00013584                0.03690689               -0.00421732
              15.23957283                3.09259629               66.27274226                0.86339482                0.15727684                0.17398131               -0.57880658                0.00026030                0.01700324               -0.00508562
               5.24030111                4.11145744               67.63001814                0.86348814               -0.13430618               -0.15087850                0.50212276               -0.00035755                0.01366227                0.00814066
               6.23895805                4.10977603               67.49343453                0.72530921               -0.11809563               -0.11833818                0.39381711               -0.00007456                0.04535677                0.00533710
               7.23793920                4.10808718               67.35740589                0.72336096               -0.08567267               -0.08574493                0.28558731               -0.00009842                0.08554213                0.00363081
               8.23724460                4.10639176               67.22156615                0.72209074               -0.05322457               -0.05318779                0.17730463               -0.00007457                0.10287641                0.00226499
               9.23687471                4.10468985               67.08584343                0.72134079               -0.02073979               -0.02066873                0.06899562               -0.00006143                0.11209317                0.00104869
              10.23682980                4.10298137               66.95016635                0.72110362                0.01176267                0.01183485               -0.03932929               -0.00006675                0.11320197               -0.00019819
              11.23710996                4.10126619               66.81446326                0.72137712                0.04426734                0.04434500               -0.14766669               -0.00008281                0.10619103               -0.00158095
              12.23771515                4.09954425               66.67866254                0.72216211                0.07676422                0.07688038               -0.25601592               -0.00010243                0.09109412               -0.00317662
              13.23864524                4.09781560               66.54269322                0.72346715                0.10924885                0.10945160               -0.36437329               -0.00010817                0.06800086               -0.00504464
              14.23990012                4.09608044               66.40648545                0.72529979                0.14172461                0.14204299               -0.47272685               -0.00007578                0.03704816               -0.00722755
              15.24147974                4.09433913               66.26997099                0.86339547                0.15796134                0.17460513               -0.58105355                0.00029680                0.01706226               -0.00975015
               5.24181642                5.10995207               67.62728678                0.86348672               -0.13364979               -0.15020927                0.49993120               -0.00033637                0.01402078                0.01278071
               6.24047992                5.10859592               67.49068652                0.72530634               -0.11743522               -0.11768113                0.39162400               -0.00002114                0.04636582                0.00824256
               7.23946771                5.10723290               67.35465463                0.72335858               -0.08500739               -0.08509587                0.28339289               -0.00004867                0.08744237                0.00544213
               8.23877977                5.10586308               67.21881646                0.72208972               -0.05256029               -0.05253444                0.17510669               -0.00007437                0.10511936                0.00329406
               9.23841651                5.10448645               67.08309774                0.72133949               -0.02007878               -0.02000786                0.06679312               -0.00009628                0.11445610                0.00151589
              10.23837820                5.10310306               66.94742502                0.72110373                0.01242183                0.01250126               -0.04153807               -0.00010683                0.11549239               -0.00015202
              11.23866494                5.10171303               66.81172487                0.72137683                0.04492650                0.04501600               -0.14988304               -0.00010282                0.10824792               -0.00193995
              12.23927673                5.10031649               66.67592424                0.72216354                0.07742507                0.07755479               -0.25823958               -0.00008406                0.09278115               -0.00405415
              13.24021344                5.09891352               66.53995084                0.72346960                0.10991408                0.11012412               -0.36660323               -0.00005494                0.06920080               -0.00669327
              14.24147501                5.09750418               66.40373381                0.72530233                0.14239631                0.14270702               -0.47496213               -0.00002463                0.03767242               -0.01003622
              15.24306137                5.09608840               66.26720417                0.86339796                0.15863636                0.17526094               -0.58329135                0.00032442                0.01737099               -0.01421059
               5.24300669                6.10845326               67.62455323                0.86348607               -0.13298883               -0.14956813                0.49773352               -0.00031342                0.01457109                0.01632428
               6.24167680                6.10742241               67.48792868                0.72530483               -0.11678140               -0.11701710                0.38942265                0.00003521                0.04794429                0.01010038
               7.24067106                6.10638526               67.35189346                0.72335958               -0.08436230               -0.08441409                0.28119133                0.00000236                0.09044068                0.00649172
               8.23998956                6.10534107               67.21605977                0.72208959               -0.05191316               -0.05185645                0.17290430               -0.00007466                0.10871805                0.00385056
               9.23963280                6.10428969               67.08035011                0.72134069               -0.01942400               -0.01933975                0.06458844               -0.00013006                0.11833604                0.00177296
              10.23960108                6.10323140               66.94468790                0.72110523                0.01308394                0.01316289               -0.04374633               -0.00014404                0.11935659               -0.00010697
              11.23989448                6.10216651               66.80899687                0.72137798                0.04559499                0.04567313               -0.15209615               -0.00012047                0.11182138               -0.00210906
              12.24051298                6.10109535               66.67320132                0.72216386                0.07809890                0.07820729               -0.26045776               -0.00006568                0.09579565               -0.00454976
              13.24145646                6.10001808               66.53722627                0.72347079                0.11058904                0.11077768               -0.36882551               -0.00000095                0.07139611               -0.00777332
              14.24272476                6.09893458               66.40099833                0.72530545                0.14306644                0.14337522               -0.47718835                0.00002946                0.03883044               -0.01213206
              15.24431779                6.09784435               66.26444668                0.86339802                0.15930282                0.17594716               -0.58552140                0.00035511                0.01795452               -0.01790395
               5.24387185                7.10696071               67.62180466                0.86348500               -0.13232335               -0.14897355                0.49552778               -0.00027556                0.01538455                0.01827754
               6.24254862                7.10625558               67.48514888                0.72530356               -0.11613761               -0.11633096                0.38721176                0.00010069                0.05028713                0.01047261
               7.24154910                7.10554461               67.34911342                0.72335837               -0.08373857               -0.08369337                0.27898322                0.00002828                0.09486948                0.00647490
               8.24087385                7.10482595               67.21329061                0.72209224               -0.05127614               -0.05116423                0.17069785               -0.00010874                0.11399800                0.00377310
               9.24052358                7.10409965               67.07759809                0.72134512               -0.01876752               -0.01867366                0.06238189               -0.00017438                0.12401578                0.00174008
              10.24049850                7.10336632               66.94195512                0.72110986                0.01375014                0.01381961               -0.04595406               -0.00018021                0.12504827               -0.00006347
              11.24079858                7.10262650               66.80628189                0.72138243                0.04626743                0.04632243               -0.15430565               -0.00014212                0.11716564               -0.00199466
              12.24142384                7.10188063               66.67049902                0.72217015                0.07878086                0.07884346               -0.26267014               -0.00006251                0.10040100               -0.00443159
              13.24237420                7.10112908               66.53452738                0.72347591                0.11127378                0.11140791               -0.37104077                0.00004559                0.07482569               -0.00785981
              14.24364932                7.10037168               66.39828902                0.72530729                0.14373619                0.14404150               -0.47940658                0.00009556                0.04067042               -0.01290617
              15.24524892                7.09960734               66.26170939                0.86339981                0.15995998                0.17667880               -0.58774475                0.00040037                0.01889666               -0.02013736
               5.24441145                8.10547379               67.61902247                0.86348321               -0.13165340               -0.14848794                0.49331190               -0.00020606                0.01660338                0.01796304
               6.24309491                8.10509579               67.48232995                0.72530453               -0.11550961               -0.11555855                0.38498896                0.00013666                0.05372700                0.00868994
               7.24210125                8.10471140               67.34630256                0.72335997               -0.08312842               -0.08294942                0.27676660               -0.00004856                0.10125101                0.00519010
               8.24143234                8.10431778               67.21050217                0.72209809               -0.05061550               -0.05050044                0.16848593               -0.00018116                0.12141058                0.00301254
               9.24108894                8.10391622               67.07483873                0.72135205               -0.01808577               -0.01802092                0.06017292               -0.00020859                0.13184365                0.00139704
              10.24107063                8.10350779               66.93922690                0.72111779                0.01441895                0.01447330               -0.04816098               -0.00019126                0.13288618               -0.00002075
              11.24137732                8.10309296               66.80358334                0.72139185                0.04692590                0.04697642               -0.15651122               -0.00015598                0.12464115               -0.00155310
              12.24200915                8.10267222               66.66782476                0.72217743                0.07944987                0.07948650               -0.26487454               -0.00008378                0.10704429               -0.00355260
              13.24296632                8.10224624               66.53186653                0.72348012                0.11196294                0.11201582               -0.37324550                0.00004593                0.07996069               -0.00654361
              14.24424840                8.10181541               66.39562270                0.72530994                0.14440775                0.14467196               -0.48161390                0.00016413                0.04351338               -0.01149854
              15.24585448                8.10137793               66.25901106                0.86340059                0.16060701                0.17750015               -0.58995806                0.00047567                0.02039367               -0.01989201
               5.24462373                9.10399095               67.61618023                0.86348298               -0.13099874               -0.14822704                0.49108007               -0.00023982                0.01832565                0.01326280
               6.24331374                9.10394441               67.47944638                0.72530406               -0.11487986               -0.11463642                0.38274883               -0.00000871                0.05894338                0.00443303
               7.24232613                9.10388563               67.34344792                0.72336647               -0.08241725               -0.08235122                0.27453781               -0.00016610                0.11054022                0.00287269
               8.24166540                9.10381594               67.20768801                0.72210820               -0.04983669               -0.04987721                0.16626591               -0.00020660                0.13145922                0.00167098
               9.24132940                9.10373923               67.07206916                0.72136453               -0.01737334               -0.01738108                0.05796047               -0.00015817                0.14215039                0.00078302
              10.24131793                9.10365579               66.93650341                0.72112975                0.01508145                0.01513041               -0.05036717               -0.00013510                0.14318652                0.00000618
              11.24163103                9.10356602               66.80090472                0.72140509                0.04754809                0.04764638               -0.15871165               -0.00011690                0.13464708               -0.00083984
              12.24226889                9.10347036               66.66518671                0.72218873                0.08004488                0.08016086               -0.26706919               -0.00009491                0.11635339               -0.00197212
              13.24323193                9.10336939               66.52925978                0.72348935                0.11260083                0.11267781               -0.37543588               -0.00000199                0.08775546               -0.00374715
              14.24452091                9.10326512               66.39302657                0.72531654                0.14507316                0.14522284               -0.48380244                0.00014755                0.04812265               -0.00695375
              15.24613339                9.10315734               66.25638293                0.86340310                0.16124795                0.17849396               -0.59215171                0.00047671                0.02285264               -0.01450317
               5.24449974               10.10250925               67.61321692                0.93174081               -0.12996774               -0.14817038                0.48882012                0.01698220                0.02433219                0.01156126
               6.24320006               10.10280306               67.47647467                0.86265390               -0.11366728               -0.11413460                0.38048687                0.01638820                0.06864010                0.00337857
               7.24222639               10.10306437               67.34054224                0.86168583               -0.08127298               -0.08212540                0.27229382                0.01588506                0.12366551                0.00273086
               8.24157460               10.10332024               67.20484333                0.86105844               -0.04902287               -0.04957042                0.16403495                0.01613188                0.14439315                0.00159826
               9.24124594               10.10356860               67.06928722                0.86068746               -0.01667341               -0.01706345                0.05574249                0.01616164                0.15516645                0.00066040
              10.24124113               10.10381040               66.93378454                0.86057177                0.01572352                0.01546102               -0.05257303                0.01618480                0.15617215               -0.00022269
              11.24156041               10.10404589               66.79824837                0.86070780                0.04813725                0.04798635               -0.16090549                0.01618990                0.14749813               -0.00114338
              12.24220388               10.10427544               66.66259111                0.86109902                0.08055578                0.08050730               -0.26925122                0.01619391                0.12890465               -0.00222269
              13.24317152               10.10449979               66.52672103                0.86174786                0.11297631                0.11304002               -0.37760634                0.01618115                0.09969053               -0.00367708
              14.24446341               10.10471986               66.39053653                0.86266100                0.14540204                0.14547446               -0.48596206                0.01665044                0.05741975               -0.00593360
              15.24607956               10.10494781               66.25389715                0.93170247                0.16161579                0.17904667               -0.59430831                0.01741194                0.02991649               -0.01265769
               5.36825265                0.12020564               68.64597867                0.93169847               -0.13259197               -0.14952547                0.49579342               -0.01698812                0.02012520               -0.00505785
               6.36692673                0.11722719               68.50837719                0.86262075               -0.11685232               -0.11670411                0.39067902               -0.01605330                0.04755434               -0.00477519
               7.36591560                0.11426081               68.37124379                0.86169327               -0.08544163               -0.08542629                0.28562715               -0.01561897                0.08560086               -0.00185972
               8.36521790                0.11128867               68.23434187                0.86106336               -0.05406771               -0.05386036                0.18056598               -0.01572820                0.10605701               -0.00101699
               9.36483425                0.10831083               68.09757528                0.86069186               -0.02263550               -0.02232883                0.07549556               -0.01574242                0.11679961               -0.00040393
              10.36476519                0.10532646               67.96086497                0.86057127                0.00883088                0.00921208               -0.02958336               -0.01575530                0.11883657                0.00009219
              11.36501087                0.10233537               67.82413501                0.86070557                0.04030740                0.04075368               -0.13467172               -0.01575625                0.11238152                0.00054477
              12.36557133                0.09933731               67.68731062                0.86109378                0.07177907                0.07229132               -0.23977148               -0.01576042                0.09748064                0.00099813
              13.36644645                0.09633155               67.55031678                0.86173831                0.10324994                0.10385463               -0.34488275               -0.01572888                0.07403978                0.00150988
              14.36763633                0.09331766               67.41307685                0.86264619                0.13467868                0.13526488               -0.45000290               -0.01613612                0.04145581                0.00212656
              15.36914002                0.09028420               67.27550373                0.93169316                0.15036877                0.16799818               -0.55513156               -0.01616841                0.02022309                0.00404463
               5.37106121                1.11871038               68.64327002                0.86335420               -0.13225982               -0.14892783                0.49369271               -0.00040085                0.01620466               -0.00367037
               6.36973861                1.11606015               68.50564777                0.72514968               -0.11662668               -0.11649262                0.38857323               -0.00008502                0.04495804               -0.00446189
               7.36872868                1.11340654               68.36852029                0.72330652               -0.08515037               -0.08503412                0.28351886                0.00002742                0.08329031               -0.00123497
               8.36803560                1.11075007               68.23160339                0.72208352               -0.05353744               -0.05352185                0.17844619                0.00008730                0.10256416               -0.00034277
               9.36765793                1.10808754               68.09481935                0.72135996               -0.02201209               -0.02199923                0.07336344                0.00005560                0.11309695               -0.00010014
              10.36759536                1.10541858               67.95809023                0.72112939                0.00949759                0.00953337               -0.03172787                0.00003557                0.11501381               -0.00013491
              11.36784788                1.10274291               67.82134081                0.72138900                0.04101397                0.04106942               -0.13682877                0.00002042                0.10849560               -0.00028578
              12.36841564                1.10006023               67.68449676                0.72214435                0.07255520                0.07260603               -0.24194109                0.00000395                0.09357946               -0.00044409
              13.36929898                1.09737010               67.54748361                0.72339835                0.10415028                0.10415305               -0.34706521               -0.00009477                0.07017075               -0.00048044
              14.37049865                1.09467031               67.41022517                0.72516572                0.13564098                0.13573414               -0.45219863               -0.00013021                0.03821734               -0.00015096
              15.37201180                1.09196418               67.27264595                0.86330237                0.15131552                0.16802402               -0.55733199                0.00035174                0.01757622                0.00141813
               5.37354509                2.11722708               68.64049834                0.86331201               -0.13162209               -0.14790717                0.49158689               -0.00043933                0.01311614               -0.00240045
               6.37222887                2.11489734               68.50285377                0.72505673               -0.11594243               -0.11603164                0.38646735               -0.00017790                0.04452386               -0.00299936
               7.37122624                2.11256012               68.36575746                0.72322728               -0.08451103               -0.08437181                0.28142711               -0.00006758                0.08420927               -0.00093302
               8.37053865                2.11021823               68.22884575                0.72203874               -0.05296989               -0.05286316                0.17634235                0.00003473                0.10162356               -0.00004173
               9.37016684                2.10787084               68.09205601                0.72133541               -0.02140582               -0.02134603                0.07124172                0.00005080                0.11136560                0.00005403
              10.37011053                2.10551713               67.95531663                0.72111023                0.01013956                0.01018000               -0.03386903                0.00002950                0.11293040               -0.00023359
              11.37036963                2.10315676               67.81855486                0.72136666                0.04168483                0.04171333               -0.13899004               -0.00000163                0.10626893               -0.00070751
              12.37094423                2.10078943               67.68169808                0.72210052                0.07324160                0.07325623               -0.24412312               -0.00006168                0.09139504               -0.00122624
              13.37183446                2.09841461               67.54467384                0.72332211                0.10477085                0.10482543               -0.34926724               -0.00015746                0.06834312               -0.00161693
              14.37303964                2.09603235               67.40741023                0.72503994                0.13624278                0.13654797               -0.45441638               -0.00020998                0.03726827               -0.00156764
              15.37455932                2.09364468               67.26983782                0.86321969                0.15196769                0.16830437               -0.55955084                0.00018203                0.01720653               -0.00072407
               5.37571190                3.11575224               68.63772503                0.86331041               -0.13098889               -0.14712734                0.48947091               -0.00037937                0.01347880                0.00268965
               6.37440201                3.11373952               68.50008302                0.72505314               -0.11527315               -0.11547856                0.38435526               -0.00013075                0.04483608                0.00180643
               7.37340643                3.11171911               68.36298864                0.72322349               -0.08382148               -0.08381655                0.27931423               -0.00012323                0.08457795                0.00132003
               8.37272558                3.10969280               68.22608106                0.72203303               -0.05231951               -0.05223986                0.17422434               -0.00004139                0.10181307                0.00103954
               9.37236004                3.10766062               68.08929009                0.72132798               -0.02077716               -0.02070282                0.06911264               -0.00000951                0.11109417                0.00051642
              10.37231004                3.10562218               67.95254600                0.72110408                0.01077495                0.01083125               -0.03601179               -0.00001682                0.11236362               -0.00023111
              11.37257554                3.10357717               67.81577747                0.72135983                0.04232609                0.04237331               -0.14114758               -0.00004830                0.10553305               -0.00114565
              12.37315656                3.10152535               67.67891299                0.72209616                0.07386882                0.07393518               -0.24629535               -0.00009923                0.09061540               -0.00217634
              13.37405292                3.09946660               67.54188151                0.72331952                0.10539101                0.10554591               -0.35145239               -0.00015379                0.06768907               -0.00324715
              14.37526438                3.09740127               67.40461307                0.72504072                0.13689294                0.13721314               -0.45660919               -0.00013199                0.03689460               -0.00424926
              15.37679078                3.09533027               67.26703942                0.86322148                0.15264006                0.16885264               -0.56174388                0.00025259                0.01699124               -0.00511535
               5.37756293                4.11428453               68.63496560                0.86330902               -0.13035526               -0.14643922                0.48734905               -0.00034710                0.01367161                0.00816268
               6.37625938                4.11258777               68.49731486                0.72505108               -0.11462209               -0.11485744                0.38223382               -0.00007244                0.04541430                0.00535847
               7.37527049                4.11088379               68.36021985                0.72322053               -0.08315380               -0.08322422                0.27719143               -0.00009559                0.08561930                0.00365041
               8.37459631                4.10917343               68.22331320                0.72202740               -0.05166121               -0.05162595                0.17209759               -0.00007263                0.10292028                0.00228017
               9.37423727                4.10745679               68.08652332                0.72132347               -0.02013342               -0.02006467                0.06697876               -0.00006009                0.11211952                0.00105796
              10.37419364                4.10573376               67.94977892                0.72110166                0.01141154                0.01148153               -0.03815518               -0.00006525                0.11321496               -0.00019731
              11.37446550                4.10400423               67.81300839                0.72135626                0.04295871                0.04303423               -0.14330165               -0.00008085                0.10619044               -0.00158913
              12.37505281                4.10226814               67.67614012                0.72209530                0.07449834                0.07461132               -0.24845929               -0.00009986                0.09107937               -0.00319359
              13.37595547                4.10052553               67.53910315                0.72331999                0.10602633                0.10622315               -0.35362519               -0.00010536                0.06797676               -0.00506944
              14.37717334                4.09877661               67.40182778                0.72504258                0.13754570                0.13785468               -0.45878808               -0.00007378                0.03703044               -0.00725813
              15.37870638                4.09702173               67.26424600                0.86322174                0.15330416                0.16945768               -0.56392363                0.00028780                0.01704684               -0.00978367
               5.37909848                5.11282345               68.63221264                0.86330863               -0.12971792               -0.14578958                0.48522170               -0.00032660                0.01403070                0.01280901
               6.37780130                5.11144237               68.49454525                0.72505072               -0.11398098               -0.11421958                0.38010473               -0.00002059                0.04642376                0.00826585
               7.37681886                5.11005462               68.35744697                0.72321818               -0.08250836               -0.08259415                0.27506152               -0.00004731                0.08751834                0.00546193
               8.37615113                5.10866028               68.22054185                0.72202556               -0.05101687               -0.05099196                0.16996488               -0.00007253                0.10516070                0.00330864
               9.37579852                5.10725933               68.08375593                0.72132189               -0.01949202               -0.01942344                0.06484168               -0.00009404                0.11447875                0.00152439
              10.37576129                5.10585181               67.94701584                0.72110015                0.01205116                0.01212822               -0.04029866               -0.00010419                0.11550016               -0.00015135
              11.37603954                5.10443786               67.81024818                0.72135716                0.04359830                0.04368530               -0.14545209               -0.00010020                0.10824145               -0.00194803
              12.37663326                5.10301758               67.67337991                0.72209427                0.07513973                0.07526567               -0.25061703               -0.00008208                0.09276096               -0.00407128
              13.37754234                5.10159107               67.53633882                0.72332214                0.10667199                0.10687566               -0.35578917               -0.00005365                0.06917240               -0.00671819
              14.37876670                5.10015837               67.39905413                0.72504420                0.13819754                0.13849891               -0.46095673               -0.00002408                0.03765128               -0.01006803
              15.38030629                5.09871942               67.26145711                0.86322310                0.15395921                0.17009398               -0.56609545                0.00031467                0.01735234               -0.01424823
               5.38031857                6.11136874               68.62945744                0.86330666               -0.12907653               -0.14516736                0.48308902               -0.00030411                0.01458166                0.01635786
               6.37902780                6.11030338               68.49176572                0.72504685               -0.11334655               -0.11357517                0.37796851                0.00003398                0.04800465                0.01012408
               7.37805164                6.10923191               68.35466410                0.72321734               -0.08188243               -0.08193258                0.27292520                0.00000179                0.09052045                0.00651132
               8.37739015                6.10815360               68.21776347                0.72202605               -0.05038896               -0.05033410                0.16782793               -0.00007292                0.10876205                0.00386544
               9.37704386                6.10706832               68.08098658                0.72132163               -0.01885660               -0.01877511                0.06270230               -0.00012660                0.11835987                0.00178131
              10.37701302                6.10597632               67.94425695                0.72110204                0.01269385                0.01277031               -0.04244180               -0.00014012                0.11936419               -0.00010624
              11.37729773                6.10487793               67.80749837                0.72135932                0.04424711                0.04432299               -0.14759978               -0.00011700                0.11181373               -0.00211731
              12.37789796                6.10377345               67.67063513                0.72209686                0.07579353                0.07589895               -0.25276974               -0.00006383                0.09577457               -0.00456734
              13.37881360                6.10266304               67.53359234                0.72332309                0.10732695                0.10751016               -0.35794649               -0.00000116                0.07136775               -0.00779929
              14.38004450                6.10154659               67.39629671                0.72504665                0.13884791                0.13914754               -0.46311766                0.00002848                0.03881026               -0.01216625
              15.38159056                6.10042361               67.25867767                0.86322478                0.15460603                0.17076014               -0.56825990                0.00034471                0.01793738               -0.01794710
               5.38122312                7.10992011               68.62668714                0.86330600               -0.12843096               -0.14459045                0.48094876               -0.00026739                0.01539634                0.01831498
               6.37993881                7.10917087               68.48896414                0.72504511               -0.11272204               -0.11290948                0.37582360                0.00009744                0.05035268                0.01049559
               7.37896868                7.10841597               68.35186231                0.72321799               -0.08127721               -0.08123336                0.27078273                0.00002696                0.09495822                0.00649409
               8.37831327                7.10765360               68.21497256                0.72202865               -0.04977067               -0.04966229                0.16568636               -0.00010569                0.11404943                0.00378772
               9.37797326                7.10688382               68.07821282                0.72132636               -0.01821949               -0.01812865                0.06056087               -0.00016920                0.12404559                0.00174823
              10.37794888                7.10610722               67.94150243                0.72110484                0.01334044                0.01340763               -0.04458425               -0.00017500                0.12506100               -0.00006264
              11.37824007                7.10532432               67.80476161                0.72136378                0.04489980                0.04495318               -0.14974442               -0.00013808                0.11716216               -0.00200199
              12.37884687                7.10453556               67.66791103                0.72210186                0.07645520                0.07651642               -0.25491674               -0.00006064                0.10038398               -0.00444749
              13.37976918                7.10374127               67.53087163                0.72332587                0.10799124                0.10812192               -0.36009634                0.00004421                0.07480134               -0.00788455
              14.38100670                7.10294132               67.39356555                0.72504815                0.13949793                0.13979434               -0.46527094                0.00009265                0.04065259               -0.01294176
              15.38255914                7.10213463               67.25591848                0.86322518                0.15524399                0.17147030               -0.57041781                0.00038857                0.01888070               -0.02018700
               5.38181169                8.10847693               68.62388313                0.86330530               -0.12778096               -0.14411934                0.47879872               -0.00020016                0.01661669                0.01799980
               6.38053388                8.10804519               68.48612331                0.72504633               -0.11211262               -0.11215990                0.37366659                0.00013223                0.05380100                0.00870828
               7.37956944                8.10760724               68.34902961                0.72322099               -0.08068493               -0.08051139                0.26863141               -0.00004731                0.10135415                0.00520630
               8.37892019                8.10716035               68.21216234                0.72203454               -0.04912949               -0.04901805                0.16353949               -0.00017563                0.12147485                0.00302505
               9.37858685                8.10670575               68.07543169                0.72133397               -0.01755805               -0.01749519                0.05841731               -0.00020222                0.13188496                0.00140429
              10.37856903                8.10624447               67.93875247                0.72111559                0.01398921                0.01404197               -0.04672573               -0.00018544                0.13290965               -0.00001992
              11.37886664                8.10577700               67.80204133                0.72137035                0.04553866                0.04558787               -0.15188472               -0.00015147                0.12464816               -0.00155895
              12.37947980                8.10530378               67.66521506                0.72210922                0.07710452                0.07714051               -0.25705627               -0.00008124                0.10703698               -0.00356524
              13.38040873                8.10482548               67.52818906                0.72333256                0.10866006                0.10871179               -0.36223553                0.00004491                0.07994349               -0.00656502
              14.38165300                8.10434248               67.39087748                0.72505302                0.14014955                0.14040607               -0.46741255                0.00015931                0.04349880               -0.01153077
              15.38321172                8.10385302               67.25319831                0.86322673                0.15587180                0.17226724               -0.57256565                0.00046138                0.02037838               -0.01994015
               5.38208260                9.10703772               68.62101891                0.86330400               -0.12714570               -0.14386644                0.47663329               -0.00023300                0.01834240                0.01328939
               6.38081114                9.10692767               68.48321766                0.72504790               -0.11150140               -0.11126483                0.37149237               -0.00000889                0.05903043                0.00444153
               7.37985257                9.10680574               68.34615301                0.72322604               -0.07999463               -0.07993078                0.26646791               -0.00016129                0.11066491                0.00288260
               8.37921125                9.10667324               68.20932630                0.72204428               -0.04837373               -0.04841329                0.16138540               -0.00020047                0.13154352                0.00167847
               9.37888510                9.10653392               68.07264033                0.72134761               -0.01686669               -0.01687434                0.05627040               -0.00015345                0.14221020                0.00078765
              10.37887392                9.10638806               67.93600724                0.72112786                0.01463203                0.01467962               -0.04886650               -0.00013090                0.14322733                0.00000679
              11.37917774                9.10623608               67.79934104                0.72138372                0.04614230                0.04623803               -0.15401999               -0.00011328                0.13467138               -0.00084342
              12.37979676                9.10607837               67.66255539                0.72212045                0.07768208                0.07779496               -0.25918634               -0.00009188                0.11636219               -0.00197993
              13.38073138                9.10591551               67.52556073                0.72334219                0.10927909                0.10935409               -0.36436074               -0.00000161                0.08775257               -0.00376061
              14.38198234                9.10574944               67.38825979                0.72505664                0.14079491                0.14094060               -0.46953548                0.00014317                0.04811876               -0.00697316
              15.38354728                9.10557997               67.25054858                0.86322915                0.15649337                0.17323160               -0.57469394                0.00046239                0.02284496               -0.01453521
               5.38202713               10.10559960               68.61803332                0.93165256               -0.12614496               -0.14381164                0.47444017                0.01648228                0.02436236                0.01158592
               6.38076568               10.10581989               68.48022368                0.86252487               -0.11032430               -0.11077772                0.36929708                0.01590522                0.06874990                0.00338587
               7.37982065               10.10600863               68.34322522                0.86161585               -0.07888412               -0.07971163                0.26429035                0.01541700                0.12381992                0.00274052
               8.37918800               10.10619208               68.20645964                0.86102616               -0.04758420               -0.04811561                0.15922059                0.01565659                0.14450447                0.00160460
               9.37886896               10.10636826               68.06983653                0.86067901               -0.01618751               -0.01656615                0.05411802                0.01568557                0.15525284                0.00066403
              10.37886425               10.10653807               67.93326664                0.86056946                0.01525512                0.01500044               -0.05100713                0.01570829                0.15623906               -0.00022267
              11.37917407               10.10670176               67.79666307                0.86069739                0.04671404                0.04656795               -0.15614897                0.01571336                0.14754830               -0.00114715
              12.37979853               10.10685968               67.65993829                0.86106633                0.07817787                0.07813117               -0.26130376                0.01571718                0.12893899               -0.00223029
              13.38073762               10.10701256               67.52300059                0.86167507                0.10964341                0.10970556               -0.36646693                0.01570474                0.09971314               -0.00368891
              14.38199140               10.10716129               67.38574847                0.86253126                0.14111404                0.14118485               -0.47163138                0.01615996                0.05743796               -0.00594933
              15.38355990               10.10731765               67.24804158                0.93161485                0.15685037                0.17376803               -0.57678740                0.01689884                0.02992791               -0.01268445
               5.50658111                0.12287419               69.65086135                0.93160887               -0.12856171               -0.14498020                0.48072206               -0.01647139                0.02015345               -0.00506096
               6.50529549                0.11991940               69.51222469                0.86249123               -0.11330081               -0.11315698                0.37880503               -0.01556480                0.04762408               -0.00477394
               7.50431509                0.11697629               69.37405673                0.86162003               -0.08284578               -0.08283099                0.27694922               -0.01514361                0.08570523               -0.00185110
               8.50363858                0.11402761               69.23612016                0.86103113               -0.05242668               -0.05222558                0.17508522               -0.01524963                0.10615834               -0.00101015
               9.50326656                0.11107340               69.09831883                0.86068137               -0.02195087               -0.02165348                0.07321183               -0.01526352                0.11689556               -0.00039988
              10.50319956                0.10811286               68.96057371                0.86057068                0.00855823                0.00892760               -0.02866964               -0.01527611                0.11892447                0.00009374
              11.50343773                0.10514580               68.82280882                0.86069575                0.03907687                0.03950943               -0.13056035               -0.01527715                0.11245771                0.00054384
              12.50398110                0.10217198               68.68494941                0.86105942                0.06959074                0.07008738               -0.23246151               -0.01528115                0.09754152                0.00099425
              13.50482954                0.09919070               68.54692044                0.86166192                0.10010425                0.10069042               -0.33437475               -0.01525035                0.07408383                0.00150321
              14.50598318                0.09620154               68.40864527                0.86251276                0.13057705                0.13114520               -0.43629752               -0.01564498                0.04148251                0.00211694
              15.50744108                0.09319341               68.27003684                0.93160361                0.14578983                0.16288244               -0.53822738               -0.01567640                0.02023453                0.00404066
               5.50937119                1.12142439               69.64813202                0.86317891               -0.12823974               -0.14440055                0.47868518               -0.00038837                0.01621907               -0.00366400
               6.50808880                1.11878783               69.50947454                0.72489394               -0.11308210               -0.11295204                0.37676344               -0.00008227                0.04501562               -0.00445109
               7.50710955                1.11614798               69.37131247                0.72316749               -0.08256335               -0.08245088                0.27490531                0.00002657                0.08337957               -0.00121108
               8.50643753                1.11350535               69.23336081                0.72202002               -0.05191247               -0.05189751                0.17303014                0.00008440                0.10264531               -0.00032343
               9.50607130                1.11085686               69.09554191                0.72134184               -0.02134647               -0.02133403                0.07114486                0.00005346                0.11317226               -0.00008878
              10.50601060                1.10820213               68.95777785                0.72112539                0.00920454                0.00923906               -0.03074860                0.00003397                0.11508112               -0.00013204
              11.50625539                1.10554089               68.81999339                0.72136984                0.03976184                0.03981554               -0.13265132                0.00001925                0.10855093               -0.00029176
              12.50680584                1.10287286               68.68211419                0.72207494                0.07034317                0.07039262               -0.23456516                0.00000340                0.09361931               -0.00045937
              13.50766226                1.10019760               68.54406577                0.72325127                0.10097699                0.10097982               -0.33649084               -0.00009187                0.07019359               -0.00050461
              14.50882538                1.09751300               68.40577197                0.72490850                0.13150966                0.13159999               -0.43842556               -0.00012592                0.03822682               -0.00018200
              15.51029245                1.09482224               68.26715739                0.86312960                0.14670730                0.16290706               -0.54035982                0.00034117                0.01757459                0.00139173
               5.51184647                2.11998618               69.64533960                0.86313819               -0.12762152               -0.14341085                0.47664354               -0.00042584                0.01312470               -0.00238988
               6.51057026                2.11766036               69.50665980                0.72480659               -0.11241872               -0.11250529                0.37472199               -0.00017245                0.04458275               -0.00298193
               7.50959810                2.11532727               69.36852904                0.72309032               -0.08194356               -0.08180894                0.27287783               -0.00006580                0.08429389               -0.00090453
               8.50893139                2.11298966               69.23058245                0.72197541               -0.05136236               -0.05125907                0.17099090                0.00003301                0.10168410               -0.00001743
               9.50857085                2.11064672               69.09275768                0.72131644               -0.02075872               -0.02070090                0.06908814                0.00004850                0.11141655                0.00006900
              10.50851621                2.10829764               68.95498316                0.72110857                0.00982695                0.00986591               -0.03282431                0.00002787                0.11297215               -0.00023029
              11.50876739                2.10594211               68.81718615                0.72134790                0.04041222                0.04043982               -0.13474662               -0.00000231                0.10629806               -0.00071663
              12.50932446                2.10357983               68.67929402                0.72203574                0.07100868                0.07102304               -0.23668063               -0.00006037                0.09140868               -0.00124805
              13.51018756                2.10121029               68.54123431                0.72317964                0.10157871                0.10163177               -0.33862597               -0.00015298                0.06834206               -0.00165029
              14.51135603                2.09883354               68.40293518                0.72479161                0.13209302                0.13238890               -0.44057531               -0.00020381                0.03726302               -0.00160790
              15.51282942                2.09645155               68.26432741                0.86305155                0.14733934                0.16317867               -0.54251018                0.00017641                0.01719713               -0.00076082
               5.51401433                3.11855617               69.64254545                0.86313764               -0.12700753               -0.14265496                0.47459202               -0.00036782                0.01348849                0.00270440
               6.51274425                3.11653772               69.50386826                0.72480419               -0.11176997               -0.11196920                0.37267454               -0.00012685                0.04489315                0.00182581
               7.51177893                3.11451180               69.36573942                0.72308579               -0.08127537               -0.08127065                0.27082977               -0.00011987                0.08465565                0.00134028
               8.51111875                3.11248017               69.22779690                0.72197088               -0.05073189               -0.05065473                0.16893748               -0.00004074                0.10186214                0.00105711
               9.51076429                3.11044284               69.08997079                0.72131003               -0.02014905               -0.02007733                0.06702405               -0.00000990                0.11112967                0.00052741
              10.51071577                3.10839945               68.95219143                0.72109996                0.01044297                0.01049726               -0.03490161               -0.00001713                0.11238793               -0.00022929
              11.51097315                3.10634969               68.81438751                0.72133927                0.04103385                0.04107966               -0.13683838               -0.00004770                0.10554422               -0.00115404
              12.51153644                3.10429332               68.67648754                0.72202956                0.07161676                0.07168121               -0.23878658               -0.00009677                0.09061171               -0.00219471
              13.51240549                3.10223024               68.53842046                0.72317640                0.10217988                0.10233020               -0.34074439               -0.00014949                0.06767393               -0.00327371
              14.51358004                3.10016077               68.40011643                0.72479078                0.13272355                0.13303394               -0.44270218               -0.00012853                0.03688081               -0.00428008
              15.51505996                3.09808581               68.26150739                0.86305234                0.14799174                0.16371083               -0.54463847                0.00024460                0.01697606               -0.00514445
               5.51587602                4.11713308               69.63976512                0.86313495               -0.12639320               -0.14198791                0.47253509               -0.00033658                0.01368097                0.00818372
               6.51461209                4.11542097               69.50107921                0.72480124               -0.11113875               -0.11136709                0.37061794               -0.00007041                0.04547006                0.00537815
               7.51365325                4.11370186               69.36294972                0.72308437               -0.08062804               -0.08069632                0.26877154               -0.00009294                0.08569336                0.00366903
               8.51299953                4.11197657               69.22500810                0.72196645               -0.05009372               -0.05005949                0.16687545               -0.00007073                0.10296248                0.00229572
               9.51265137                4.11024517               69.08718300                0.72130487               -0.01952521               -0.01945859                0.06495525               -0.00005891                0.11214557                0.00106711
              10.51260903                4.10850758               68.94940325                0.72109699                0.01105993                0.01112775               -0.03697960               -0.00006412                0.11322833               -0.00019632
              11.51287257                4.10676370               68.81159723                0.72133736                0.04164727                0.04172041               -0.13892668               -0.00007916                0.10619025               -0.00159727
              12.51344197                4.10501346               68.67369336                0.72202880                0.07222722                0.07233681               -0.24088503               -0.00009729                0.09106548               -0.00321058
              13.51431712                4.10325690               68.53562071                0.72317781                0.10279578                0.10298672               -0.34285069               -0.00010232                0.06795356               -0.00509386
              14.51549789                4.10149422               68.39730969                0.72479174                0.13335635                0.13365586               -0.44481427               -0.00007159                0.03701270               -0.00728731
              15.51698424                4.09972577               68.25869252                0.86305310                0.14863565                0.16429754               -0.54675219                0.00027892                0.01703072               -0.00981367
               5.51743182                5.11571642               69.63699121                0.86313567               -0.12577533               -0.14135797                0.47047229               -0.00031664                0.01403926                0.01283674
               6.51617407                5.11431038               69.49828861                0.72479810               -0.11051718               -0.11074866                0.36855357               -0.00001994                0.04647962                0.00828770
               7.51522148                5.11289788               69.36015586                0.72308207               -0.08000218               -0.08008556                0.26670665               -0.00004602                0.08759296                0.00548082
               8.51457402                5.11147898               69.22221575                0.72196229               -0.04946910               -0.04944501                0.16480855               -0.00007065                0.10520138                0.00332362
               9.51423210                5.11005367               69.08439457                0.72130442               -0.01890355               -0.01883696                0.06288373               -0.00009170                0.11450074                0.00153285
              10.51419595                5.10862201               68.94661905                0.72109624                0.01168001                0.01175473               -0.03905765               -0.00010154                0.11550807               -0.00015088
              11.51446570                5.10718410               68.80881583                0.72133532                0.04226738                0.04235171               -0.14101183               -0.00009766                0.10823545               -0.00195592
              12.51504130                5.10574005               68.67091190                0.72202819                0.07284909                0.07297131               -0.24297715               -0.00008006                0.09274162               -0.00408778
              13.51592268                5.10428997               68.53283506                0.72317908                0.10342183                0.10361943               -0.34494908               -0.00005234                0.06914530               -0.00674292
              14.51710974                5.10283389               68.39451467                0.72479386                0.13398822                0.13428032               -0.44691645               -0.00002327                0.03763191               -0.01009923
              15.51860244                5.10137176               68.25588226                0.86305392                0.14927045                0.16491400               -0.54885632                0.00030526                0.01733560               -0.01428516
               5.51868176                6.11430592               69.63421501                0.86313412               -0.12515332               -0.14075473                0.46840407               -0.00029489                0.01459055                0.01639121
               6.51743023                6.11320600               69.49548805                0.72479737               -0.10990207               -0.11012394                0.36648246                0.00003289                0.04806264                0.01014843
               7.51648372                6.11210015               69.35735196                0.72308047               -0.07939546               -0.07944436                0.26463627                0.00000160                0.09059878                0.00653149
               8.51584232                6.11098767               69.21941633                0.72196615               -0.04886034               -0.04880739                0.16273713               -0.00007096                0.10880509                0.00388006
               9.51550652                6.10986843               69.08160416                0.72130499               -0.01828747               -0.01820851                0.06080978               -0.00012298                0.11838246                0.00178955
              10.51547657                6.10874268               68.94383906                0.72109837                0.01230292                0.01237721               -0.04113538               -0.00013598                0.11937187               -0.00010580
              11.51575257                6.10761073               68.80604488                0.72133787                0.04289614                0.04296997               -0.14309392               -0.00011357                0.11180711               -0.00212512
              12.51633449                6.10647288               68.66814592                0.72203112                0.07348288                0.07358521               -0.24506397               -0.00006222                0.09575419               -0.00458352
              13.51722223                6.10532929               68.53006734                0.72317979                0.10405690                0.10423461               -0.34704076               -0.00000159                0.07133996               -0.00782473
              14.51841563                6.10417983               68.39173597                0.72479643                0.13461890                0.13490931               -0.44901216                0.00002736                0.03879021               -0.01220080
              15.51991461                6.10302405               68.25308149                0.86305709                0.14989769                0.16555993               -0.55095516                0.00033418                0.01791960               -0.01799102
               5.51962577                7.11290132               69.63142363                0.86313313               -0.12452749               -0.14019559                0.46632998               -0.00025936                0.01540774                0.01835088
               6.51838050                7.11210790               69.49266535                0.72479775               -0.10929656               -0.10947861                0.36440325                0.00009436                0.05041625                0.01051867
               7.51743984                7.11130899               69.35452908                0.72308220               -0.07880872               -0.07876636                0.26255879                0.00002594                0.09504409                0.00651332
               8.51680432                7.11050284               69.21660433                0.72196493               -0.04826102               -0.04815603                0.16066085               -0.00010266                0.11409903                0.00380140
               9.51647462                7.10968950               69.07880931                0.72130910               -0.01766974               -0.01758187                0.05873390               -0.00016417                0.12407415                0.00175625
              10.51645093                7.10886955               68.94106344                0.72110298                0.01292987                0.01299502               -0.04321234               -0.00016968                0.12507333               -0.00006184
              11.51673322                7.10804350               68.80328700                0.72134359                0.04352879                0.04358082               -0.14517276               -0.00013370                0.11715962               -0.00200946
              12.51732151                7.10721176               68.66540068                0.72203673                0.07412413                0.07418361               -0.24714455               -0.00005873                0.10036686               -0.00446339
              13.51821570                7.10637466               68.52732545                0.72318458                0.10470080                0.10482753               -0.34912420                0.00004280                0.07477572               -0.00790949
              14.51941552                7.10553208               68.38898360                0.72479855                0.13524907                0.13553637               -0.45109975                0.00008975                0.04063446               -0.01297685
              15.52092068                7.10468296               68.25030103                0.86305725                0.15051619                0.16624852               -0.55304760                0.00037650                0.01886476               -0.02023388
               5.52026342                8.11150201               69.62859844                0.86313361               -0.12389701               -0.13973859                0.46424449               -0.00019408                0.01663074                0.01803507
               6.51902445                8.11101643               69.48980328                0.72479756               -0.10870569               -0.10875165                0.36231151                0.00012824                0.05387308                0.00872559
               7.51808931                8.11052482               69.35167519                0.72308500               -0.07823466               -0.07806626                0.26047272               -0.00004622                0.10145372                0.00522147
               8.51745976                8.11002454               69.21377296                0.72197378               -0.04763946               -0.04753136                0.15857923               -0.00017055                0.12153725                0.00303698
               9.51713652                8.10951679               69.07600708                0.72131685               -0.01702851               -0.01696773                0.05665586               -0.00019604                0.13192528                0.00141130
              10.51711919                8.10900258               68.93829239                0.72111129                0.01355896                0.01360995               -0.04528840               -0.00017986                0.13293227               -0.00001878
              11.51740770                8.10848235               68.80054564                0.72135290                0.04414833                0.04419602               -0.14724748               -0.00014687                0.12465482               -0.00156487
              12.51800215                8.10795656               68.66268363                0.72204420                0.07475361                0.07478860               -0.24921874               -0.00007860                0.10702884               -0.00357892
              13.51890277                8.10742584               68.52462182                0.72319006                0.10534901                0.10539935               -0.35119794                0.00004366                0.07992621               -0.00658537
              14.52010913                8.10689056               68.38627445                0.72480195                0.13588042                0.13612919               -0.45317478                0.00015442                0.04348649               -0.01156068
              15.52162038                8.10634902               68.24755974                0.86305840                0.15112433                0.16702068               -0.55512822                0.00044710                0.02036661               -0.01998576
               5.52059306                9.11010655               69.62571290                0.86313215               -0.12328111               -0.13949314                0.46214454               -0.00022585                0.01835888                0.01331604
               6.51936025                9.10993287               69.48687622                0.72479809               -0.10811322               -0.10788355                0.36020353               -0.00000898                0.05911480                0.00444933
               7.51843080                9.10974766               69.34877728                0.72309023               -0.07756545               -0.07750357                0.25837581               -0.00015681                0.11078612                0.00289167
               8.51780894                9.10955221               69.21091571                0.72198281               -0.04690664               -0.04694507                0.15649078               -0.00019456                0.13162540                0.00168613
               9.51749267                9.10935015               69.07319457                0.72133125               -0.01635843               -0.01636574                0.05457429               -0.00014870                0.14226818                0.00079207
              10.51748177                9.10914175               68.93552608                0.72112411                0.01418195                0.01422812               -0.04736359               -0.00012694                0.14326692                0.00000765
              11.51777630                9.10892742               68.79782432                0.72136544                0.04473368                0.04482627               -0.14931739               -0.00010999                0.13469421               -0.00084678
              12.51837645                9.10870753               68.66000298                0.72205468                0.07531356                0.07542320               -0.25128404               -0.00008905                0.11637066               -0.00198789
              13.51928258                9.10848265               68.52197256                0.72319835                0.10594894                0.10602208               -0.35325814               -0.00000164                0.08775051               -0.00377246
              14.52049543                9.10825466               68.38363586                0.72480657                0.13650602                0.13664745               -0.45523280                0.00013853                0.04811520               -0.00699202
              15.52201270                9.10802337               68.24488905                0.86305912                0.15172700                0.16795560               -0.55719190                0.00044815                0.02283771               -0.01456990
               5.52060627               10.10871215               69.62270572                0.93156536               -0.12231129               -0.13944005                0.46001949                0.01598099                0.02438997                0.01161114
               6.51938315               10.10885876               69.48386062                0.86239960               -0.10697197               -0.10741119                0.35807576                0.01542034                0.06885553                0.00339255
               7.51846683               10.10897475               69.34582805                0.86154865               -0.07648862               -0.07729131                0.25626488                0.01494728                0.12397024                0.00274930
               8.51785338               10.10908564               69.20802774                0.86099472               -0.04614139               -0.04665652                0.15439234                0.01518021                0.14461282                0.00161124
               9.51754400               10.10918948               69.07036958                0.86067114               -0.01570013               -0.01606691                0.05248762                0.01520832                0.15533643                0.00066759
              10.51753938               10.10928714               68.93276440                0.86056875                0.01478590                0.01453914               -0.04943856                0.01523036                0.15630392               -0.00022262
              11.51783972               10.10937888               68.79512539                0.86068791                0.04528789                0.04514612               -0.15138143                0.01523519                0.14759644               -0.00115073
              12.51844514               10.10946502               68.65736504                0.86103235                0.07579425                0.07574919               -0.25333685                0.01523894                0.12897247               -0.00223747
              13.51935560               10.10954628               68.51939170                0.86160300                0.10630221                0.10636280               -0.35530008                0.01522684                0.09973478               -0.00369973
              14.52057118               10.10962350               68.38110390                0.86240538                0.13681564                0.13688440               -0.45726537                0.01566811                0.05745290               -0.00596624
              15.52209192               10.10970813               68.24236140                0.93153078                0.15207345                0.16847596               -0.55922310                0.01638459                0.02993475               -0.01271640
               5.64592904                0.12556308               70.65559311                0.93152296               -0.12452059               -0.14042252                0.46560969               -0.01595316                0.02017951               -0.00506527
               6.64468383                0.12263203               70.51595329                0.86236366               -0.10973992               -0.10960032                0.36689922               -0.01507484                0.04769137               -0.00477270
               7.64373424                0.11971230               70.37678278                0.86154944               -0.08024325               -0.08022887                0.26824856               -0.01466718                0.08580695               -0.00184303
               8.64307896                0.11678717               70.23784357                0.86099874               -0.05078116               -0.05058631                0.16958932               -0.01477002                0.10625678               -0.00100396
               9.64271861                0.11385668               70.09903951                0.86067351               -0.02126412               -0.02097609                0.07092104               -0.01478349                0.11698860               -0.00039584
              10.64265368                0.11092006               69.96029158                0.86056812                0.00828498                0.00864289               -0.02775492               -0.01479566                0.11901002                0.00009513
              11.64288431                0.10797712               69.82152380                0.86068546                0.03784355                0.03826253               -0.12643980               -0.01479651                0.11253205                0.00054269
              12.64341055                0.10502765               69.68266139                0.86102465                0.06739766                0.06787855               -0.22513532               -0.01480041                0.09760078                0.00098985
              13.64423227                0.10207094               69.54362929                0.86159003                0.09695122                0.09751880               -0.32384205               -0.01477067                0.07412582                0.00149606
              14.64534958                0.09910661               69.40435090                0.86238536                0.12646515                0.12701542               -0.42255810               -0.01515283                0.04150759                0.00210823
              15.64676157                0.09612391               69.26473919                0.93151732                0.14119921                0.15775427               -0.52128147               -0.01518311                0.02024527                0.00403694
               5.64870056                1.12415885               70.65284373                0.86300839               -0.12420868               -0.13986110                0.46363679               -0.00037599                0.01623302               -0.00365826
               6.64745847                1.12153602               70.51318304                0.72464503               -0.10952815               -0.10940199                0.36492205               -0.00007955                0.04507153               -0.00444035
               7.64650999                1.11891001               70.37401840                0.72303011               -0.07996968               -0.07986073                0.26626908                0.00002558                0.08346648               -0.00118797
               8.64585908                1.11628131               70.23506399                0.72195787               -0.05028295               -0.05026862                0.16759898                0.00008154                0.10272445               -0.00030479
               9.64550433                1.11364692               70.09624225                0.72132406               -0.02067863               -0.02066675                0.06891940                0.00005139                0.11324560               -0.00007758
              10.64544550                1.11100649               69.95747526                0.72112264                0.00891100                0.00894447               -0.02976819                0.00003243                0.11514671               -0.00012935
              11.64568255                1.10835975               69.81868779                0.72135067                0.03850688                0.03855897               -0.12846475                0.00001834                0.10860483               -0.00029768
              12.64621564                1.10570643               69.67980546                0.72201081                0.06812613                0.06817410               -0.22717225                0.00000307                0.09365777               -0.00047439
              13.64704508                1.10304612               69.54075380                0.72310925                0.09779612                0.09779909               -0.32589130               -0.00008923                0.07021544               -0.00052832
              14.64817156                1.10037676               69.40145665                0.72465951                0.12736818                0.12745600               -0.42461909               -0.00012201                0.03823565               -0.00021098
              15.64959244                1.09770145               69.26183875                0.86296136                0.14208773                0.15777810               -0.52334670                0.00033057                0.01757251                0.00136775
               5.65116718                2.12276586               70.65003121                0.86297122               -0.12360979               -0.13890255                0.46165924               -0.00041248                0.01313334               -0.00237926
               6.64993108                2.12044399               70.51034821                0.72456348               -0.10888559               -0.10896947                0.36294500               -0.00016717                0.04463989               -0.00296492
               7.64898947                2.11811509               70.37121501                0.72295989               -0.07936940               -0.07923900                0.26430553               -0.00006390                0.08437598               -0.00087635
               8.64834369                2.11578180               70.23226556                0.72191577               -0.04975022               -0.04965035                0.16562408                0.00003166                0.10174309                0.00000697
               9.64799446                2.11344334               70.09343778                0.72129942               -0.02010954               -0.02005366                0.06692784                0.00004627                0.11146623                0.00008364
              10.64794150                2.11109895               69.95466015                0.72110531                0.00951376                0.00955147               -0.03177835                0.00002617                0.11301294               -0.00022705
              11.64818474                2.10874830               69.81585993                0.72132803                0.03913678                0.03916351               -0.13049394               -0.00000286                0.10632657               -0.00072572
              12.64872424                2.10639113               69.67696447                0.72197184                0.06877059                0.06878451               -0.22922067               -0.00005885                0.09142168               -0.00126929
              13.64956015                2.10402692               69.53790132                0.72304170                0.09837875                0.09843030               -0.32795869               -0.00014830                0.06834144               -0.00168243
              14.65069181                2.10165573               69.39859872                0.72454874                0.12793303                0.12821991               -0.42670075               -0.00019725                0.03725901               -0.00164635
              15.65211881                2.09927947               69.25898762                0.86288872                0.14269973                0.15804090               -0.52542869                0.00017084                0.01718915               -0.00079467
               5.65333605                3.12138080               70.64721687                0.86296936               -0.12301522               -0.13817061                0.45967280               -0.00035630                0.01349736                0.00271918
               6.65210590                3.11935663               70.50753651                0.72456073               -0.10825717               -0.10845033                0.36096207               -0.00012324                0.04494863                0.00184451
               7.65117091                3.11732523               70.36840524                0.72295467               -0.07872213               -0.07871769                0.26232194               -0.00011662                0.08473192                0.00136001
               8.65053145                3.11528830               70.22945981                0.72191069               -0.04913979               -0.04906517                0.16363592               -0.00004025                0.10190980                0.00107450
               9.65018811                3.11324584               70.09063057                0.72129321               -0.01951926               -0.01944984                0.06492909               -0.00001057                0.11116393                0.00053805
              10.65014107                3.11119752               69.95184796                0.72109756                0.01011040                0.01016286               -0.03379004               -0.00001739                0.11241147               -0.00022762
              11.65039032                3.10914302               69.81304070                0.72132277                0.03973888                0.03978311               -0.13251965               -0.00004685                0.10555503               -0.00116252
              12.65093585                3.10708212               69.67413726                0.72196716                0.06935951                0.06942189               -0.23126015               -0.00009426                0.09060825               -0.00221301
              13.65177751                3.10501473               69.53506662                0.72303922                0.09896103                0.09910657               -0.33001000               -0.00014493                0.06765938               -0.00329958
              14.65291507                3.10294116               69.39575903                0.72455102                0.12854352                0.12884427               -0.42875972               -0.00012423                0.03686843               -0.00431080
              15.65434838                3.10086227               69.25614665                0.86288969                0.14333113                0.15855589               -0.52748811                0.00023700                0.01696316               -0.00517463
               5.65520839                4.12000244               70.64441630                0.86296777               -0.12242054               -0.13752486                0.45768150               -0.00032589                0.01368910                0.00820455
               6.65398418                4.11827498               70.50472722                0.72455750               -0.10764612               -0.10786742                0.35897090               -0.00006847                0.04552370                0.00539844
               7.65305547                4.11654073               70.36559528                0.72295038               -0.07809545               -0.07816166                0.26032935               -0.00009084                0.08576582                0.00368744
               8.65242228                4.11480049               70.22665071                0.72190600               -0.04852175               -0.04848884                0.16163936               -0.00006959                0.10300409                0.00231037
               9.65208503                4.11305435               70.08782242                0.72128891               -0.01891479               -0.01885067                0.06292557               -0.00005793                0.11217089                0.00107603
              10.65204398                4.11130220               69.94903933                0.72109487                0.01070809                0.01077344               -0.03580249               -0.00006287                0.11324114               -0.00019550
              11.65229919                4.10954396               69.81022986                0.72131841                0.04033286                0.04040367               -0.13454202               -0.00007745                0.10618983               -0.00160524
              12.65285064                4.10777956               69.67132242                0.72196511                0.06995066                0.07005689               -0.23329255               -0.00009487                0.09105187               -0.00322723
              13.65369821                4.10600905               69.53224614                0.72303861                0.09955760                0.09974258               -0.33205070               -0.00009945                0.06793104               -0.00511755
              14.65484179                4.10423262               69.39293150                0.72455152                0.12915645                0.12944663               -0.43080547               -0.00006947                0.03699456               -0.00731592
              15.65628134                4.10245059               69.25331096                0.86289020                0.14395475                0.15912408               -0.52953525                0.00027007                0.01701309               -0.00984498
               5.65678446                5.11863030               70.64162209                0.86296714               -0.12182225               -0.13691498                0.45568404               -0.00030667                0.01404833                0.01286293
               6.65556624                5.11719928               70.50191632                0.72455673               -0.10704433               -0.10726875                0.35697248               -0.00001958                0.04653395                0.00830974
               7.65464357                5.11576200               70.36278110                0.72294978               -0.07748947               -0.07757041                0.25833040               -0.00004520                0.08766494                0.00550016
               8.65401645                5.11431852               70.22383802                0.72190584               -0.04791676               -0.04789372                0.15963756               -0.00006920                0.10524050                0.00333804
               9.65368524                5.11286883               70.08501360                0.72128780               -0.01831277               -0.01824860                0.06091923               -0.00008952                0.11452178                0.00154108
              10.65365019                5.11141298               69.94623468                0.72109360                0.01130842                0.01138067               -0.03781492               -0.00009919                0.11551542               -0.00015032
              11.65391141                5.10995109               69.80742794                0.72131694                0.04093339                0.04101509               -0.13656153               -0.00009528                0.10822943               -0.00196389
              12.65446886                5.10848326               69.66852037                0.72196605                0.07055298                0.07067139               -0.23531894               -0.00007787                0.09272286               -0.00410415
              13.65532247                5.10700958               69.52943984                0.72304077                0.10016388                0.10035536               -0.33408275               -0.00005105                0.06911893               -0.00676715
              14.65647214                5.10553010               69.39011580                0.72455288                0.12976839                0.13005152               -0.43284156               -0.00002307                0.03761181               -0.01012979
              15.65791784                5.10404475               69.25047999                0.86289112                0.14456959                0.15972135               -0.53157342                0.00029527                0.01731721               -0.01431999
               5.65806430                6.11726414               70.63882552                0.86296531               -0.12121987               -0.13633068                0.45368136               -0.00028586                0.01460135                0.01642331
               6.65685210                6.11612960               70.49909537                0.72455575               -0.10644855               -0.10666371                0.35496660                0.00003140                0.04812020                0.01017114
               7.65593533                6.11498932               70.35995683                0.72294685               -0.07690188               -0.07694940                0.25632514                0.00000112                0.09067444                0.00655038
               8.65531406                6.11384262               70.22101821                0.72190516               -0.04732735               -0.04727619                0.15763152               -0.00006924                0.10884599                0.00389428
               9.65498878                6.11268937               70.08220278                0.72128981               -0.01771626               -0.01763998                0.05891082               -0.00011984                0.11840405                0.00179750
              10.65495974                6.11152982               69.94343424                0.72109492                0.01191177                0.01198350               -0.03982700               -0.00013243                0.11937860               -0.00010526
              11.65522701                6.11036426               69.80463649                0.72132111                0.04154255                0.04161385               -0.13857801               -0.00011067                0.11179989               -0.00213288
              12.65579059                6.10919299               69.66573385                0.72196786                0.07116675                0.07126590               -0.23733975               -0.00006067                0.09573422               -0.00459968
              13.65665035                6.10801616               69.52665153                0.72304294                0.10077864                0.10095091               -0.33610758               -0.00000187                0.07131277               -0.00784917
              14.65780616                6.10683365               69.38731647                0.72455456                0.13037909                0.13066060               -0.43487102                0.00002606                0.03877085               -0.01223387
              15.65925793                6.10564502               69.24765857                0.86289283                0.14517720                0.16034698               -0.53360677                0.00032332                0.01790294               -0.01803231
               5.65904782                7.11590369               70.63601373                0.86296556               -0.12061380               -0.13578898                0.45167256               -0.00025139                0.01541839                0.01838629
               6.65784169                7.11506601               70.49625220                0.72455503               -0.10586212               -0.10603852                0.35295232                0.00009094                0.05047759                0.01054030
               7.65693058                7.11422301               70.35711348                0.72294941               -0.07633358               -0.07629264                0.25431270                0.00002468                0.09512781                0.00653103
               8.65631502                7.11337300               70.21818578                0.72190579               -0.04674696               -0.04664553                0.15562131               -0.00009976                0.11414759                0.00381508
               9.65599564                7.11251603               70.07938750                0.72129354               -0.01711807               -0.01703320                0.05690066               -0.00015946                0.12410149                0.00176408
              10.65597265                7.11165265               69.94063818                0.72110053                0.01251881                0.01258179               -0.04183824               -0.00016475                0.12508451               -0.00006121
              11.65624602                7.11078337               69.80185815                0.72132416                0.04215509                0.04220544               -0.14059102               -0.00013014                0.11715649               -0.00201624
              12.65681576                7.10990858               69.66296814                0.72197167                0.07178783                0.07184553               -0.23935511               -0.00005768                0.10035093               -0.00447806
              13.65768178                7.10902860               69.52388914                0.72304461                0.10140233                0.10152507               -0.33812537                0.00004089                0.07475162               -0.00793253
              14.65884380                7.10814331               69.38454356                0.72455757                0.13098940                0.13126768               -0.43689225                0.00008675                0.04061653               -0.01300987
              15.66030156                7.10725169               69.24485753                0.86289376                0.14577618                0.16101357               -0.53563270                0.00036460                0.01884858               -0.02028018
               5.65973463                8.11454836               70.63316802                0.86296359               -0.12000341               -0.13534647                0.44965313               -0.00018794                0.01664416                0.01806854
               6.65853460                8.11400883               70.49336954                0.72455489               -0.10528998               -0.10533446                0.35092693                0.00012391                0.05394284                0.00874250
               7.65762883                8.11346347               70.35423906                0.72295291               -0.07577755               -0.07561466                0.25229237               -0.00004523                0.10155123                0.00523701
               8.65701905                8.11290971               70.21533392                0.72191316               -0.04614495               -0.04604068                0.15360547               -0.00016553                0.12159833                0.00304853
               9.65670593                8.11234871               70.07656481                0.72130180               -0.01649712               -0.01643851                0.05488828               -0.00019016                0.13196376                0.00141808
              10.65668910                8.11178145               69.93784670                0.72110827                0.01312784                0.01317734               -0.04384879               -0.00017430                0.13295380               -0.00001795
              11.65696849                8.11120837               69.79909638                0.72133370                0.04275475                0.04280122               -0.14260005               -0.00014239                0.12466148               -0.00157035
              12.65754420                8.11062990               69.66023068                0.72197970                0.07239734                0.07243138               -0.24136343               -0.00007685                0.10702175               -0.00359125
              13.65841644                8.11004666               69.52116510                0.72305016                0.10203032                0.10207898               -0.34013407                0.00004153                0.07990967               -0.00660559
              14.65958481                8.10945900               69.38181398                0.72455996                0.13160107                0.13184190               -0.43890217                0.00014943                0.04347280               -0.01159039
              15.66104846                8.10886529               69.24209575                0.86289561                0.14636528                0.16176134               -0.53764756                0.00043324                0.02035256               -0.02003066
               5.66012313                9.11319676               70.63026180                0.86296316               -0.11940703               -0.13510899                0.44761976               -0.00021870                0.01837660                0.01334119
               6.65892906                9.11295932               70.49042174                0.72455701               -0.10471626               -0.10449372                0.34888584               -0.00000888                0.05919793                0.00445745
               7.65802880                9.11271072               70.35132052                0.72295884               -0.07512958               -0.07506989                0.25026193               -0.00015217                0.11090408                0.00290141
               8.65742647                9.11245218               70.21245611                0.72192236               -0.04543545               -0.04547278                0.15158264               -0.00018870                0.13170461                0.00169328
               9.65712009                9.11218726               70.07373182                0.72131329               -0.01584815               -0.01585550                0.05287243               -0.00014416                0.14232433                0.00079626
              10.65710950                9.11191620               69.93505996                0.72112299                0.01373136                0.01377593               -0.04585846               -0.00012294                0.14330535                0.00000854
              11.65739472                9.11163939               69.79635469                0.72134721                0.04332148                0.04341145               -0.14460430               -0.00010644                0.13471677               -0.00085023
              12.65797593                9.11135720               69.65752971                0.72199014                0.07293939                0.07304574               -0.24336268               -0.00008661                0.11637851               -0.00199558
              13.65885351                9.11107018               69.51849556                0.72305738                0.10261146                0.10268235               -0.34213015               -0.00000202                0.08774781               -0.00378514
              14.66002816                9.11078015               69.37915513                0.72456376                0.13220728                0.13234428               -0.44089668                0.00013429                0.04811139               -0.00701079
              15.66149766                9.11048692               69.23940475                0.86289596                0.14694927                0.16266697               -0.53964713                0.00043437                0.02283019               -0.01460159
               5.66020514               10.11184619               70.62723371                0.93148163               -0.11846753               -0.13505765                0.44556127                0.01547841                0.02441870                0.01163528
               6.65902046               10.11191896               70.48738519                0.86227870               -0.10361071               -0.10403618                0.34682496                0.01493494                0.06895932                0.00339957
               7.65813292               10.11196207               70.34835052                0.86148217               -0.07408668               -0.07486440                0.24821758                0.01447678                0.12411587                0.00275830
               8.65753873               10.11200025               70.20954749                0.86096576               -0.04469461               -0.04519322                0.14955028                0.01470262                0.14471723                0.00161764
               9.65723903               10.11203160               70.07088629                0.86066258               -0.01521082               -0.01556606                0.05085153                0.01472979                0.15541770                0.00067094
              10.65723451               10.11205697               69.93227786                0.86056742                0.01431627                0.01407704               -0.04786763                0.01475115                0.15636679               -0.00022209
              11.65752536               10.11207660               69.79363544                0.86067824                0.04385818                0.04372111               -0.14660291                0.01475594                0.14764295               -0.00115438
              12.65811168               10.11209082               69.65487155                0.86100106                0.07340484                0.07336136               -0.24535076                0.01475957                0.12900442               -0.00224476
              13.65899345               10.11210031               69.51589459                0.86153312                0.10295386                0.10301251               -0.34410823                0.01474792                0.09975569               -0.00371089
              14.66017075               10.11210589               69.37660317                0.86228472                0.13250736                0.13257401               -0.44286560                0.01517523                0.05746864               -0.00598200
              15.66164360               10.11211863               69.23685712                0.93144883                0.14728475                0.16317091               -0.54161357                0.01586874                0.02994294               -0.01274428
               5.78626435                0.12827166               71.66017354                0.93143935               -0.12046914               -0.13585324                0.45045833               -0.01543360                0.02020628               -0.00506821
               6.78505966                0.12536444               71.51956268                0.86224118               -0.10617000               -0.10603467                0.35496315               -0.01458390                0.04775740               -0.00477123
               7.78414095                0.12246819               71.37942170                0.86148141               -0.07763408               -0.07762005                0.25952533               -0.01418959                0.08590544               -0.00183500
               8.78350698                0.11956669               71.23951195                0.86096785               -0.04913137               -0.04894264                0.16407859               -0.01428933                0.10635197               -0.00099770
               9.78315832                0.11666001               71.09973725                0.86066406               -0.02057534               -0.02029662                0.06862335               -0.01430232                0.11707886               -0.00039198
              10.78309547                0.11374740               70.96001861                0.86056747                0.00801175                0.00835777               -0.02683920               -0.01431407                0.11909297                0.00009657
              11.78331856                0.11082868               70.82028003                0.86067615                0.03660784                0.03701292               -0.12231056               -0.01431500                0.11260389                0.00054166
              12.78382763                0.10790364               70.68044671                0.86099246                0.06519949                0.06566460               -0.21779232               -0.01431866                0.09765841                0.00098661
              13.78462255                0.10497160               70.54044359                0.86151880                0.09379056                0.09433961               -0.31328471               -0.01428984                0.07416797                0.00148966
              14.78570344                0.10203220               70.40019411                0.86226033                0.12234338                0.12287570               -0.40878590               -0.01465963                0.04153288                0.00209879
              15.78706942                0.09907502               70.25961121                0.93143358                0.13659770                0.15261385               -0.50429515               -0.01468884                0.02025565                0.00403311
               5.78901723                1.12691313               71.65740476                0.86284296               -0.12016752               -0.13531019                0.44855050               -0.00036376                0.01624749               -0.00365255
               6.78781556                1.12430410               71.51677298                0.72440533               -0.10596513               -0.10584291                0.35305071               -0.00007724                0.04512636               -0.00443005
               7.78689793                1.12169199               71.37663785                0.72289774               -0.07736928               -0.07726394                0.25761073                0.00002436                0.08355081               -0.00116554
               8.78626817                1.11907727               71.23671279                0.72189727               -0.04864922               -0.04863543                0.16215357                0.00007839                0.10280097               -0.00028674
               9.78592494                1.11645705               71.09692029                0.72130747               -0.02000884               -0.01999746                0.06668716                0.00004918                0.11331677               -0.00006670
              10.78586799                1.11383098               70.95718248                0.72111948                0.00861727                0.00864953               -0.02878668                0.00003081                0.11521034               -0.00012674
              11.78609729                1.11119881               70.81742409                0.72133112                0.03724935                0.03729973               -0.12426928                0.00001715                0.10865730               -0.00030351
              12.78661298                1.10856029               70.67757074                0.72194677                0.06590402                0.06595055               -0.21976259                0.00000252                0.09369557               -0.00048858
              13.78741537                1.10591500               70.53754795                0.72297250                0.09460767                0.09461079               -0.31526652               -0.00008672                0.07023717               -0.00055113
              14.78850513                1.10326096               70.39727958                0.72441848                0.12321680                0.12330209               -0.41077948               -0.00011825                0.03824461               -0.00024052
              15.78987971                1.10060116               70.25669046                0.86279889                0.13745719                0.15263691               -0.50629304                0.00031990                0.01757055                0.00134278
               5.79147514                2.12556546               71.65457278                0.86280690               -0.11958831               -0.13438307                0.44663809               -0.00039916                0.01314300               -0.00236914
               6.79027925                2.12324758               71.51391870                0.72432912               -0.10534359               -0.10542467                0.35113845               -0.00016228                0.04469605               -0.00294844
               7.78936827                2.12092291               71.37381515                0.72283169               -0.07678853               -0.07666241                0.25571112               -0.00006268                0.08445571               -0.00084963
               8.78874348                2.11859398               71.23389493                0.72185885               -0.04813372               -0.04803740                0.16024308                0.00002977                0.10180013                0.00003013
               9.78840559                2.11626006               71.09409624                0.72128529               -0.01945822               -0.01940445                0.06476070                0.00004392                0.11151427                0.00009800
              10.78835432                2.11392039               70.95434760                0.72110248                0.00920024                0.00923673               -0.03073124                0.00002440                0.11305220               -0.00022404
              11.78858960                2.11157468               70.81457627                0.72130990                0.03785859                0.03788457               -0.12623226               -0.00000364                0.10635446               -0.00073452
              12.78911149                2.10922265               70.67470961                0.72190990                0.06652738                0.06654108               -0.22174423               -0.00005774                0.09143489               -0.00128991
              13.78992014                2.10686382               70.53467514                0.72290815                0.09517120                0.09522145               -0.31726622               -0.00014401                0.06834035               -0.00171377
              14.79101492                2.10449824               70.39440116                0.72431460                0.12376325                0.12404113               -0.41279357               -0.00019091                0.03725409               -0.00168404
              15.79239541                2.10212776               70.25381883                0.86273181                0.13804935                0.15289109               -0.50830766                0.00016522                0.01718053               -0.00082828
               5.79364499                3.12422547               71.65173890                0.86280617               -0.11901330               -0.13367508                0.44471691               -0.00034472                0.01350739                0.00273399
               6.79245486                3.12219560               71.51108750                0.72432638               -0.10473584               -0.10492256                0.34922051               -0.00011955                0.04500267                0.00186321
               7.79155027                3.12015874               71.37098586                0.72282469               -0.07616241               -0.07615811                0.25379219               -0.00011362                0.08480535                0.00137949
               8.79093161                3.11811652               71.23106962                0.72185378               -0.04754309               -0.04747130                0.15831967               -0.00003991                0.10195615                0.00109162
               9.79059941                3.11606896               71.09126937                0.72127734               -0.01888716               -0.01882037                0.06282725               -0.00001130                0.11119704                0.00054843
              10.79055387                3.11401572               70.95151562                0.72109525                0.00977738                0.00982811               -0.03267711               -0.00001794                0.11243404               -0.00022604
              11.79079496                3.11195651               70.81173712                0.72130459                0.03844095                0.03848386               -0.12819157               -0.00004626                0.10556569               -0.00117054
              12.79132269                3.10989111               70.67186233                0.72190528                0.06709704                0.06715751               -0.22371664               -0.00009208                0.09060505               -0.00223059
              13.79213690                3.10781943               70.53182026                0.72290639                0.09573463                0.09587555               -0.31925073               -0.00014078                0.06764545               -0.00332529
              14.79323738                3.10574178               70.39154123                0.72431656                0.12435376                0.12464479               -0.41478459               -0.00012013                0.03685636               -0.00433983
              15.79462398                3.10365898               70.25095762                0.86273212                0.13865981                0.15338885               -0.51029831                0.00022925                0.01695108               -0.00520114
               5.79552797                4.12289195               71.64891875                0.86280512               -0.11843790               -0.13305035                0.44279032               -0.00031536                0.01369822                0.00822508
               6.79434359                4.12114913               71.50825862                0.72432328               -0.10414467               -0.10435877                0.34729455               -0.00006667                0.04557644                0.00541803
               7.79344508                4.11939975               71.36815631                0.72282387               -0.07555625               -0.07562046                0.25186556               -0.00008869                0.08583589                0.00370601
               8.79283247                4.11764456               71.22824089                0.72184899               -0.04694544               -0.04691386                0.15638874               -0.00006838                0.10304375                0.00232514
               9.79250617                4.11588366               71.08844151                0.72127309               -0.01830262               -0.01824080                0.06088939               -0.00005728                0.11219497                0.00108440
              10.79246641                4.11411696               70.94868720                0.72109208                0.01035558                0.01041866               -0.03462370               -0.00006199                0.11325330               -0.00019467
              11.79271328                4.11234436               70.80890639                0.72130093                0.03901563                0.03908401               -0.13014768               -0.00007589                0.10618940               -0.00161312
              12.79324673                4.11056580               70.66902751                0.72190485                0.06766893                0.06777156               -0.22568215               -0.00009263                0.09103805               -0.00324370
              13.79406666                4.10878133               70.52897970                0.72290548                0.09631180                0.09649064               -0.32122459               -0.00009697                0.06790914               -0.00514127
              14.79517296                4.10699114               70.38869358                0.72431596                0.12494665                0.12522744               -0.41676345               -0.00006757                0.03697919               -0.00734404
              15.79656559                4.10519553               70.24810181                0.86273320                0.13926290                0.15393842               -0.51227764                0.00026127                0.01700021               -0.00987373
               5.79712433                5.12156446               71.64610489                0.86280310               -0.11785933               -0.13246052                0.44085880               -0.00029694                0.01405736                0.01288948
               6.79594573                5.12010843               71.50542806                0.72432182               -0.10356257               -0.10377975                0.34536169               -0.00001978                0.04658712                0.00833090
               7.79505307                5.11864633               71.36532247                0.72282192               -0.07497009               -0.07504850                0.24993171               -0.00004470                0.08773479                0.00551838
               8.79444633                5.11717824               71.22540851                0.72184717               -0.04636030               -0.04633817                0.15445228               -0.00006793                0.10527775                0.00335205
               9.79412587                5.11570414               71.08561296                0.72127298               -0.01772021               -0.01765843                0.05894854               -0.00008778                0.11454182                0.00154896
              10.79409193                5.11422409               70.94586275                0.72108990                0.01093644                0.01100603               -0.03657045               -0.00009705                0.11552229               -0.00014988
              11.79434460                5.11273819               70.80608460                0.72130017                0.03959659                0.03967543               -0.13210116               -0.00009331                0.10822307               -0.00197165
              12.79488386                5.11124654               70.66620552                0.72190427                0.06825147                0.06836598               -0.22764233               -0.00007637                0.09270387               -0.00411999
              13.79570963                5.10974924               70.52615341                0.72290613                0.09689820                0.09708339               -0.32319046               -0.00005000                0.06909326               -0.00678992
              14.79682182                5.10824633               70.38585784                0.72431673                0.12553890                0.12581280               -0.41873438               -0.00002241                0.03759439               -0.01015952
              15.79822041                5.10673775               70.24525079                0.86273456                0.13985821                0.15451658               -0.51425134                0.00028577                0.01730326               -0.01435588
               5.79843409                6.12024274               71.64328863                0.86280342               -0.11727693               -0.13189538                0.43892256               -0.00027665                0.01460996                0.01645507
               6.79726133                6.11907354               71.50258738                0.72432096               -0.10298633               -0.10319449                0.34342148                0.00002998                0.04817497                0.01019364
               7.79637437                6.11789878               71.36247847                0.72282164               -0.07440155               -0.07444765                0.24799151                0.00000035                0.09074761                0.00656897
               8.79577329                6.11671780               71.22256896                0.72184769               -0.04579018               -0.04574079                0.15251183               -0.00006782                0.10888556                0.00390852
               9.79545856                6.11553049               71.08278237                0.72127275               -0.01714326               -0.01706970                0.05700584               -0.00011691                0.11842475                0.00180545
              10.79543043                6.11433708               70.94304252                0.72109214                0.01151997                0.01158919               -0.03851673               -0.00012922                0.11938523               -0.00010475
              11.79568896                6.11313786               70.80327332                0.72130142                0.04018568                0.04025473               -0.13405190               -0.00010821                0.11179311               -0.00214032
              12.79623414                6.11193312               70.66339913                0.72190436                0.06884533                0.06894127               -0.22959769               -0.00005964                0.09571506               -0.00461538
              13.79706587                6.11072300               70.52334519                0.72290745                0.09749327                0.09765964               -0.32514982               -0.00000198                0.07128643               -0.00787283
              14.79818401                6.10950739               70.38303855                0.72432214                0.12612972                0.12640180               -0.42069690                0.00002567                0.03875142               -0.01226612
              15.79958846                6.10828587               70.24240935                0.86273366                0.14044569                0.15512137               -0.51621656                0.00031301                0.01788620               -0.01807399
               5.79945721                7.11892655               71.64045708                0.86280275               -0.11669045               -0.13137121                0.43697833               -0.00024311                0.01542871                0.01842042
               6.79829030                7.11804454               71.49972440                0.72432094               -0.10241903               -0.10258972                0.34147294                0.00008787                0.05053745                0.01056200
               7.79740882                7.11715738               71.35961533                0.72282115               -0.07385190               -0.07381256                0.24604560                0.00002325                0.09520913                0.00654880
               8.79681326                7.11626343               71.21971676                0.72185044               -0.04522880               -0.04513082                0.15056748               -0.00009740                0.11419384                0.00382846
               9.79650425                7.11536275               71.07994732                0.72127687               -0.01656484               -0.01648271                0.05506135               -0.00015502                0.12412748                0.00177176
              10.79648197                7.11445587               70.94022667                0.72109571                0.01210707                0.01216797               -0.04046231               -0.00016022                0.12509573               -0.00006045
              11.79674639                7.11354328               70.80047518                0.72130768                0.04077835                0.04082709               -0.13599942               -0.00012662                0.11715345               -0.00202320
              12.79729753                7.11262536               70.66061358                0.72190910                0.06944633                0.06950216               -0.23154788               -0.00005628                0.10033501               -0.00449337
              13.79813532                7.11170243               70.52056294                0.72291100                0.09809679                0.09821528               -0.32710266                0.00003932                0.07472838               -0.00795667
              14.79925947                7.11077436               70.38024575                0.72432286                0.12672004                0.12698900               -0.42265188                0.00008389                0.04059947               -0.01304289
              15.80066972                7.10984018               70.23958838                0.86273564                0.14102486                0.15576598               -0.51817524                0.00035284                0.01883356               -0.02032366
               5.80019326                8.11761532               71.63759150                0.86280141               -0.11610024               -0.13094334                0.43502564               -0.00018188                0.01665705                0.01810234
               6.79903226                8.11702174               71.49682182                0.72432102               -0.10186581               -0.10190874                0.33951425                0.00011947                0.05401054                0.00875954
               7.79815594                8.11642252               71.35672104                0.72282457               -0.07331418               -0.07315693                0.24409171               -0.00004434                0.10164545                0.00525157
               8.79756597                8.11581518               71.21684507                0.72185694               -0.04464637               -0.04454585                0.14861774               -0.00016067                0.12165682                0.00305968
               9.79726302                8.11520083               71.07710484                0.72128598               -0.01596408               -0.01590744                0.05311456               -0.00018443                0.13200055                0.00142472
              10.79724669                8.11458044               70.93741541                0.72110528                0.01269619                0.01274406               -0.04240705               -0.00016911                0.13297461               -0.00001707
              11.79751694                8.11395441               70.79769364                0.72131418                0.04135851                0.04140346               -0.13794302               -0.00013822                0.12466746               -0.00157579
              12.79807386                8.11332316               70.65785636                0.72191741                0.07003591                0.07006896               -0.23349072               -0.00007459                0.10701405               -0.00360340
              13.79891766                8.11268730               70.51781914                0.72291498                0.09870412                0.09875128               -0.32904594                0.00003987                0.07989390               -0.00662592
              14.80004795                8.11204717               70.37749640                0.72432435                0.12731192                0.12754488               -0.42459753                0.00014421                0.04346179               -0.01161993
              15.80146390                8.11140119               70.23680679                0.86273764                0.14159518                0.15648984               -0.52012634                0.00041914                0.02034230               -0.02007398
               5.80064072                9.11630768               71.63466529                0.86280145               -0.11552347               -0.13071397                0.43305908               -0.00021176                0.01839165                0.01336625
               6.79948549                9.11600636               71.49385394                0.72432207               -0.10131088               -0.10109538                0.33753980               -0.00000896                0.05927707                0.00446502
               7.79861450                9.11569424               71.35378252                0.72283111               -0.07268727               -0.07262998                0.24212719               -0.00014750                0.11101806                0.00291029
               8.79803174                9.11537251               71.21394737                0.72186498               -0.04396002               -0.04399658                0.14666115               -0.00018263                0.13178149                0.00170039
               9.79773530                9.11504460               71.07425202                0.72129634               -0.01533644               -0.01534353                0.05116490               -0.00013967                0.14237846                0.00080042
              10.79772501                9.11471075               70.93460891                0.72111867                0.01327979                0.01332314               -0.04435104               -0.00011921                0.14334252                0.00000939
              11.79800090                9.11437135               70.79493224                0.72132738                0.04190665                0.04199379               -0.13988185               -0.00010326                0.13473871               -0.00085314
              12.79856314                9.11402674               70.65513573                0.72192811                0.07056042                0.07066322               -0.23542476               -0.00008386                0.11638563               -0.00200259
              13.79941211                9.11367746               70.51512996                0.72292397                0.09926636                0.09933489               -0.33097653               -0.00000193                0.08774463               -0.00379759
              14.80054847                9.11332526               70.37481793                0.72432985                0.12789833                0.12803111               -0.42652711                0.00012981                0.04810841               -0.00703006
              15.80197007                9.11296997               70.23409611                0.86273808                0.14216015                0.15736600               -0.52206060                0.00042012                0.02282425               -0.01463407
               5.80079167               10.11500104               71.63161694                0.93140069               -0.11461435               -0.13066442                0.43106694                0.01497451                0.02444476                0.01165830
               6.79964553               10.11499984               71.49079712                0.86216262               -0.10024108               -0.10065265                0.33554561                0.01444830                0.06905875                0.00340557
               7.79878685               10.11496992               71.35079240                0.86141823               -0.07167830               -0.07243124                0.24014936                0.01400509                0.12425729                0.00276670
               8.79821196               10.11493525               71.21101875                0.86093720               -0.04324351               -0.04372618                0.14469520                0.01422393                0.14481896                0.00162382
               9.79792198               10.11489396               71.07138661                0.86065444               -0.01472008               -0.01506358                0.04921019                0.01425016                0.15549662                0.00067414
              10.79791756               10.11484690               70.93180705                0.86056527                0.01384544                0.01361447               -0.04629478                0.01427069                0.15642845               -0.00022159
              11.79819889               10.11479428               70.79219333                0.86067023                0.04242584                0.04229333               -0.14181482                0.01427531                0.14768845               -0.00115729
              12.79876607               10.11473643               70.65245802                0.86096909                0.07101086                0.07096849               -0.23734758                0.01427905                0.12903442               -0.00225153
              13.79961910               10.11467400               70.51250953                0.86146617                0.09959773                0.09965417               -0.33288954                0.01426799                0.09977451               -0.00372258
              14.80075803               10.11460779               70.37224659                0.86216782                0.12818863                0.12825336               -0.42843104                0.01468101                0.05748380               -0.00599922
              15.80218288               10.11454851               70.23152913                0.93137046                0.14248466                0.15785335               -0.52396249                0.01535149                0.02995173               -0.01277261
               5.92755490                0.13099929               72.66460228                0.93135834               -0.11640783               -0.13127287                0.43527072               -0.01491296                0.02023221               -0.00507088
               6.92639082                0.12811600               72.52305255                0.86212288               -0.10259116               -0.10246009                0.34299745               -0.01409186                0.04782124               -0.00476986
               7.92550307                0.12524330               72.38197328                0.86141520               -0.07501816               -0.07500443                0.25077989               -0.01371091                0.08600088               -0.00182722
               8.92489046                0.12236553               72.24112514                0.86093765               -0.04747720               -0.04729468                0.15855370               -0.01380734                0.10644443               -0.00099147
               9.92455353                0.11948275               72.10041198                0.86065420               -0.01988457               -0.01961516                0.06631901               -0.01382001                0.11716692               -0.00038814
              10.92449276                0.11659424               71.95975480                0.86056485                0.00773812                0.00807243               -0.02592257               -0.01383142                0.11917403                0.00009783
              11.92470829                0.11369982               71.81907759                0.86066604                0.03536951                0.03576075               -0.11817281               -0.01383222                0.11267409                0.00054060
              12.92520016                0.11079930               71.67830554                0.86096086                0.06299660                0.06344563               -0.21043270               -0.01383581                0.09771434                0.00098257
              13.92596822                0.10789202               71.53736359                0.86145000                0.09062315                0.09115331               -0.30270346               -0.01380789                0.07420793                0.00148360
              14.92701262                0.10497763               71.39617518                0.86214203                0.11821256                0.11872658               -0.39498264               -0.01416482                0.04155652                0.00209053
              15.92833248                0.10204608               71.25465328                0.93135300                0.13198580                0.14746110               -0.48726891               -0.01419304                0.02026497                0.00402953
               5.93028906                1.12968656               72.66181474                0.86268367               -0.11611642               -0.13074819                0.43342749               -0.00035138                0.01626117               -0.00364624
               6.92912790                1.12709140               72.52024405                0.72417354               -0.10239319               -0.10227494                0.34114977               -0.00007486                0.04517931               -0.00441973
               7.92824120                1.12449325               72.37917061                0.72277101               -0.07476209               -0.07466037                0.24892986                0.00002301                0.08363258               -0.00114391
               8.92763266                1.12189258               72.23830706                0.72183985               -0.04701110               -0.04699790                0.15669369                0.00007504                0.10287530               -0.00026916
               9.92730098                1.11928660               72.09757599                0.72129079               -0.01933716               -0.01932616                0.06444836                0.00004663                0.11338610               -0.00005617
              10.92724591                1.11667496               71.95689953                0.72111376                0.00832315                0.00835431               -0.02780423                0.00002890                0.11527267               -0.00012431
              11.92746744                1.11405743               71.81620240                0.72131415                0.03598924                0.03603784               -0.12006519                0.00001579                0.10870847               -0.00030922
              12.92796570                1.11143376               71.67541021                0.72188508                0.06367705                0.06372199               -0.21233636                0.00000174                0.09373247               -0.00050297
              13.92874098                1.10880356               71.53444847                0.72283769                0.09141232                0.09141540               -0.30461854               -0.00008426                0.07025834               -0.00057314
              14.92979394                1.10616490               71.39324106                0.72418683                0.11905614                0.11913855               -0.39690861               -0.00011439                0.03825245               -0.00026822
              15.93112210                1.10352069               71.25171289                0.86264237                0.13281593                0.14748324               -0.48919860                0.00030909                0.01756731                0.00131938
               5.93273820                2.12838433               72.65896397                0.86264967               -0.11555704               -0.12985251                0.43158056               -0.00038568                0.01315110               -0.00235833
               6.93158263                2.12607050               72.51737098                0.72410240               -0.10179281               -0.10187108                0.33930266               -0.00015720                0.04474966               -0.00293208
               7.93070235                2.12375009               72.37632923                0.72270632               -0.07420107               -0.07407938                0.24709487               -0.00006152                0.08453291               -0.00082336
               8.93009861                2.12142557               72.23547043                0.72180171               -0.04651313               -0.04642023                0.15484824                0.00002737                0.10185589                0.00005284
               9.92977208                2.11909623               72.09473299                0.72126864               -0.01880513               -0.01875328                0.06258711                0.00004085                0.11156123                0.00011174
              10.92972251                2.11676133               71.95404552                0.72109870                0.00888651                0.00892160               -0.02968301                0.00002204                0.11309095               -0.00022108
              11.92994981                2.11442058               71.81333528                0.72129165                0.03657786                0.03660288               -0.12196173               -0.00000499                0.10638169               -0.00074316
              12.93045407                2.11207374               71.67252959                0.72184910                0.06427925                0.06429265               -0.21425126               -0.00005695                0.09144811               -0.00130994
              13.93123540                2.10972033               71.53155600                0.72277826                0.09195676                0.09200549               -0.30655103               -0.00014001                0.06834033               -0.00174440
              14.93229320                2.10736040               71.39034285                0.72408736                0.11958418                0.11985267               -0.39885496               -0.00018531                0.03724936               -0.00172035
              15.93362708                2.10499574               71.24882147                0.86257904                0.13338818                0.14772902               -0.49114584                0.00015916                0.01717136               -0.00085993
               5.93490901                3.12708951               72.65611121                0.86264946               -0.11500149               -0.12916848                0.42972434               -0.00033325                0.01351537                0.00274801
               6.93375899                3.12505397               72.51452092                0.72409788               -0.10120569               -0.10138609                0.33744998               -0.00011615                0.04505439                0.00188119
               7.93288489                3.12301166               72.37348108                0.72270215               -0.07359630               -0.07359235                0.24524185               -0.00011093                0.08487691                0.00139876
               8.93228707                3.12096418               72.23262620                0.72179649               -0.04594259               -0.04587334                0.15299016               -0.00003988                0.10200121                0.00110824
               9.93196604                3.11891153               72.09188712                0.72126098               -0.01825337               -0.01818902                0.06071922               -0.00001238                0.11122947                0.00055858
              10.93192200                3.11685340               71.95119442                0.72109196                0.00944411                0.00949290               -0.03156284               -0.00001891                0.11245662               -0.00022448
              11.93215492                3.11478949               71.81047687                0.72128528                0.03714051                0.03718192               -0.12385489               -0.00004630                0.10557649               -0.00117848
              12.93266481                3.11271961               71.66966292                0.72184545                0.06482972                0.06488822               -0.21615723               -0.00009015                0.09060244               -0.00224746
              13.93345152                3.11064367               71.52868161                0.72277669                0.09250102                0.09263735               -0.30846801               -0.00013698                0.06763244               -0.00335010
              14.93451483                3.10856195               71.38746334                0.72408900                0.12015481                0.12043601               -0.40077904               -0.00011706                0.03684506               -0.00436861
              15.93585461                3.10647527               71.24594069                0.86258046                0.13397846                0.14821045               -0.49307131                0.00022097                0.01693913               -0.00522814
               5.93680261                4.12580096               72.65327211                0.86264715               -0.11444564               -0.12856496                0.42786322               -0.00030506                0.01370648                0.00824497
               6.93565816                4.12404278               72.51167311                0.72409842               -0.10063452               -0.10084139                0.33558915               -0.00006533                0.04562738                0.00543760
               7.93478992                4.12227824               72.37063259                0.72269982               -0.07301058               -0.07307271                0.24337969               -0.00008690                0.08590375                0.00372402
               8.93419795                4.12050811               72.22977848                0.72179160               -0.04536512               -0.04533470                0.15112432               -0.00006724                0.10308224                0.00233935
               9.93388262                4.11873245               72.08904021                0.72125810               -0.01768865               -0.01762910                0.05884712               -0.00005677                0.11221866                0.00109289
              10.93384417                4.11695118               71.94834686                0.72108779                0.01000259                0.01006348               -0.03344355               -0.00006147                0.11326562               -0.00019407
              11.93408267                4.11516422               71.80762690                0.72128164                0.03769568                0.03776178               -0.12574482               -0.00007486                0.10618977               -0.00162075
              12.93459809                4.11337151               71.66680878                0.72184317                0.06538228                0.06548143               -0.21805622               -0.00009080                0.09102576               -0.00325937
              13.93539032                4.11157308               71.52582165                0.72277572                0.09305867                0.09323147               -0.31037470               -0.00009460                0.06788809               -0.00516396
              14.93645926                4.10976912               71.38459623                0.72408985                0.12072774                0.12099887               -0.40269092               -0.00006574                0.03696288               -0.00737239
              15.93780487                4.10795995               71.24306540                0.86257970                0.13456135                0.14874140               -0.49498392                0.00025223                0.01698543               -0.00990440
               5.93841927                5.12451821               72.65043926                0.86264669               -0.11388674               -0.12799515                0.42599773               -0.00028701                0.01406572                0.01291564
               6.93728040                5.12303715               72.50882355                0.72409570               -0.10007215               -0.10028202                0.33372181               -0.00001966                0.04663792                0.00835213
               7.93641783                5.12155021               72.36777974                0.72269888               -0.07244419               -0.07252001                0.24151088               -0.00004449                0.08780169                0.00553627
               8.93583152                5.12005749               72.22692707                0.72179194               -0.04479982               -0.04477853                0.14925357               -0.00006702                0.10531407                0.00336582
               9.93552183                5.11855895               72.08619258                0.72125533               -0.01712608               -0.01706644                0.05697208               -0.00008618                0.11456157                0.00155679
              10.93548900                5.11705466               71.94550327                0.72108641                0.01056375                0.01063096               -0.03532440               -0.00009516                0.11552947               -0.00014949
              11.93573310                5.11554473               71.80478592                0.72128086                0.03825696                0.03833314               -0.12763212               -0.00009137                0.10821808               -0.00197947
              12.93625413                5.11402924               71.66396752                0.72184331                0.06594518                0.06605575               -0.21995016               -0.00007484                0.09268640               -0.00413609
              13.93705201                5.11250830               71.52297603                0.72277659                0.09362546                0.09380424               -0.31227443               -0.00004893                0.06906745               -0.00681373
              14.93812664                5.11098193               71.38174111                0.72409183                0.12130003                0.12156439               -0.40459525               -0.00002180                0.03757454               -0.01018926
              15.93947801                5.10945009               71.24019496                0.86258154                0.13513642                0.14929978               -0.49689014                0.00027598                0.01728560               -0.01438927
               5.93975901                6.12324105               72.64760397                0.86264631               -0.11332397               -0.12744910                0.42412628               -0.00026730                0.01461829                0.01648542
               6.93862577                6.12203714               72.50596380                0.72409316               -0.09951560               -0.09971674                0.33184780                0.00002859                0.04822773                0.01021529
               7.93776869                6.12082784               72.36491666                0.72269808               -0.07189509               -0.07193975                0.23963722               -0.00000090                0.09081795                0.00658714
               8.93718786                6.11961254               72.22406845                0.72179151               -0.04424883               -0.04420143                0.14737860               -0.00006697                0.10892381                0.00392219
               9.93688372                6.11839112               72.08334289                0.72125804               -0.01656854               -0.01649765                0.05509512               -0.00011413                0.11844493                0.00181309
              10.93685649                6.11716380               71.94266391                0.72108965                0.01112762                0.01119435               -0.03720472               -0.00012582                0.11939154               -0.00010429
              11.93710627                6.11593088               71.80195545                0.72128602                0.03882625                0.03889276               -0.12951669               -0.00010533                0.11178629               -0.00214807
              12.93763302                6.11469262               71.66114190                0.72184517                0.06651897                0.06661156               -0.22183944               -0.00005823                0.09569594               -0.00463168
              13.93843665                6.11344916               71.52014853                0.72278068                0.09420028                0.09436110               -0.31416780               -0.00000230                0.07126071               -0.00789735
              14.93951702                6.11220041               71.37890253                0.72409268                0.12187064                0.12213351               -0.40649129                0.00002462                0.03873400               -0.01229692
              15.94087406                6.11094594               71.23733424                0.86258283                0.13570377                0.14988404               -0.49878885                0.00030218                0.01787240               -0.01811093
               5.94082176                7.12196923               72.64475330                0.86264589               -0.11275744               -0.12694276                0.42224814               -0.00023513                0.01543877                0.01845364
               6.93969419                7.12104281               72.50308166                0.72409450               -0.09896760               -0.09913252                0.32996542                0.00008457                0.05059521                0.01058300
               7.93884241                7.12011142               72.36203440                0.72269857               -0.07136417               -0.07132625                0.23775739                0.00002180                0.09528719                0.00656652
               8.93826690                7.11917346               72.22119713                0.72179543               -0.04370642               -0.04361211                0.14549996               -0.00009517                0.11423837                0.00384164
               9.93796828                7.11822900               72.08048872                0.72126111               -0.01600941               -0.01593057                0.05321637               -0.00015096                0.12415275                0.00177901
              10.93794671                7.11727855               71.93982893                0.72109516                0.01169498                0.01175351               -0.03908447               -0.00015575                0.12510613               -0.00005981
              11.93820218                7.11632258               71.79913816                0.72128874                0.03939880                0.03944576               -0.13139828               -0.00012314                0.11714994               -0.00203005
              12.93873469                7.11536147               71.65833718                0.72185036                0.06709957                0.06715342               -0.22372316               -0.00005493                0.10031885               -0.00450793
              13.93954417                7.11439552               71.51734709                0.72278191                0.09478326                0.09489792               -0.31605399                0.00003769                0.07470594               -0.00797939
              14.94063035                7.11342460               71.37609052                0.72409713                0.12244077                0.12270083               -0.40837951                0.00008095                0.04058471               -0.01307500
              15.94199299                7.11244778               71.23449402                0.86258400                0.13626310                0.15050673               -0.50068064                0.00034082                0.01882164               -0.02036790
               5.94160714                8.12070220               72.64186853                0.86264543               -0.11218687               -0.12652929                0.42036118               -0.00017589                0.01666897                0.01813495
               6.94048527                8.12005449               72.50015982                0.72409485               -0.09843285               -0.09847437                0.32807241                0.00011540                0.05407582                0.00877616
               7.93963849                8.11940132               72.35912090                0.72270262               -0.07084472               -0.07069277                0.23586971               -0.00004310                0.10173613                0.00526643
               8.93906838                8.11874029               72.21830628                0.72179935               -0.04314407               -0.04304698                0.14361649               -0.00015589                0.12171266                0.00307090
               9.93877560                8.11807251               72.07762710                0.72126978               -0.01542918               -0.01537477                0.05133553               -0.00017905                0.13203614                0.00143117
              10.93875980                8.11739887               71.93699856                0.72110171                0.01226422                0.01231012               -0.04096340               -0.00016421                0.13299475               -0.00001620
              11.93902089                8.11671980               71.79633752                0.72129647                0.03995939                0.04000275               -0.13327643               -0.00013413                0.12467313               -0.00158130
              12.93955898                8.11603569               71.65556087                0.72185618                0.06766930                0.06770119               -0.22560071               -0.00007228                0.10700638               -0.00361552
              13.94037427                8.11534712               71.51458419                0.72278694                0.09537013                0.09541589               -0.31793174                0.00003855                0.07987760               -0.00664512
              14.94146639                8.11465443               71.37332203                0.72409804                0.12301265                0.12323801               -0.41025941                0.00013938                0.04344940               -0.01164924
              15.94283453                8.11395608               71.23169322                0.86258429                0.13681413                0.15120627               -0.50256565                0.00040488                0.02033009               -0.02011760
               5.94211367                9.11943865               72.63892298                0.86264500               -0.11162940               -0.12630746                0.41846037               -0.00020456                0.01840679                0.01338999
               6.94099738                9.11907332               72.49717253                0.72409623               -0.09789659               -0.09768824                0.32616450               -0.00000884                0.05935421                0.00447261
               7.94015574                9.11869756               72.35616307                0.72270888               -0.07023904               -0.07018375                0.23397177               -0.00014275                0.11112800                0.00291933
               8.93959259                9.11831252               72.21538934                0.72180984               -0.04248095               -0.04251637                0.14172641               -0.00017670                0.13185494                0.00170738
               9.93930612                9.11792150               72.07475512                0.72128233               -0.01482287               -0.01482993                0.04945185               -0.00013513                0.14243045                0.00080470
              10.93929614                9.11752475               71.93417294                0.72111576                0.01282804                0.01286967               -0.04284171               -0.00011529                0.14337809                0.00000997
              11.93956268                9.11712264               71.79355705                0.72131034                0.04048915                0.04057318               -0.13514985               -0.00009971                0.13475941               -0.00085646
              12.94010592                9.11671549               71.65282121                0.72186797                0.06817611                0.06827550               -0.22746972               -0.00008075                0.11639254               -0.00201020
              13.94092620                9.11630384               71.51187603                0.72279589                0.09591320                0.09597971               -0.31979677               -0.00000152                0.08774126               -0.00380951
              14.94202418                9.11588936               71.37062459                0.72410394                0.12357897                0.12370764               -0.41212295                0.00012566                0.04810491               -0.00704781
              15.94339778                9.11547190               71.22896353                0.86258471                0.13735967                0.15205279               -0.50443407                0.00040566                0.02281838               -0.01466395
               5.94233369               10.11817605               72.63585504                0.93132205               -0.11075109               -0.12625952                0.41653581                0.01446939                0.02447108                0.01168043
               6.94122618               10.11810072               72.49409610                0.86204925               -0.09686279               -0.09726038                0.32423793                0.01396023                0.06915583                0.00341184
               7.94039644               10.11799764               72.35315351                0.86135686               -0.06926395               -0.06999182                0.23206081                0.01353221                0.12439378                0.00277519
               8.93984090               10.11788997               72.21244139                0.86091014               -0.04178864               -0.04225515                0.13982712                0.01374412                0.14491653                0.00163014
               9.93956066               10.11777591               72.07187049                0.86064618               -0.01422735               -0.01455945                0.04756328                0.01376958                0.15557205                0.00067761
              10.93955636               10.11765627               71.93135197                0.86056389                0.01337445                0.01315121               -0.04471979                0.01378956                0.15648718               -0.00022175
              11.93982815               10.11753126               71.79079915                0.86066131                0.04099063                0.04086259               -0.13701732                0.01379404                0.14773223               -0.00116060
              12.94037617               10.11740120               71.65012460                0.86093888                0.06861125                0.06857045               -0.22932697                0.01379752                0.12906405               -0.00225855
              13.94120038               10.11726672               71.50923680                0.86140142                0.09623328                0.09628804               -0.32164414                0.01378678                0.09979336               -0.00373319
              14.94230083               10.11712858               71.36803455                0.86205449                0.12385902                0.12392212               -0.41396090                0.01418592                0.05749820               -0.00601377
              15.94367756               10.11699714               71.22637787                0.93129398                0.13767250                0.15252344               -0.50626986                0.01483319                0.02995997               -0.01279884
               6.06976845                0.13374533               73.66887896                0.93127976               -0.11233697               -0.12668186                0.42004761               -0.01439116                0.02025710               -0.00507371
               7.06864508                0.13088604               73.52642263                0.86200865               -0.09900377               -0.09887716                0.33100347               -0.01359866                0.04788318               -0.00476847
               8.06778838                0.12803698               73.38443730                0.86135236               -0.07239561               -0.07238260                0.24201311               -0.01323125                0.08609351               -0.00182010
               9.06719717                0.12518303               73.24268302                0.86091069               -0.04581844               -0.04564250                0.15301438               -0.01332445                0.10653388               -0.00098593
              10.06687201                0.12232423               73.10106363                0.86064700               -0.01919155               -0.01893178                0.06400799               -0.01333669                0.11725180               -0.00038448
              11.06681334                0.11945990               72.95950016                0.86056509                0.00746432                0.00778677               -0.02500518               -0.01334777                0.11925217                0.00009903
              12.06702129                0.11658988               72.81791657                0.86065771                0.03412859                0.03450603               -0.11402647               -0.01334851                0.11274206                0.00053974
              13.06749591                0.11371396               72.67623805                0.86093106                0.06078877                0.06122195               -0.20305739               -0.01335191                0.09776889                0.00097937
              14.06823707                0.11083153               72.53438952                0.86138439                0.08744854                0.08795987               -0.29209863               -0.01332492                0.07424739                0.00147715
              15.06924488                0.10794224               72.39229446                0.86202579                0.11407224                0.11456816               -0.38114819               -0.01366914                0.04158047                0.00208197
              16.07051851                0.10503639               72.24986583                0.93127557                0.12736325                0.14229678               -0.47020412               -0.01369604                0.02027556                0.00402647
               6.07248382                1.13247851               73.66607331                0.86252993               -0.11205566               -0.12617538                0.41826859               -0.00033909                0.01627447               -0.00364016
               7.07136327                1.12989727               73.52359597                0.72395044               -0.09881265               -0.09869845                0.32922025               -0.00007233                0.04523061               -0.00440963
               8.07050757                1.12731316               73.38161645                0.72264767               -0.07214835               -0.07205050                0.24022767                0.00002178                0.08371179               -0.00112272
               9.06992030                1.12472660               73.23984666                0.72178558               -0.04536846               -0.04535613                0.15121943                0.00007174                0.10294736               -0.00025193
              10.06960020                1.12213491               73.09820926                0.72127513               -0.01866321               -0.01865294                0.06220298                0.00004405                0.11345319               -0.00004592
              11.06954704                1.11953777               72.95662640                0.72111172                0.00802879                0.00805873               -0.02682069                0.00002680                0.11533296               -0.00012198
              12.06976078                1.11693494               72.81502279                0.72129531                0.03472639                0.03477341               -0.11585257                0.00001425                0.10875847               -0.00031473
              13.07024156                1.11432618               72.67332402                0.72182652                0.06144512                0.06148862               -0.20489405                0.00000086                0.09376815               -0.00051660
              14.07098968                1.11171113               72.53145558                0.72271106                0.08820975                0.08821285               -0.29394653               -0.00008191                0.07027893               -0.00059519
              15.07200576                1.10908792               72.38934141                0.72396031                0.11488608                0.11496582               -0.38300695               -0.00011071                0.03826207               -0.00029611
              16.07328740                1.10645936               72.24690649                0.86249067                0.12816426                0.14231839               -0.47206658                0.00029819                0.01756752                0.00129593
               6.07492414                2.13122182               73.66320440                0.86249778               -0.11151569               -0.12531095                0.41648604               -0.00037232                0.01315912               -0.00234810
               7.07380899                2.12891207               73.52070475                0.72388470               -0.09823320               -0.09830877                0.32743765               -0.00015215                0.04480191               -0.00291580
               8.07295948                2.12659597               73.37875705                0.72258902               -0.07160702               -0.07148983                0.23845706               -0.00006025                0.08460786               -0.00079711
               9.07237685                2.12427590               73.23699190                0.72174972               -0.04488807               -0.04479879                0.14943890                0.00002497                0.10190958                0.00007514
              10.07206172                2.12195117               73.09534798                0.72125496               -0.01814998               -0.01810024                0.06040720                0.00003756                0.11160650                0.00012527
              11.07201385                2.11962108               72.95375394                0.72109764                0.00857233                0.00860606               -0.02863340                0.00001933                0.11312859               -0.00021826
              12.07223317                2.11728535               72.81213704                0.72127592                0.03529438                0.03531862               -0.11768259               -0.00000653                0.10640850               -0.00075169
              13.07271973                2.11494374               72.67042458                0.72179323                0.06202620                0.06203927               -0.20674168               -0.00005629                0.09146044               -0.00132997
              14.07347369                2.11259579               72.52854412                0.72265488                0.08873509                0.08878229               -0.29581140               -0.00013611                0.06833959               -0.00177401
              15.07449444                2.11024156               72.38642406                0.72387108                0.11539563                0.11565498               -0.38488508               -0.00017938                0.03724573               -0.00175637
              16.07578160                2.10788276               72.24399592                0.86243267                0.12871654                0.14255583               -0.47394606                0.00015334                0.01716439               -0.00089365
               6.07709587                3.12997229               73.66033339                0.86249724               -0.11097973               -0.12465116                0.41469570               -0.00032178                0.01352454                0.00276238
               7.07598607                3.12793110               73.51783650                0.72388096               -0.09766670               -0.09784098                0.32565048               -0.00011285                0.04510554                0.00189932
               8.07514254                3.12588336               73.37589070                0.72258248               -0.07102360               -0.07102003                0.23666961               -0.00010844                0.08494600                0.00141759
               9.07456560                3.12383063               73.23412942                0.72174179               -0.04433779               -0.04427127                0.14764683               -0.00004046                0.10204460                0.00112446
              10.07425578                3.12177291               73.09248375                0.72124608               -0.01761764               -0.01755585                0.05860515               -0.00001428                0.11126101                0.00056852
              11.07421325                3.11970989               72.95088437                0.72108957                0.00911043                0.00915731               -0.03044730               -0.00002052                0.11247834               -0.00022303
              12.07443799                3.11764131               72.80926002                0.72126868                0.03583743                0.03587730               -0.11950927               -0.00004665                0.10558680               -0.00118645
              13.07493000                3.11556697               72.66753919                0.72178993                0.06255735                0.06261395               -0.20858089               -0.00008859                0.09059991               -0.00226467
              14.07568914                3.11348678               72.52565090                0.72265119                0.08926022                0.08939197               -0.29766108               -0.00013335                0.06761959               -0.00337408
              15.07671520                3.11140102               72.38352565                0.72387067                0.11594639                0.11621787               -0.38674219               -0.00011354                0.03683285               -0.00439642
              16.07800806                3.10931048               72.24109620                0.86243216                0.12928631                0.14302047               -0.47580434                0.00021302                0.01692544               -0.00525506
               6.07900010                4.12872880               73.65747602                0.86249654               -0.11044357               -0.12406892                0.41290031               -0.00029448                0.01371434                0.00826547
               7.07789566                4.12695525               73.51497041                0.72387877               -0.09711577               -0.09731556                0.32385526               -0.00006384                0.04567644                0.00545647
               8.07705778                4.12517557               73.37302390                0.72258112               -0.07045859               -0.07051877                0.23487311               -0.00008571                0.08596932                0.00374100
               9.07648649                4.12339048               73.23126337                0.72173933               -0.04378069               -0.04375161                0.14584679               -0.00006711                0.10311980                0.00235342
              10.07618217                4.12160005               73.08961846                0.72124339               -0.01707279               -0.01701559                0.05679877               -0.00005708                0.11224158                0.00110102
              11.07614503                4.11980422               72.94801833                0.72108564                0.00964942                0.00970784               -0.03226200               -0.00006158                0.11327724               -0.00019347
              12.07637516                4.11800289               72.80639149                0.72126710                0.03637322                0.03643680               -0.12133291               -0.00007428                0.10618965               -0.00162853
              13.07687250                4.11619602               72.66466638                0.72178659                0.06309059                0.06318643               -0.21041352               -0.00008925                0.09101357               -0.00327548
              14.07763697                4.11438363               72.52277220                0.72265228                0.08979840                0.08996535               -0.29950130               -0.00009230                0.06786794               -0.00518686
              15.07866847                4.11256592               72.38063976                0.72387193                0.11649931                0.11676094               -0.38858725               -0.00006387                0.03694725               -0.00739932
              16.07996695                4.11074317               72.23820213                0.86243247                0.12984883                0.14353248               -0.47765005                0.00024304                0.01697049               -0.00993135
               6.08063706                5.12749091               73.65462484                0.86249482               -0.10990444               -0.12351902                0.41110008               -0.00027709                0.01407258                0.01294083
               7.07953802                5.12598478               73.51210250                0.72387513               -0.09657342               -0.09677592                0.32205403               -0.00001979                0.04668648                0.00837297
               8.07870560                5.12447298               73.37015269                0.72257839               -0.06991230               -0.06998561                0.23307055               -0.00004470                0.08786704                0.00555415
               9.07813977                5.12295559               73.22839358                0.72173718               -0.04323514               -0.04321499                0.14404165               -0.00006692                0.10534948                0.00337916
              10.07784089                5.12143260               73.08675240                0.72124159               -0.01652987               -0.01647270                0.05498956               -0.00008546                0.11458027                0.00156429
              11.07780918                5.11990405               72.94515626                0.72108299                0.01019090                0.01025539               -0.03407673               -0.00009405                0.11553593               -0.00014919
              12.07804471                5.11837005               72.80353196                0.72126649                0.03691489                0.03698814               -0.12315408               -0.00009026                0.10821211               -0.00198699
              13.07854747                5.11683070               72.66180651                0.72178694                0.06363387                0.06374064               -0.21224123               -0.00007385                0.09266889               -0.00415169
              14.07931739                5.11528608               72.51990792                0.72265213                0.09034533                0.09051806               -0.30133458               -0.00004845                0.06904369               -0.00683629
              15.08035438                5.11373624               72.37776594                0.72387347                0.11705132                0.11730640               -0.39042372               -0.00002202                0.03755774               -0.01021782
              16.08165841                5.11218113               72.23531299                0.86243505                0.13040336                0.14407085               -0.47948783                0.00026566                0.01727108               -0.01442298
               6.08200681                6.12625842               73.65177116                0.86249508               -0.10936156               -0.12299223                0.40929487               -0.00025821                0.01462704                0.01651507
               7.08091319                6.12501974               73.50922434                0.72387610               -0.09603651               -0.09623056                0.32024621                0.00002668                0.04827900                0.01023742
               8.08008608                6.12377586               73.36727121                0.72257797               -0.06938271               -0.06942580                0.23126313               -0.00000240                0.09088580                0.00660579
               9.07952554                6.12252618               73.22551654                0.72173813               -0.04270373               -0.04265824                0.14223301               -0.00006649                0.10896060                0.00393552
              10.07923200                6.12127060               73.08388428                0.72124283               -0.01599189               -0.01592393                0.05317859               -0.00011220                0.11846421                0.00182049
              11.07920570                6.12000933               72.94229842                0.72108684                0.01073495                0.01079902               -0.03589113               -0.00012353                0.11939750               -0.00010394
              12.07944670                6.11874266               72.80068298                0.72126747                0.03746417                0.03752816               -0.12497259               -0.00010365                0.11177943               -0.00215528
              13.07995498                6.11747083               72.65896234                0.72178835                0.06418757                0.06427691               -0.21406405               -0.00005780                0.09567750               -0.00464669
              14.08073045                6.11619399               72.51706183                0.72265443                0.09089990                0.09105530               -0.30316086               -0.00000373                0.07123599               -0.00792004
              15.08177298                6.11491204               72.37490873                0.72387530                0.11760214                0.11785578               -0.39225377                0.00002240                0.03871530               -0.01232747
              16.08308250                6.11362459               72.23243357                0.86243582                0.13095146                0.14463522               -0.48132222                0.00029100                0.01785500               -0.01815054
               6.08310926                7.12503107               73.64890204                0.86249372               -0.10881505               -0.12250375                0.40748321               -0.00022701                0.01544875                0.01848601
               7.08202111                7.12406017               73.50632371                0.72387502               -0.09550784               -0.09566692                0.31843016                0.00008075                0.05065091                0.01060347
               8.08119910                7.12308447               73.36437048                0.72257957               -0.06887040               -0.06883382                0.22944919                0.00001950                0.09536211                0.00658372
               9.08064370                7.12210243               73.22262676                0.72174205               -0.04218038               -0.04208962                0.14042014               -0.00009324                0.11428091                0.00385462
              10.08035550                7.12111412               73.08101165                0.72124816               -0.01545259               -0.01537678                0.05136585               -0.00014707                0.12417657                0.00178625
              11.08033465                7.12012003               72.93944498                0.72109079                0.01128224                0.01133856               -0.03770488               -0.00015179                0.12511580               -0.00005926
              12.08058114                7.11912061               72.79784721                0.72127212                0.03801668                0.03806176               -0.12678818               -0.00012013                0.11714646               -0.00203710
              13.08109498                7.11811624               72.65613912                0.72179347                0.06474782                0.06479978               -0.21588175               -0.00005397                0.10030343               -0.00452279
              14.08187610                7.11710719               72.51424186                0.72265642                0.09146238                0.09157335               -0.30498082                0.00003574                0.07468377               -0.00800250
              15.08292423                7.11609336               72.37207816                0.72387657                0.11815249                0.11840357               -0.39407699                0.00007793                0.04056806               -0.01310658
              16.08423915                7.11507383               72.22957477                0.86243631                0.13149158                0.14523658               -0.48314950                0.00032869                0.01880612               -0.02040933
               6.08394405                8.12380834               73.64599873                0.86249257               -0.10826483               -0.12210484                0.40566260               -0.00016982                0.01668106                0.01816628
               7.08286141                8.12310640               73.50338327                0.72387521               -0.09499212               -0.09503197                0.31660424                0.00011069                0.05413902                0.00879197
               8.08204421                8.12239918               73.36143843                0.72258368               -0.06836913               -0.06822263                0.22762773               -0.00004281                0.10182350                0.00528051
               9.08149402                8.12168439               73.21971740                0.72174598               -0.04163752               -0.04154435                0.13860267               -0.00015150                0.12176644                0.00308197
              10.08121146                8.12096307               73.07813155                0.72125423               -0.01489261               -0.01484056                0.04955120               -0.00017377                0.13207003                0.00143749
              11.08119617                8.12023610               72.93659615                0.72110040                0.01183159                0.01187561               -0.03951787               -0.00015931                0.13301317               -0.00001556
              12.08144809                8.11950389               72.79502811                0.72127987                0.03855769                0.03859916               -0.12860044               -0.00013009                0.12467756               -0.00158706
              13.08196732                8.11876682               72.65334435                0.72180052                0.06529763                0.06532839               -0.21769364               -0.00007016                0.10699841               -0.00362802
              14.08275405                8.11802546               72.51146050                0.72266293                0.09202868                0.09207318               -0.30679278                0.00003734                0.07986233               -0.00666494
              15.08380790                8.11728012               72.36929122                0.72388105                0.11870381                0.11892157               -0.39588961                0.00013491                0.04343829               -0.01167743
              16.08512812                8.11652932               72.22675548                0.86243714                0.13202232                0.14591074               -0.48496526                0.00039064                0.02031940               -0.02015893
               6.08450975                9.12258897               73.64303450                0.86249217               -0.10772698               -0.12189101                0.40382886               -0.00019763                0.01842210                0.01341344
               7.08343248                9.12215953               73.50037723                0.72387631               -0.09447470               -0.09427334                0.31476330               -0.00000901                0.05942873                0.00448010
               8.08262026                9.12172001               73.35846195                0.72258915               -0.06778463               -0.06773165                0.22579660               -0.00013842                0.11123416                0.00292791
               9.08207679                9.12127154               73.21678190                0.72175903               -0.04099766               -0.04103240                0.13677902               -0.00017117                0.13192558                0.00171433
              10.08180030                9.12081731               73.07524106                0.72126659               -0.01430758               -0.01431477                0.04773346               -0.00013097                0.14247993                0.00080862
              11.08179064                9.12035754               72.93375208                0.72111303                0.01237569                0.01241551               -0.04133029               -0.00011184                0.14341172                0.00001054
              12.08204782                9.11989259               72.79222924                0.72129204                0.03906884                0.03914958               -0.13040805               -0.00009669                0.13477842               -0.00085953
              13.08257201                9.11942280               72.65058633                0.72181229                0.06578670                0.06588247               -0.21949696               -0.00007820                0.11639844               -0.00201723
              14.08336355                9.11894865               72.50873403                0.72267021                0.09255267                0.09261709               -0.30859210               -0.00000159                0.08773847               -0.00382100
              15.08442307                9.11847179               72.36657547                0.72388506                0.11925000                0.11937446               -0.39768668                0.00012116                0.04810137               -0.00706480
              16.08574855                9.11799205               72.22400743                0.86243915                0.13254846                0.14672717               -0.48676733                0.00039148                0.02281126               -0.01469355
               6.08479897               10.12137052               73.63994766                0.93124551               -0.10687932               -0.12184491                0.40197206                0.01396306                0.02449656                0.01170218
               7.08373018               10.12122093               73.49728187                0.86193948               -0.09347692               -0.09386037                0.31290416                0.01347121                0.06924909                0.00341776
               8.08292943               10.12104455               73.35543362                0.86129817               -0.06684358               -0.06754656                0.22395282                0.01305811                0.12452550                0.00278307
               9.08239331               10.12086374               73.21381529                0.86088090               -0.04032962               -0.04078034                0.13494593                0.01326288                0.14501015                0.00163619
              10.08212284               10.12067677               73.07233787                0.86063884               -0.01373311               -0.01405367                0.04591094                0.01328747                0.15564392                0.00068051
              11.08211865               10.12048441               72.93091265                0.86056145                0.01290274                0.01268716               -0.04314236                0.01330646                0.15654354               -0.00022164
              12.08238090               10.12028688               72.78945299                0.86065214                0.03955273                0.03942885               -0.13221023                0.01331085                0.14777387               -0.00116361
              13.08290970               10.12008447               72.64787148                0.86090979                0.06620652                0.06616699               -0.22128888                0.01331443                0.12909191               -0.00226475
              14.08370503               10.11987780               72.50607665                0.86133876                0.09286140                0.09291452               -0.31037459                0.01330406                0.09981196               -0.00374298
              15.08476693               10.11966761               72.36396737                0.86194399                0.11952042                0.11958153               -0.39946101                0.01368922                0.05751268               -0.00602733
              16.08609544               10.11946386               72.22140373                0.93121930                0.13285072                0.14718155               -0.48853973                0.01431410                0.02996775               -0.01282316
               6.21287271                0.13650912               74.67300323                0.93120511               -0.10825656               -0.12208005                0.40478903               -0.01386829                0.02028090               -0.00507653
               7.21179014                0.13367393               74.52967262                0.86190022               -0.09540794               -0.09528570                0.31898109               -0.01310436                0.04794272               -0.00476749
               8.21096455                0.13084859               74.38681354                0.86129267               -0.06976690               -0.06975425                0.23322464               -0.01275048                0.08618237               -0.00181309
               9.21039480                0.12801853               74.24418543                0.86088243               -0.04415582               -0.04398610                0.14746100               -0.01284061                0.10662012               -0.00098018
              10.21008143                0.12518380               74.10169214                0.86063988               -0.01849679               -0.01824652                0.06169062               -0.01285234                0.11733424               -0.00038090
              11.21002487                0.12234374               73.95925469                0.86056195                0.00719034                0.00750081               -0.02408706               -0.01286285                0.11932837                0.00010033
              12.21022524                0.11949819               73.81679706                0.86064958                0.03288558                0.03324869               -0.10987202               -0.01286362                0.11280830                0.00053839
              13.21068258                0.11664696               73.67424440                0.86090071                0.05857660                0.05899361               -0.19566671               -0.01286680                0.09782192                0.00097579
              14.21139677                0.11378946               73.53152162                0.86132186                0.08426700                0.08475954               -0.28147101               -0.01284077                0.07428566                0.00147140
              15.21236792                0.11092536               73.38855222                0.86191372                0.10992306                0.11040098               -0.36728430               -0.01317277                0.04160361                0.00207366
              16.21359523                0.10804530               73.24524920                0.93120081                0.12273122                0.13712261               -0.45310495               -0.01319874                0.02028578                0.00402217
               6.21556922                1.13528832               74.67018011                0.86238170               -0.10798524               -0.12159207                0.40307452               -0.00032687                0.01628734               -0.00363431
               7.21448936                1.13272107               74.52682846                0.72373527               -0.09522359               -0.09511360                0.31726252               -0.00006995                0.04528016               -0.00439994
               8.21366474                1.13015105               74.38397517                0.72252732               -0.06952850               -0.06943443                0.23150466                0.00002026                0.08378823               -0.00110235
               9.21309879                1.12757867               74.24133145                0.72172944               -0.04372197               -0.04371045                0.14573197                0.00006778                0.10301727               -0.00023538
              10.21279030                1.12500133               74.09882005                0.72126153               -0.01798741               -0.01797796                0.05995142                0.00004103                0.11351862               -0.00003602
              11.21273905                1.12241874               73.95636311                0.72111034                0.00773427                0.00776276               -0.02583611                0.00002461                0.11539160               -0.00011965
              12.21294499                1.11983067               73.81388535                0.72127901                0.03346135                0.03350638               -0.11163147                0.00001259                0.10880708               -0.00032041
              13.21340827                1.11723690               73.67131233                0.72176870                0.05920868                0.05925060               -0.19743652               -0.00000005                0.09380362               -0.00053005
              14.21412916                1.11463706               73.52856954                0.72258836                0.08500012                0.08500330               -0.28325115               -0.00007950                0.07029909               -0.00061607
              15.21510827                1.11202937               73.38558093                0.72374404                0.11070705                0.11078407               -0.36907495               -0.00010679                0.03826988               -0.00032245
              16.21634330                1.10941652               73.24227156                0.86234612                0.12350299                0.13714299               -0.45489977                0.00028744                0.01756550                0.00127320
               6.21800067                2.13407728               74.66729369                0.86235112               -0.10746504               -0.12075928                0.40135745               -0.00035894                0.01316729               -0.00233719
               7.21692602                2.13177166               74.52391973                0.72367374               -0.09466537               -0.09473829                0.31554511               -0.00014740                0.04485224               -0.00289983
               8.21610736                2.12945990               74.38109838                0.72247345               -0.06900709               -0.06889431                0.22979905               -0.00005964                0.08468011               -0.00077190
               9.21554587                2.12714432               74.23845920                0.72169685               -0.04325914               -0.04317363                0.14401685                0.00002214                0.10196211                0.00009720
              10.21524218                2.12482424               74.09594113                0.72124086               -0.01749270               -0.01744549                0.05822112                0.00003394                0.11165101                0.00013843
              11.21519602                2.12249899               73.95347285                0.72109537                0.00825808                0.00829007               -0.02758252                0.00001627                0.11316494               -0.00021562
              12.21540734                2.12016831               73.81098163                0.72125924                0.03400858                0.03403173               -0.11339478               -0.00000849                0.10643453               -0.00076006
              13.21587619                2.11783197               73.66839475                0.72173831                0.05976855                0.05978113               -0.19921659               -0.00005626                0.09147356               -0.00134906
              14.21660271                2.11548953               73.52563977                0.72253379                0.08550637                0.08555204               -0.28504791               -0.00013249                0.06833970               -0.00180309
              15.21758632                2.11314104               73.38264515                0.72366027                0.11119802                0.11144807               -0.37088445               -0.00017300                0.03724132               -0.00179108
              16.21882667                2.11078816               73.23934254                0.86229014                0.12403499                0.13737123               -0.45670945                0.00014789                0.01715582               -0.00092408
               6.22017328                3.13287314               74.66440512                0.86235290               -0.10694878               -0.12012354                0.39963246               -0.00031009                0.01353190                0.00277678
               7.21910380                3.13082631               74.52103393                0.72366863               -0.09411961               -0.09428768                0.31382348               -0.00010952                0.04515375                0.00191720
               8.21829089                3.12877316               74.37821447                0.72247167               -0.06844476               -0.06844159                0.22807649               -0.00010640                0.08501284                0.00143649
               9.21773490                3.12671520               74.23557914                0.72169246               -0.04272890               -0.04266516                0.14228960               -0.00004128                0.10208663                0.00114099
              10.21743631                3.12465242               74.09305922                0.72123196               -0.01698015               -0.01692083                0.05648481               -0.00001641                0.11129121                0.00057826
              11.21739530                3.12258455               73.95058548                0.72108651                0.00877635                0.00882131               -0.02933049               -0.00002271                0.11249953               -0.00022179
              12.21761184                3.12051131               73.80808668                0.72125308                0.03453172                0.03457004               -0.11515475               -0.00004777                0.10559735               -0.00119421
              13.21808593                3.11843252               73.66549131                0.72173119                0.06028036                0.06033488               -0.20098869               -0.00008781                0.09059798               -0.00228117
              14.21881745                3.11634810               73.52272839                0.72253148                0.08601280                0.08613970               -0.28683142               -0.00013000                0.06760728               -0.00339813
              15.21980619                3.11425833               73.37972849                0.72365963                0.11172903                0.11199057               -0.37267485               -0.00010977                0.03682208               -0.00442457
              16.22105203                3.11216395               73.23642460                0.86229162                0.12458400                0.13781888               -0.45849936                0.00020518                0.01691445               -0.00528119
               6.22208812                4.13167481               74.66153012                0.86234926               -0.10643219               -0.11956249                0.39790229               -0.00028387                0.01372155                0.00828444
               7.22102380                4.12988591               74.51815022                0.72366717               -0.09358893               -0.09378156                0.31209436               -0.00006241                0.04572379                0.00547591
               8.22021634                4.12809107               74.37533005                0.72246591               -0.06790063               -0.06795880                0.22634657               -0.00008468                0.08603291                0.00375898
               9.21966579                4.12629102               74.23269542                0.72168638               -0.04219227               -0.04216451                0.14055559               -0.00006763                0.10315562                0.00236707
              10.21937250                4.12448582               74.09017619                0.72122824               -0.01645525               -0.01640027                0.05474442               -0.00005828                0.11226340                0.00110898
              11.21933668                4.12267542               73.94770162                0.72108140                0.00929554                0.00935183               -0.03107901               -0.00006258                0.11328885               -0.00019301
              12.21955841                4.12085971               73.80520025                0.72124772                0.03504803                0.03510925               -0.11691242               -0.00007459                0.10619024               -0.00163621
              13.22003764                4.11903867               73.66260051                0.72173013                0.06079447                0.06088661               -0.20275525               -0.00008839                0.09100223               -0.00329114
              14.22077430                4.11721232               73.51983162                0.72253197                0.08653162                0.08669222               -0.28860506               -0.00009040                0.06784799               -0.00520943
              15.22176828                4.11538085               73.37682448                0.72366216                0.11226184                0.11251382               -0.37445261               -0.00006234                0.03693183               -0.00742613
              16.22301954                4.11354453               73.23351240                0.86229148                0.12512597                0.13831240               -0.46027822                0.00023366                0.01695679               -0.00995987
               6.22374542                5.13048189               74.65866127                0.86235009               -0.10591291               -0.11903276                0.39616843               -0.00026731                0.01408105                0.01296583
               7.22268629                5.12895068               74.51526463                0.72366713               -0.09306652               -0.09326175                0.31035937               -0.00002023                0.04673433                0.00839409
               8.22188409                5.12741399               74.37244115                0.72246314               -0.06737458               -0.06744525                0.22461054               -0.00004525                0.08792934                0.00557217
               9.22133880                5.12587191               74.22980790                0.72168635               -0.04166696               -0.04164763                0.13881706               -0.00006723                0.10538278                0.00339262
              10.22105075                5.12432442               74.08729237                0.72122441               -0.01593208               -0.01587729                0.05300142               -0.00008549                0.11459842                0.00157170
              11.22102015                5.12277158               73.94482174                0.72108269                0.00981746                0.00987937               -0.03282752               -0.00009375                0.11554235               -0.00014904
              12.22124710                5.12121349               73.80232283                0.72124897                0.03557002                0.03564056               -0.11866736               -0.00008968                0.10820709               -0.00199497
              13.22173155                5.11965025               73.65972270                0.72172919                0.06131811                0.06142067               -0.20451646               -0.00007346                0.09265232               -0.00416761
              14.22247346                5.11808194               73.51694934                0.72253243                0.08705876                0.08722467               -0.29037133               -0.00004832                0.06901995               -0.00685924
              15.22347273                5.11650860               73.37393264                0.72366390                0.11279374                0.11303924               -0.37622173               -0.00002178                0.03754034               -0.01024619
              16.22472933                5.11493019               73.23060520                0.86229352                0.12566032                0.13883094               -0.46204899                0.00025583                0.01725610               -0.01445570
               6.22514520                6.12929416               74.65578987                0.86234903               -0.10538998               -0.11852513                0.39442933               -0.00024913                0.01463490                0.01654469
               7.22409130                6.12802067               74.51236872                0.72366336               -0.09254928               -0.09273634                0.30861762                0.00002452                0.04832824                0.01025869
               8.22329421                6.12674217               74.36954192                0.72246475               -0.06686424               -0.06690591                0.22286911               -0.00000453                0.09095117                0.00662356
               9.22275401                6.12545806               74.22691311                0.72168614               -0.04115492               -0.04111122                0.13707446               -0.00006669                0.10899534                0.00394885
              10.22247111                6.12416828               74.08440646                0.72122904               -0.01541389               -0.01534859                0.05125669               -0.00011103                0.11848215                0.00182776
              11.22244573                6.12287300               73.94194609                0.72108202                0.01034172                0.01040319               -0.03457595               -0.00012188                0.11940291               -0.00010381
              12.22267795                6.12157252               73.79945600                0.72125193                0.03609942                0.03616098               -0.12041986               -0.00010228                0.11177286               -0.00216319
              13.22316772                6.12026708               73.65686062                0.72173266                0.06185157                0.06193756               -0.20627312               -0.00005782                0.09565977               -0.00466275
              14.22391498                6.11895682               73.51408531                0.72253277                0.08759331                0.08774265               -0.29213218               -0.00000532                0.07121175               -0.00794346
              15.22491959                6.11764163               73.37105745                0.72366603                0.11332468                0.11356877               -0.37798616                0.00002095                0.03869797               -0.01235863
              16.22618147                6.11632115               73.22770779                0.86229327                0.12618830                0.13937438               -0.46381522                0.00028036                0.01784032               -0.01818919
               6.22628740                7.12811138               74.65290297                0.86234830               -0.10486362               -0.11805441                0.39268417               -0.00021904                0.01545761                0.01851795
               7.22523877                7.12709595               74.50945026                0.72366502               -0.09204013               -0.09219331                0.30686844                0.00007681                0.05070425                0.01062432
               8.22444660                7.12607587               74.36662338                0.72246313               -0.06637087               -0.06633561                0.22112178                0.00001690                0.09543424                0.00660071
               9.22391135                7.12504968               74.22400553                0.72168778               -0.04065080               -0.04056345                0.13532808               -0.00009229                0.11432164                0.00386698
              10.22363359                7.12401745               74.08151604                0.72123025               -0.01489413               -0.01482140                0.04951018               -0.00014428                0.12419945                0.00179319
              11.22361347                7.12297965               73.93907484                0.72108860                0.01086934                0.01092310               -0.03632376               -0.00014855                0.12512498               -0.00005895
              12.22385097                7.12193671               73.79660240                0.72125675                0.03663192                0.03667519               -0.12216951               -0.00011777                0.11714292               -0.00204414
              13.22434611                7.12088900               73.65401955                0.72173517                0.06239135                0.06244155               -0.20802502               -0.00005380                0.10028853               -0.00453746
              14.22509880                7.11983680               73.51124747                0.72253677                0.08813528                0.08824216               -0.29388657                0.00003277                0.07466177               -0.00802481
              15.22610881                7.11877998               73.36820898                0.72366612                0.11385524                0.11409703               -0.37974413                0.00007363                0.04055180               -0.01313765
              16.22737590                7.11771768               73.22483103                0.86229501                0.12670920                0.13995442               -0.46557782                0.00031608                0.01879183               -0.02045078
               6.22717168                8.12693307               74.64998178                0.86234733               -0.10433352               -0.11767024                0.39093056               -0.00016380                0.01669255                0.01819747
               7.22612835                8.12617680               74.50649191                0.72366616               -0.09154332               -0.09158158                0.30510938                0.00010580                0.05419927                0.00880838
               8.22534082                8.12541545               74.36367345                0.72246752               -0.06588805               -0.06574680                0.21936699               -0.00004275                0.10190678                0.00529486
               9.22481059                8.12464680               74.22107833                0.72169559               -0.04012779               -0.04003822                0.13357736               -0.00014762                0.12181772                0.00309273
              10.22453826                8.12387185               74.07861813                0.72124002               -0.01435451               -0.01430467                0.04776146               -0.00016895                0.13210227                0.00144356
              11.22452350                8.12309147               73.93620820                0.72109572                0.01139864                0.01144059               -0.03807068               -0.00015492                0.13303076               -0.00001506
              12.22476624                8.12230603               73.79376551                0.72126503                0.03715317                0.03719294               -0.12391543               -0.00012665                0.12468181               -0.00159266
              13.22526656                8.12151591               73.65120699                0.72174423                0.06292100                0.06295076               -0.20977051               -0.00006867                0.10699086               -0.00364014
              14.22602466                8.12072166               73.50844833                0.72254161                0.08868069                0.08872367               -0.29563175                0.00003491                0.07984695               -0.00668369
              15.22704018                8.11992358               73.36540424                0.72366797                0.11438667                0.11459644               -0.38149111                0.00012907                0.04342680               -0.01170408
              16.22831239                8.11912024               73.22199392                0.86229597                0.12722134                0.14060481               -0.46733027                0.00037598                0.02030894               -0.02019801
               6.22779665                9.12575798               74.64699956                0.86234588               -0.10381563               -0.11746465                0.38916450               -0.00019040                0.01843601                0.01343628
               7.22675850                9.12526432               74.50346780                0.72366463               -0.09104494               -0.09085081                0.30333630               -0.00000946                0.05950001                0.00448721
               8.22597576                9.12476093               74.36067900                0.72247539               -0.06532477               -0.06527391                0.21760269               -0.00013449                0.11133554                0.00293683
               9.22545200                9.12424892               74.21812492                0.72170322               -0.03951104               -0.03954484                0.13181973               -0.00016586                0.13199281                0.00172084
              10.22518554                9.12373135               74.07570979                0.72125255               -0.01379068               -0.01379814                0.04601014               -0.00012704                0.14252723                0.00081241
              11.22517619                9.12320846               73.93334634                0.72111070                0.01192285                0.01196080               -0.03981713               -0.00010842                0.14344361                0.00001097
              12.22542399                9.12268057               73.79094889                0.72127806                0.03764564                0.03772323               -0.12565707               -0.00009371                0.13479639               -0.00086303
              13.22592910                9.12214802               73.64843127                0.72175495                0.06339217                0.06348461               -0.21150791               -0.00007577                0.11640434               -0.00202450
              14.22669184                9.12161127               73.50570419                0.72254964                0.08918547                0.08924767               -0.29736522               -0.00000166                0.08773567               -0.00383241
              15.22771281                9.12107191               73.36267086                0.72367420                0.11491282                0.11503282               -0.38322255                0.00011697                0.04809858               -0.00708210
              16.22899009                9.12052978               73.21922819                0.86229707                0.12772803                0.14139118               -0.46906521                0.00037730                0.02280660               -0.01472281
               6.22815520               10.12458377               74.64389448                0.93117317               -0.10299911               -0.11742050                0.38737581                0.01345572                0.02452011                0.01172351
               7.22712521               10.12435979               74.50035419                0.86183494               -0.09008341               -0.09045305                0.30154548                0.01298092                0.06933909                0.00342358
               8.22635353               10.12410998               74.35763256                0.86123993               -0.06441784               -0.06509571                0.21582617                0.01258297                0.12465160                0.00279150
               9.22583685               10.12385590               74.21514031                0.86085772               -0.03886748               -0.03930181                0.13005314                0.01278029                0.14509971                0.00164132
              10.22557618               10.12359589               74.07278871                0.86063244               -0.01323692               -0.01354670                0.04425442                0.01280377                0.15571380                0.00068338
              11.22557211               10.12333068               73.93048912                0.86056045                0.01243103                0.01222253               -0.04156322                0.01282267                0.15659715               -0.00022154
              12.22582480               10.12306049               73.78815494                0.86064327                0.03811170                0.03799232               -0.12739334                0.01282708                0.14781346               -0.00116724
              13.22633435               10.12278561               73.64569883                0.86088181                0.06379643                0.06375887               -0.21323496                0.01283038                0.12911940               -0.00227107
              14.22710073               10.12250661               73.50302931                0.86127879                0.08948297                0.08953429               -0.29908308                0.01282076                0.09982917               -0.00375273
              15.22812401               10.12222423               73.36004533                0.86183908                0.11517325                0.11523228               -0.38493180                0.01319199                0.05752580               -0.00604276
              16.22940420               10.12194806               73.21660707                0.93114914                0.12801894                0.14182859               -0.47077240                0.01379359                0.02997570               -0.01285004
               6.35683529                0.13929004               75.67697474                0.93113215               -0.10416682               -0.11746826                0.38949657               -0.01334411                0.02030424               -0.00507915
               7.35579362                0.13647902               75.53280225                0.86179508               -0.09180395               -0.09168607                0.30693098               -0.01260924                0.04800009               -0.00476628
               8.35499921                0.13367748               75.38910179                0.86123144               -0.06713230               -0.06711996                0.22441643               -0.01226879                0.08626875               -0.00180530
               9.35445098                0.13087138               75.24563224                0.86085487               -0.04248922               -0.04232619                0.14189551               -0.01235560                0.10670502               -0.00097393
              10.35414943                0.12806079               75.10229744                0.86063292               -0.01779975               -0.01755955                0.05936705               -0.01236720                0.11741477               -0.00037759
              11.35409498                0.12524507               74.95901842                0.86056124                0.00691644                0.00721448               -0.02316800               -0.01237740                0.11940247                0.00010169
              12.35428776                0.12242407               74.81571913                0.86064134                0.03164028                0.03198904               -0.10571013               -0.01237789                0.11287307                0.00053728
              13.35472779                0.11959762               74.67232472                0.86087301                0.05636016                0.05676066               -0.18826142               -0.01238079                0.09787407                0.00097215
              14.35541496                0.11676514               74.52876010                0.86126038                0.08107935                0.08155262               -0.27082202               -0.01235564                0.07432346                0.00146536
              15.35634938                0.11392630               74.38494877                0.86180862                0.10576522                0.10622460               -0.35339081               -0.01267489                0.04162550                0.00206602
              16.35753026                0.11107212               74.24080373                0.93112821                0.11808898                0.13193611               -0.43596744               -0.01269983                0.02029376                0.00401968
               6.35951287                1.13811536               75.67413480                0.86223669               -0.10390599               -0.11699893                0.38784761               -0.00031420                0.01630011               -0.00362797
               7.35847381                1.13556216               75.52994122                0.72352579               -0.09162657               -0.09152081                0.30527842               -0.00006774                0.04532837               -0.00439018
               8.35768034                1.13300628               75.38624655                0.72241391               -0.06690253               -0.06681253                0.22276208                0.00001823                0.08386307               -0.00108170
               9.35713576                1.13044812               75.24276130                0.72167847               -0.04207152               -0.04206103                0.14023204                0.00006372                0.10308599               -0.00021844
              10.35683891                1.12788520               75.09940829                0.72124405               -0.01730977               -0.01730117                0.05769386                0.00003774                0.11358270               -0.00002652
              11.35678957                1.12531722               74.95610968                0.72110775                0.00743965                0.00746649               -0.02485064                0.00002174                0.11544926               -0.00011730
              12.35698771                1.12274396               74.81279016                0.72126376                0.03219407                0.03223691               -0.10740252                0.00001041                0.10885480               -0.00032583
              13.35743345                1.12016523               74.66937529                0.72171568                0.05696790                0.05700788               -0.18996360               -0.00000138                0.09383849               -0.00054319
              14.35812706                1.11758066               74.52579055                0.72246901                0.08178419                0.08178716               -0.27253427               -0.00007743                0.07031972               -0.00063677
              15.35906913                1.11498855               74.38195991                0.72353648                0.10651917                0.10659340               -0.35511334               -0.00010319                0.03827772               -0.00034854
              16.36025745                1.11239148               74.23780849                0.86220454                0.11883131                0.13195591               -0.43769393                0.00027648                0.01756222                0.00125178
               6.36193541                2.13695006               75.67123154                0.86221007               -0.10340591               -0.11619783                0.38619620               -0.00034545                0.01317452               -0.00232661
               7.36090135                2.13464860               75.52701566                0.72346855               -0.09108983               -0.09116009                0.30362732               -0.00014284                0.04490132               -0.00288354
               8.36011361                2.13234123               75.38335303                0.72236237               -0.06640098               -0.06629318                0.22112239               -0.00005973                0.08475135               -0.00074685
               9.35957333                2.13003016               75.23987224                0.72164721               -0.04162630               -0.04154458                0.13858217                0.00001836                0.10201340                0.00011825
              10.35928109                2.12771477               75.09651240                0.72122639               -0.01683405               -0.01678887                0.05602924                0.00002954                0.11169445                0.00015119
              11.35923665                2.12539440               74.95320229                0.72109110                0.00794347                0.00797382               -0.02653080                0.00001241                0.11320133               -0.00021309
              12.35943996                2.12306881               74.80986914                0.72124308                0.03272065                0.03274232               -0.10909907               -0.00001129                0.10646057               -0.00076829
              13.35989106                2.12073778               74.66644025                0.72168358                0.05750667                0.05751836               -0.19167657               -0.00005656                0.09148674               -0.00136803
              14.36059009                2.11840088               74.52284316                0.72241941                0.08227135                0.08231517               -0.27426321               -0.00012895                0.06834031               -0.00183223
              15.36153649                2.11605817               74.37900638                0.72345908                0.10699167                0.10723241               -0.35685490               -0.00016728                0.03723770               -0.00182613
              16.36272992                2.11371124               74.23486173                0.86215461                0.11934334                0.13217576               -0.43943582                0.00014181                0.01714803               -0.00095481
               6.36410889                3.13579140               75.66832604                0.86220987               -0.10290917               -0.11558619                0.38453637               -0.00029885                0.01354057                0.00279068
               7.36307979                3.13373896               75.52411297                0.72346730               -0.09056493               -0.09072665                0.30197093               -0.00010690                0.04520123                0.00193576
               8.36229759                3.13168041               75.38045223                0.72235997               -0.06586037               -0.06585747                0.21946468               -0.00010512                0.08507741                0.00145522
               9.36176259                3.12961723               75.23697521                0.72164206               -0.04111619               -0.04105530                0.13692006               -0.00004297                0.10212777                0.00115638
              10.36147526                3.12754942               75.09361345                0.72121757               -0.01634066               -0.01628415                0.05435881               -0.00001938                0.11132147                0.00058788
              11.36143577                3.12547669               74.95029776                0.72108432                0.00844207                0.00848492               -0.02821255               -0.00002549                0.11252089               -0.00022067
              12.36164411                3.12339881               74.80695693                0.72123681                0.03322391                0.03326029               -0.11079250               -0.00004935                0.10560809               -0.00120233
              13.36210025                3.12131559               74.66351941                0.72168000                0.05799934                0.05805124               -0.19338215               -0.00008719                0.09059618               -0.00229830
              14.36280409                3.11922696               74.51991427                0.72241830                0.08275874                0.08288056               -0.27597949               -0.00012696                0.06759557               -0.00342262
              15.36375543                3.11713319               74.37607215                0.72345908                0.10750250                0.10775423               -0.35857709               -0.00010679                0.03681146               -0.00445220
              16.36495414                3.11503500               74.23192621                0.86215343                0.11987150                0.13260649               -0.44115807                0.00019679                0.01690298               -0.00530716
               6.36603433                4.13463834               75.66543406                0.86220848               -0.10241235               -0.11504636                0.38287268               -0.00027376                0.01373025                0.00830469
               7.36501020                4.13283407               75.52121229                0.72346507               -0.09005441               -0.09023974                0.30030782               -0.00006162                0.04576997                0.00549540
               8.36423324                4.13102408               75.37755083                0.72235529               -0.06533684               -0.06539288                0.21780021               -0.00008416                0.08609351                0.00377689
               9.36370347                4.12920906               75.23407448                0.72163789               -0.04060005               -0.04057365                0.13525202               -0.00006833                0.10319018                0.00238154
              10.36342124                4.12738909               75.09071335                0.72121316               -0.01583577               -0.01578338                0.05268464               -0.00005993                0.11228515                0.00111699
              11.36338675                4.12556410               74.94739675                0.72107998                0.00894172                0.00899532               -0.02989476               -0.00006433                0.11330013               -0.00019254
              12.36360007                4.12373402               74.80405324                0.72123262                0.03372078                0.03377917               -0.11248387               -0.00007553                0.10619051               -0.00164437
              13.36406117                4.12189880               74.66061128                0.72167810                0.05849390                0.05858219               -0.19508200               -0.00008814                0.09099122               -0.00330753
              14.36476995                4.12005849               74.51700010                0.72241586                0.08325781                0.08341224               -0.27768608               -0.00008953                0.06782969               -0.00523189
              15.36572632                4.11821325               74.37315071                0.72345887                0.10801529                0.10825780               -0.36028829               -0.00006139                0.03691772               -0.00745187
              16.36693025                4.11636337               74.22899657                0.86215551                0.12039328                0.13308133               -0.44287032                0.00022437                0.01694328               -0.00998641
               6.36771195                5.13349048               75.66254821                0.86221037               -0.10191253               -0.11453649                0.38120411               -0.00025775                0.01408798                0.01299071
               7.36669282                5.13193416               75.51830968                0.72346460               -0.08955166               -0.08973960                0.29863814               -0.00002094                0.04677958                0.00841490
               8.36592092                5.13037256               75.37464490                0.72235375               -0.06483073               -0.06489896                0.21613056               -0.00004637                0.08798954                0.00559014
               9.36539621                5.12880576               75.23116992                0.72163480               -0.04009478               -0.04007654                0.13358008               -0.00006834                0.10541487                0.00340609
              10.36511902                5.12723375               75.08781243                0.72121264               -0.01533272               -0.01528028                0.05100804               -0.00008631                0.11461559                0.00157910
              11.36508956                5.12565660               74.94449971                0.72107839                0.00944363                0.00950290               -0.03157704               -0.00009433                0.11554835               -0.00014905
              12.36530789                5.12407439               74.80115861                0.72123327                0.03422308                0.03429048               -0.11417280               -0.00009028                0.10820161               -0.00200277
              13.36577402                5.12248724               74.65771618                0.72167772                0.05899776                0.05909619               -0.19677695               -0.00007422                0.09263635               -0.00418316
              14.36648785                5.12089521               74.51410049                0.72241626                0.08376510                0.08392484               -0.27938628               -0.00004920                0.06899846               -0.00688191
              15.36744932                5.11929835               74.37024150                0.72345986                0.10852744                0.10876375               -0.36199201               -0.00002233                0.03752487               -0.01027431
              16.36865840                5.11769662               74.22607201                0.86215575                0.12090782                0.13358050               -0.44457509                0.00024571                0.01724243               -0.01448691
               6.36914180                6.13234761               75.65965975                0.86220776               -0.10140953               -0.11404814                0.37953125               -0.00023999                0.01464319                0.01657329
               7.36812770                6.13103928               75.51539669                0.72346309               -0.08905420               -0.08923435                0.29696302                0.00002215                0.04837573                0.01028060
               8.36736071                6.12972610               75.37172859                0.72235399               -0.06434005               -0.06438024                0.21445535               -0.00000721                0.09101327                0.00664188
               9.36684090                6.12840753               75.22825802                0.72163482               -0.03960234               -0.03956058                0.13190374               -0.00006767                0.10902839                0.00396190
              10.36656867                6.12708348               75.08490941                0.72121595               -0.01483402               -0.01477167                0.04932950               -0.00011055                0.11849924                0.00183495
              11.36654422                6.12575416               74.94160691                0.72108112                0.00994805                0.01000686               -0.03325916               -0.00012087                0.11940759               -0.00010404
              12.36676763                6.12441983               74.79827459                0.72123656                0.03473222                0.03479118               -0.11585877               -0.00010191                0.11176599               -0.00217088
              13.36723887                6.12308072               74.65483687                0.72167792                0.05951109                0.05959358               -0.19846725               -0.00005888                0.09564197               -0.00467798
              14.36795785                6.12173699               74.51121919                0.72241783                0.08427974                0.08442339               -0.28108137               -0.00000731                0.07118873               -0.00796685
              15.36892446                6.12038853               74.36734900                0.72346121                0.10903862                0.10927337               -0.36369038                0.00001910                0.03868264               -0.01238966
              16.37013862                6.11903498               74.22315727                0.86215645                0.12141620                0.13410350               -0.44627555                0.00026923                0.01782818               -0.01822701
               6.37032381                7.13120951               75.65675573                0.86220768               -0.10090340               -0.11359555                0.37785314               -0.00021108                0.01546720                0.01854928
               7.36931478                7.13014947               75.51246108                0.72346318               -0.08856451               -0.08871231                0.29528121                0.00007270                0.05075584                0.01064462
               8.36855252                7.12908495               75.36879292                0.72235444               -0.06386536               -0.06383184                0.21277503                0.00001395                0.09550273                0.00661779
               9.36803747                7.12801455               75.22533332                0.72163991               -0.03911731               -0.03903364                0.13022401               -0.00009156                0.11435980                0.00388006
              10.36777018                7.12693832               75.08200185                0.72121753               -0.01433406               -0.01426445                0.04764917               -0.00014190                0.12422040                0.00179992
              11.36775079                7.12585674               74.93871851                0.72108624                0.01045556                0.01050709               -0.03494075               -0.00014610                0.12513271               -0.00005888
              12.36797929                7.12477022               74.79540382                0.72124026                0.03524446                0.03528595               -0.11754214               -0.00011622                0.11713861               -0.00205132
              13.36845568                7.12367911               74.65197862                0.72168426                0.06003052                0.06007854               -0.20015287               -0.00005423                0.10027297               -0.00455217
              14.36917990                7.12258368               74.50836413                0.72242157                0.08480141                0.08490399               -0.28276951                0.00002985                0.07464051               -0.00804710
              15.37015171                7.12148382               74.36448328                0.72346482                0.10954909                0.10978143               -0.36538130                0.00007019                0.04053728               -0.01316896
              16.37137088                7.12037869               74.22026321                0.86215729                0.12191721                0.13466119               -0.44797066                0.00030383                0.01877954               -0.02049374
               6.37125765                8.13007570               75.65381734                0.86220555               -0.10039343               -0.11322610                0.37616637               -0.00015794                0.01670332                0.01822792
               7.37025372                8.12926503               75.50948545                0.72346340               -0.08808653               -0.08812382                0.29358881                0.00010103                0.05425740                0.00882426
               8.36949592                8.12844946               75.36582577                0.72235844               -0.06340080               -0.06326551                0.21108722               -0.00004267                0.10198704                0.00530877
               9.36898570                8.12762685               75.22238895                0.72164575               -0.03861422               -0.03852834                0.12853960               -0.00014416                0.12186579                0.00310339
              10.36872364                8.12679819               75.07908678                0.72122567               -0.01381509               -0.01376729                0.04596685               -0.00016514                0.13213186                0.00144945
              11.36870940                8.12596430               74.93583473                0.72109350                0.01096476                0.01100505               -0.03662171               -0.00015164                0.13304707               -0.00001481
              12.36894293                8.12512555               74.79254980                0.72124859                0.03574605                0.03578433               -0.11922249               -0.00012411                0.12468520               -0.00159829
              13.36942432                8.12428230               74.64914894                0.72168943                0.06054021                0.06056869               -0.20183265               -0.00006800                0.10698263               -0.00365215
              14.37015374                8.12343507               74.50554787                0.72242590                0.08532631                0.08536750               -0.28444911                0.00003211                0.07983164               -0.00670216
              15.37113085                8.12258416               74.36166139                0.72346648                0.11006056                0.11026218               -0.36706274                0.00012346                0.04341464               -0.01173130
              16.37235495                8.12172820               74.21740887                0.86215911                0.12241003                0.13528707               -0.44965703                0.00036161                0.02029630               -0.02023845
               6.37194199                9.12894499               75.65081779                0.86220768               -0.09989506               -0.11302827                0.37446711               -0.00018329                0.01844938                0.01345931
               7.37094304                9.12838700               75.50644396                0.72346454               -0.08760705               -0.08742039                0.29188274               -0.00000928                0.05956821                0.00449563
               8.37018985                9.12781964               75.36281401                0.72236367               -0.06285904               -0.06281047                0.20938969               -0.00013000                0.11143231                0.00294544
               9.36968586                9.12724398               75.21941829                0.72165353               -0.03802104               -0.03805382                0.12684906               -0.00016069                0.13205683                0.00172710
              10.36942943                9.12666297               75.07616126                0.72123962               -0.01327270               -0.01327998                0.04428199               -0.00012360                0.14257160                0.00081650
              11.36942040                9.12607684               74.93295573                0.72110566                0.01146917                0.01150567               -0.03830214               -0.00010570                0.14347380                0.00001109
              12.36965881                9.12548590               74.78971610                0.72126218                0.03621985                0.03629458               -0.12089818               -0.00009139                0.13481364               -0.00086600
              13.37014480                9.12489048               74.64635618                0.72170168                0.06099345                0.06108243               -0.20350446               -0.00007398                0.11640921               -0.00203174
              14.37087868                9.12429103               74.50278672                0.72243282                0.08581203                0.08587201               -0.28611766               -0.00000243                0.08773212               -0.00384384
              15.37186104                9.12368906               74.35891102                0.72347013                0.11056709                0.11068265               -0.36873012                0.00011206                0.04809473               -0.00709829
              16.37309002                9.12308444               74.21462612                0.86216025                0.12289803                0.13604451               -0.45132830                0.00036281                0.02280008               -0.01474960
               6.37236997               10.12781513               75.64769518                0.93110323               -0.09910895               -0.11298573                0.37274483                0.01294727                0.02454294                0.01174536
               7.37137888               10.12751662               75.50331278                0.86173363               -0.08668153               -0.08703744                0.29015919                0.01249023                0.06942446                0.00343097
               8.37063634               10.12719325               75.35975014                0.86118653               -0.06198630               -0.06263898                0.20768031                0.01210692                0.12477160                0.00279951
               9.37013916               10.12686578               75.21641635                0.86083186               -0.03740175               -0.03782020                0.12515003                0.01229689                0.14518607                0.00164678
              10.36988831               10.12653259               75.07322296                0.86062668               -0.01274004               -0.01303809                0.04259284                0.01231970                0.15577992                0.00068702
              11.36988436               10.12619441               74.93008139                0.86055959                0.01195775                0.01175756               -0.03998216                0.01233743                0.15664834               -0.00022170
              12.37012746               10.12585144               74.78690512                0.86063661                0.03666818                0.03655340               -0.12256816                0.01234155                0.14785117               -0.00116956
              13.37061772               10.12550394               74.64360678                0.86085553                0.06138237                0.06134624               -0.20516553                0.01234520                0.12914428               -0.00227783
              14.37135511               10.12515251               74.50009499                0.86121991                0.08609809                0.08614792               -0.28777023                0.01233614                0.09984649               -0.00376304
              15.37233968               10.12479781               74.35626873                0.86173645                0.11081743                0.11087483               -0.37037416                0.01269326                0.05753964               -0.00605564
              16.37357146               10.12444909               74.21198828                0.93108012                0.12317763                0.13646576               -0.45297023                0.01327181                0.02998354               -0.01287249
               6.50162378                0.14208743               76.68079316                0.93106231               -0.10006876               -0.11284688                0.37417187               -0.01281901                0.02032569               -0.00508101
               7.50062309                0.13930065               76.53581124                0.86169111               -0.08819244               -0.08807909                0.29485606               -0.01211311                0.04805590               -0.00476363
               8.49985993                0.13652298               76.39130187                0.86117609               -0.06449179               -0.06448033                0.21558999               -0.01178632                0.08635357               -0.00179801
               9.49933325                0.13374093               76.24702334                0.86082952               -0.04081876               -0.04066233                0.13631703               -0.01186991                0.10678719               -0.00096876
              10.49904355                0.13095455               76.10287948                0.86062457               -0.01710122               -0.01687063                0.05703736               -0.01188080                0.11749296               -0.00037414
              11.49899123                0.12816325               75.95879133                0.86055935                0.00664220                0.00692791               -0.02224805               -0.01189063                0.11947506                0.00010284
              12.49917640                0.12536687               75.81468286                0.86063313                0.03039289                0.03072709               -0.10154058               -0.01189124                0.11293639                0.00053619
              13.49959909                0.12256527               75.67047917                0.86084544                0.05413959                0.05452338               -0.18084162               -0.01189404                0.09792507                0.00096910
              14.50025919                0.11975787               75.52610518                0.86120076                0.07788564                0.07833945               -0.26015219               -0.01186960                0.07436099                0.00145996
              15.50115680                0.11694439               75.38148440                0.86170477                0.10159939                0.10204013               -0.33947013               -0.01217574                0.04164865                0.00205764
              16.50229118                0.11411617               75.23652985                0.93105767                0.11343769                0.12673912               -0.41879506               -0.01219974                0.02030427                0.00401485
               6.50428236                1.14095896               76.67793706                0.86209998               -0.09981809               -0.11239599                0.37258822               -0.00030200                0.01631139               -0.00362150
               7.50328418                1.13841986               76.53293403                0.72332882               -0.08802180               -0.08792028                0.29326866               -0.00006571                0.04537469               -0.00437919
               8.50252193                1.13587818               76.38843041                0.72230531               -0.06427065               -0.06418481                0.21400032                0.00001614                0.08393556               -0.00106122
               9.50199877                1.13333431               76.24413609                0.72163091               -0.04041708               -0.04040757                0.13471877                0.00005942                0.10315257               -0.00020264
              10.50171359                1.13078585               76.09997393                0.72123139               -0.01663034               -0.01662251                0.05543023                0.00003421                0.11364531               -0.00001706
              11.50166616                1.12823253               75.95586610                0.72110562                0.00714453                0.00716999               -0.02386427                0.00001879                0.11550615               -0.00011519
              12.50185648                1.12567415               75.81173730                0.72124743                0.03092430                0.03096517               -0.10316596                0.00000802                0.10890236               -0.00033137
              13.50228465                1.12311050               75.66751306                0.72166118                0.05472279                0.05476091               -0.18247636               -0.00000294                0.09387335               -0.00055623
              14.50295093                1.12054127               75.52311885                0.72235405                0.07856216                0.07856475               -0.26179657               -0.00007539                0.07034024               -0.00065691
              15.50385589                1.11796479               75.37847866                0.72333824                0.10232308                0.10239439               -0.34112412               -0.00009961                0.03828657               -0.00037430
              16.50499739                1.11538357               75.23351768                0.86207056                0.11415020                0.12675831               -0.42045245                0.00026519                0.01756168                0.00122916
               6.50669593                2.13983951               76.67501762                0.86207619               -0.09933761               -0.11162636                0.37100155               -0.00033237                0.01318214               -0.00231553
               7.50570256                2.13754225               76.52999228                0.72327479               -0.08750629               -0.08757374                0.29168276               -0.00013866                0.04494885               -0.00286694
               8.50494581                2.13523928               76.38552082                0.72225729               -0.06378917               -0.06368574                0.21242518               -0.00006009                0.08481901               -0.00072205
               9.50442677                2.13293278               76.24123085                0.72159943               -0.03998959               -0.03991149                0.13313392                0.00001402                0.10206262                0.00013921
              10.50414602                2.13062210               76.09706172                0.72121121               -0.01617337               -0.01613054                0.05383159                0.00002404                0.11173739                0.00016372
              11.50410331                2.12830665               75.95294224                0.72108886                0.00762849                0.00765727               -0.02547814                0.00000755                0.11323751               -0.00021077
              12.50429858                2.12598618               75.80879965                0.72122864                0.03143006                0.03145067               -0.10479559               -0.00001469                0.10648683               -0.00077676
              13.50473191                2.12366048               75.66456122                0.72163298                0.05524029                0.05525134               -0.18412206               -0.00005730                0.09150058               -0.00138738
              14.50540339                2.12132917               75.52015451                0.72230746                0.07903006                0.07907186               -0.26345746               -0.00012601                0.06834187               -0.00186071
              15.50631251                2.11899228               75.37550805                0.72326396                0.10277689                0.10300812               -0.34279700               -0.00016205                0.03723462               -0.00185960
              16.50745893                2.11665134               75.23055383                0.86202438                0.11464202                0.12696975               -0.42212644                0.00013540                0.01714094               -0.00098486
               6.50887024                3.13872643               76.67209585                0.86207547               -0.09886068               -0.11103890                0.36940808               -0.00028781                0.01354779                0.00280579
               7.50788163                3.13666839               76.52707335                0.72327349               -0.08700221               -0.08715752                0.29009192               -0.00010481                0.04524637                0.00195396
               8.50713019                3.13460446               76.38260377                0.72225189               -0.06327002               -0.06326742                0.21083363               -0.00010467                0.08513984                0.00147345
               9.50661623                3.13253608               76.23831754                0.72159465               -0.03949995               -0.03944181                0.13153876               -0.00004596                0.10216789                0.00117238
              10.50634020                3.13046324               76.09414640                0.72120517               -0.01569970               -0.01564584                0.05222735               -0.00002389                0.11135107                0.00059735
              11.50630224                3.12838567               75.95002123                0.72108025                0.00810753                0.00814815               -0.02709340               -0.00002970                0.11254225               -0.00021971
              12.50650235                3.12630316               75.80587083                0.72122011                0.03191378                0.03194824               -0.10642273               -0.00005213                0.10561922               -0.00121045
              13.50694051                3.12421553               75.66162366                0.72162839                0.05571366                0.05576316               -0.18576059               -0.00008776                0.09059567               -0.00231517
              14.50761662                3.12212270               75.51720880                0.72230650                0.07949819                0.07961490               -0.26510575               -0.00012514                0.06758598               -0.00344635
              15.50853048                3.12002495               75.37255695                0.72326473                0.10326767                0.10350933               -0.34445132               -0.00010431                0.03680238               -0.00447971
              16.50968197                3.11792296               75.22760144                0.86202439                0.11514957                0.12738346               -0.42378137                0.00018834                0.01689274               -0.00533310
               6.51080627                4.13761873               76.66918757                0.86207338               -0.09838379               -0.11052065                0.36781122               -0.00026357                0.01373651                0.00832403
               7.50982243                4.13579910               76.52415637                0.72326957               -0.08651214               -0.08669025                0.28849531               -0.00006157                0.04581320                0.00551487
               8.50907602                4.13397394               76.37968606                0.72224824               -0.06276740               -0.06282155                0.20923568               -0.00008530                0.08615229                0.00379513
               9.50856708                4.13214394               76.23540046                0.72158852               -0.03900421               -0.03897944                0.12993721               -0.00007086                0.10322434                0.00239564
              10.50829594                4.13030919               76.09122988                0.72120109               -0.01521463               -0.01516497                0.05061950               -0.00006313                0.11230616                0.00112503
              11.50826279                4.12846961               75.94710372                0.72107784                0.00858742                0.00863839               -0.02870930               -0.00006716                0.11331134               -0.00019237
              12.50846769                4.12662514               75.80295057                0.72122010                0.03239092                0.03244661               -0.10804713               -0.00007761                0.10619132               -0.00165271
              13.50891061                4.12477575               75.65869887                0.72162507                0.05618868                0.05627316               -0.18739319               -0.00008938                0.09098144               -0.00332342
              14.50959146                4.12292147               75.51427790                0.72230310                0.07997792                0.08012587               -0.26674595               -0.00008969                0.06781227               -0.00525460
              15.51051017                4.12106246               75.36961872                0.72326485                0.10376082                0.10399344               -0.34609657               -0.00006099                0.03690366               -0.00747969
              16.51166668                4.11919901               75.22465500                0.86202456                0.11565131                0.12783980               -0.42542692                0.00021487                0.01693020               -0.01001511
               6.51250423                5.13651602               76.66628535                0.86207236               -0.09790413               -0.11003113                0.36620961               -0.00024819                0.01409570                0.01301510
               7.51152519                5.13493458               76.52123740                0.72326997               -0.08602959               -0.08621039                0.28689313               -0.00002250                0.04682390                0.00843602
               8.51078364                5.13334803               76.37676376                0.72224741               -0.06228145               -0.06234750                0.20763275               -0.00004895                0.08804741                0.00560859
               9.51027956                5.13175649               76.23247950                0.72158738               -0.03851902               -0.03850202                0.12833129               -0.00007067                0.10544569                0.00342001
              10.51001326                5.13015994               76.08831253                0.72119818               -0.01473139               -0.01468179                0.04900932               -0.00008852                0.11463200                0.00158650
              11.50998494                5.12855844               75.94419020                0.72107934                0.00906972                0.00912594               -0.03032531               -0.00009631                0.11555352               -0.00014917
              12.51019466                5.12695209               75.80003938                0.72121708                0.03287330                0.03293776               -0.10966936               -0.00009204                0.10819647               -0.00201106
              13.51064240                5.12534099               75.65578716                0.72162519                0.05667263                0.05676712               -0.18902200               -0.00007572                0.09262118               -0.00419932
              14.51132811                5.12372522               75.51136161                0.72230530                0.08046544                0.08061864               -0.26838029               -0.00005039                0.06897651               -0.00690567
              15.51225171                5.12210482               75.36669280                0.72326484                0.10425328                0.10447995               -0.34773509               -0.00002345                0.03750868               -0.01030370
              16.51341318                5.12047976               75.22171370                0.86202457                0.11614635                0.12831989               -0.42706731                0.00023503                0.01722855               -0.01452005
               6.51396418                6.13541811               76.66338049                0.86207382               -0.09742120               -0.10956195                0.36460325               -0.00023131                0.01465063                0.01660290
               7.51298997                6.13407489               76.51830798                0.72326787               -0.08555191               -0.08572520                0.28528453                0.00001913                0.04842085                0.01030294
               8.51225314                6.13272699               76.37383103                0.72224750               -0.06181013               -0.06184934                0.20602391               -0.00001076                0.09107315                0.00666007
               9.51175376                6.13137390               76.22955118                0.72158828               -0.03804619               -0.03800652                0.12672170               -0.00006958                0.10905992                0.00397547
              10.51149222                6.13001555               76.08539305                0.72119903               -0.01425280               -0.01419316                0.04739702               -0.00011140                0.11851485                0.00184196
              11.51146871                6.12865213               75.94128090                0.72107900                0.00955411                0.00961008               -0.03194095               -0.00012170                0.11941135               -0.00010408
              12.51168330                6.12728390               75.79713883                0.72122079                0.03336275                0.03341890               -0.11128947               -0.00010313                0.11175880               -0.00217875
              13.51213596                6.12591109               75.65289127                0.72162744                0.05716622                0.05724517               -0.19064672               -0.00006038                0.09562470               -0.00469413
              14.51282662                6.12453384               75.50846369                0.72230752                0.08095992                0.08109766               -0.27000871               -0.00000958                0.07116543               -0.00799067
              15.51375516                6.12315206               75.36378365                0.72326863                0.10474423                0.10496956               -0.34936634                0.00001687                0.03866571               -0.01242013
              16.51492151                6.12176541               75.21878228                0.86202593                0.11663468                0.12882230               -0.42870148                0.00025777                0.01781344               -0.01826458
               6.51518605                7.13432478               76.66046003                0.86207152               -0.09693498               -0.10912723                0.36299152               -0.00020317                0.01547543                0.01858084
               7.51421670                7.13322008               76.51535589                0.72327084               -0.08508158               -0.08522378                0.28366896                0.00006818                0.05080417                0.01066587
               8.51348442                7.13211104               76.37087888                0.72224978               -0.06135440               -0.06132246                0.20440966                0.00001008                0.09556767                0.00663529
               9.51298961                7.13099636               76.22661001                0.72159243               -0.03758050               -0.03750037                0.12510818               -0.00009202                0.11439534                0.00389235
              10.51273281                7.12987607               76.08246902                0.72120422               -0.01377273               -0.01370594                0.04578294               -0.00014060                0.12423925                0.00180669
              11.51271415                7.12875064               75.93837602                0.72108411                0.01004144                0.01009067               -0.03355622               -0.00014474                0.12513926               -0.00005894
              12.51293363                7.12762047               75.79425156                0.72122202                0.03385503                0.03389438               -0.11290727               -0.00011578                0.11713378               -0.00205888
              13.51339126                7.12648589               75.65001649                0.72163223                0.05766556                0.05771120               -0.19226657               -0.00005533                0.10025781               -0.00456718
              14.51408695                7.12534717               75.50559208                0.72230978                0.08146119                0.08155941               -0.27163055                0.00002655                0.07461934               -0.00806956
              15.51502048                7.12420421               75.36090135                0.72327000                0.10523465                0.10545757               -0.35099071                0.00006649                0.04052187               -0.01319902
              16.51619164                7.12305620               75.21587162                0.86202689                0.11711594                0.12935763               -0.43032900                0.00029138                0.01876584               -0.02053269
               6.51616952                8.13323556               76.65750511                0.86207250               -0.09644551               -0.10877263                0.36137202               -0.00015169                0.01671324                0.01825790
               7.51520506                8.13237041               76.51236368                0.72326653               -0.08462285               -0.08465877                0.28204467                0.00009623                0.05431214                0.00884030
               8.51447706                8.13150054               76.36789520                0.72225378               -0.06090845               -0.06077866                0.20278919               -0.00004331                0.10206193                0.00532306
               9.51398690                8.13062389               76.22364912                0.72159657               -0.03709719               -0.03701504                0.12349013               -0.00014139                0.12191050                0.00311413
              10.51373512                8.12974143               76.07953746                0.72121320               -0.01327393               -0.01322854                0.04416736               -0.00016166                0.13215907                0.00145542
              11.51372142                8.12885394               75.93547576                0.72109444                0.01053066                0.01056903               -0.03517103               -0.00014863                0.13306051               -0.00001481
              12.51394573                8.12796179               75.79138106                0.72123408                0.03433668                0.03437320               -0.11452154               -0.00012192                0.12468730               -0.00160453
              13.51440815                8.12706531               75.64717034                0.72163750                0.05815514                0.05818228               -0.19388082               -0.00006759                0.10697436               -0.00366467
              14.51510883                8.12616503               75.50275935                0.72231525                0.08196559                0.08200499               -0.27324505                0.00002947                0.07981656               -0.00672146
              15.51604746                8.12526121               75.35806299                0.72327144                0.10572598                0.10591950               -0.35260625                0.00011808                0.04340404               -0.01175854
              16.51722335                8.12435256               75.21300078                0.86202593                0.11758920                0.12995879               -0.43194860                0.00034710                0.02028672               -0.02027698
               6.51691331                9.13214933               76.65448890                0.86207204               -0.09596663               -0.10858258                0.35973861               -0.00017622                0.01846125                0.01347996
               7.51595365                9.13152690               76.50930545                0.72326796               -0.08416225               -0.08398298                0.28040586               -0.00000929                0.05963292                0.00450242
               8.51523007                9.13089547               76.36486679                0.72226032               -0.06038799               -0.06034193                0.20115946               -0.00012580                0.11152447                0.00295409
               9.51474589                9.13025606               76.22066190                0.72160798               -0.03652733               -0.03655932                0.12186659               -0.00015565                0.13211651                0.00173434
              10.51449952                9.12961150               76.07659543                0.72122577               -0.01275301               -0.01276039                0.04254886               -0.00012035                0.14261242                0.00082023
              11.51449083                9.12896202               75.93258029                0.72110421                0.01101515                0.01104993               -0.03678521               -0.00010328                0.14350075                0.00001120
              12.51471983                9.12830793               75.78853093                0.72124495                0.03479178                0.03486355               -0.11613147               -0.00008926                0.13482854               -0.00086940
              13.51518666                9.12764954               75.64436118                0.72164986                0.05859051                0.05867596               -0.19548698               -0.00007213                0.11641305               -0.00203893
              14.51589164                9.12698727               75.49998184                0.72232278                0.08243217                0.08248983               -0.27484849               -0.00000310                0.08772793               -0.00385562
              15.51683531                9.12632260               75.35529625                0.72327620                0.10621254                0.10632366               -0.35420833                0.00010727                0.04809112               -0.00711598
              16.51801589                9.12565538               75.21020162                0.86202885                0.11805798                0.13068673               -0.43355499                0.00034849                0.02279432               -0.01477868
               6.51741084               10.13106391               76.65134938                0.93103524               -0.09521117               -0.10854160                0.35808374                0.01243733                0.02456532                0.01176285
               7.51645873               10.13069075               76.50615737                0.86163639               -0.08327262               -0.08361490                0.27874941                0.01199798                0.06950715                0.00343555
               8.51574539               10.13029370               76.36178617                0.86113250               -0.05954907               -0.06017734                0.19951709                0.01163008                0.12488743                0.00280739
               9.51526775               10.12989271               76.21764331                0.86080814               -0.03593240               -0.03633491                0.12023449                0.01181268                0.14526634                0.00165311
              10.51502674               10.12948622               76.07364057                0.86061895               -0.01224160               -0.01252789                0.04092588                0.01183400                0.15584084                0.00068988
              11.51502292               10.12907494               75.92968948                0.86055908                0.01148429                0.01129190               -0.03839898                0.01185095                0.15669633               -0.00022197
              12.51525643               10.12865906               75.78570358                0.86062913                0.03522232                0.03511237               -0.11773634                0.01185508                0.14788734               -0.00117246
              13.51572737               10.12823883               75.64159551                0.86082990                0.05896394                0.05892942               -0.19708239                0.01185865                0.12916810               -0.00228329
              14.51643571               10.12781482               75.49727390                0.86116477                0.08270684                0.08275484               -0.27643527                0.01185005                0.09986076               -0.00377277
              15.51738150               10.12738769               75.35263784                0.86164067                0.10645311                0.10650843               -0.35578810                0.01219330                0.05755113               -0.00607039
              16.51856477               10.12696630               75.20754767                0.93101612                0.11832680                0.13109165               -0.43513287                0.01274936                0.02998994               -0.01289792
               6.64720565                0.14490063               77.68445818                0.93099644               -0.09596195               -0.10821520                0.35881458               -0.01229303                0.02034730               -0.00508259
               7.64624603                0.14213818               77.53869937                0.86159349               -0.08457343               -0.08446415                0.28275569               -0.01161599                0.04810990               -0.00476233
               8.64551418                0.13938445               77.39341359                0.86112273               -0.06184587               -0.06183455                0.20674378               -0.01130288                0.08643450               -0.00179172
               9.64500912                0.13662651               77.24835858                0.86080442               -0.03914444               -0.03899446                0.13072535               -0.01138327                0.10686660               -0.00096348
              10.64473129                0.13386442               77.10343819                0.86061889               -0.01640054               -0.01618007                0.05470171               -0.01139399                0.11756949               -0.00037097
              11.64468110                0.13109760               76.95857345                0.86055955                0.00636782                0.00664111               -0.02132754               -0.01140346                0.11954595                0.00010391
              12.64485865                0.12832592               76.81368832                0.86062620                0.02914314                0.02946283               -0.09736341               -0.01140392                0.11299856                0.00053521
              13.64526397                0.12554923               76.66870789                0.86081966                0.05191478                0.05228196               -0.17340785               -0.01140634                0.09797529                0.00096557
              14.64589695                0.12276700               76.52355706                0.86114580                0.07468557                0.07511994               -0.24946123               -0.01138266                0.07439741                0.00145426
              15.64675768                0.11997894               76.37815937                0.86160605                0.09742523                0.09784744               -0.32552203               -0.01167622                0.04167058                0.00205064
              16.64784545                0.11717676               76.23242783                0.93099237                0.10877729                0.12153277               -0.40159056               -0.01169912                0.02031394                0.00401259
               6.64984517                1.14381847               77.68158656                0.86196940               -0.09572107               -0.10778302                0.35729534               -0.00029020                0.01632260               -0.00361491
               7.64888796                1.14129353               77.53580660                0.72313780               -0.08440921               -0.08431178                0.28123261               -0.00006406                0.04541951               -0.00436932
               8.64815699                1.13876610               77.39052655                0.72220076               -0.06163325               -0.06155110                0.20521902                0.00001371                0.08400553               -0.00104188
               9.64765530                1.13623656               77.24545568                0.72158202               -0.03875892               -0.03875031                0.12919284                0.00005450                0.10321767               -0.00018685
              10.64738181                1.13370262               77.10051689                0.72121995               -0.01594891               -0.01594219                0.05316083                0.00002973                0.11370704               -0.00000786
              11.64733632                1.13116401               76.95563239                0.72110340                0.00684938                0.00687320               -0.02287710                0.00001491                0.11556208               -0.00011319
              12.64751880                1.12862055               76.81072684                0.72123356                0.02965231                0.02969111               -0.09892161                0.00000484                0.10894923               -0.00033675
              13.64792936                1.12607205               76.66572576                0.72161078                0.05247334                0.05250970               -0.17497517               -0.00000513                0.09390790               -0.00056922
              14.64856826                1.12351820               76.52055462                0.72224459                0.07533350                0.07533602               -0.25103775               -0.00007392                0.07036127               -0.00067695
              15.64943603                1.12095741               76.37513743                0.72314389                0.09811872                0.09818717               -0.32710776               -0.00009624                0.03829638               -0.00039901
              16.65053064                1.11839209               76.22939944                0.86194080                0.10946037                0.12155111               -0.40317989                0.00025417                0.01756224                0.00120846
               6.65224973                2.14274497               77.67865158                0.86194572               -0.09526052               -0.10704537                0.35577490               -0.00031930                0.01318930               -0.00230416
               7.65129712                2.14045194               77.53284931                0.72308772               -0.08391503               -0.08397956                0.27971187               -0.00013495                0.04499445               -0.00285047
               8.65057143                2.13815343               77.38760153                0.72215505               -0.06117170               -0.06107255                0.20370852               -0.00006145                0.08488511               -0.00069737
               9.65007369                2.13585150               77.24253491                0.72155344               -0.03834922               -0.03827490                0.12767396                0.00000846                0.10211166                0.00016029
              10.64980444                2.13354557               77.09758903                0.72119974               -0.01551091               -0.01547058                0.05162831                0.00001738                0.11177974                0.00017610
              11.64976347                2.13123506               76.95269272                0.72108799                0.00731333                0.00734034               -0.02442441                0.00000155                0.11327311               -0.00020864
              12.64995071                2.12891974               76.80777323                0.72121457                0.03013721                0.03015662               -0.10048421               -0.00001932                0.10651307               -0.00078553
              13.65036622                2.12659942               76.66275781                0.72158379                0.05296956                0.05297991               -0.17655314               -0.00005932                0.09151468               -0.00140643
              14.65101010                2.12427372               76.51757401                0.72220093                0.07578234                0.07582235               -0.25263086               -0.00012405                0.06834447               -0.00188886
              15.65188186                2.12194268               76.37215044                0.72307749                0.09855416                0.09877585               -0.32871262               -0.00015691                0.03723331               -0.00189338
              16.65298118                2.11960778               76.22641920                0.86189715                0.10993222                0.12175394               -0.40478532                0.00012943                0.01713594               -0.00101567
               6.65442484                3.14167757               77.67571420                0.86194553               -0.09480354               -0.10648228                0.35424791               -0.00027642                0.01355519                0.00282153
               7.65347680                3.13961394               77.52991480                0.72308377               -0.08343207               -0.08358093                0.27818807               -0.00010289                0.04529046                0.00197326
               8.65275620                3.13754465               77.38466890                0.72214993               -0.06067431               -0.06067188                0.20218432               -0.00010536                0.08520078                0.00149312
               9.65226332                3.13547107               77.23960599                0.72154615               -0.03788000               -0.03782476                0.12614535               -0.00005031                0.10220728                0.00118884
              10.65199860                3.13339321               77.09465800                0.72119211               -0.01505677               -0.01500598                0.05009053               -0.00002980                0.11138036                0.00060679
              11.65196218                3.13131082               76.94975589                0.72107985                0.00777273                0.00781093               -0.02597302               -0.00003544                0.11256315               -0.00021900
              12.65215405                3.12922368               76.80482847                0.72120560                0.03060105                0.03063379               -0.10204473               -0.00005640                0.10563068               -0.00121908
              13.65257420                3.12713164               76.65980420                0.72157948                0.05342349                0.05347082               -0.17812472               -0.00008947                0.09059617               -0.00233235
              14.65322252                3.12503464               76.51461216                0.72219987                0.07623146                0.07634318               -0.25421183               -0.00012368                0.06757712               -0.00347101
              15.65409883                3.12293293               76.36918313                0.72307586                0.09902521                0.09925673               -0.33030041               -0.00010193                0.03679392               -0.00450797
              16.65520303                3.12082717               76.22345058                0.86189787                0.11041942                0.12215095               -0.40637350                0.00017975                0.01688342               -0.00535945
               6.65637145                4.14061532               77.67279029                0.86194401               -0.09434671               -0.10598562                0.35271790               -0.00025342                0.01374323                0.00834583
               7.65542798                4.13878032               77.52698220                0.72308301               -0.08296254               -0.08313344                0.27665865               -0.00006215                0.04585585                0.00553629
               8.65471220                4.13693999               77.38173555                0.72214877               -0.06019266               -0.06024486                0.20065361               -0.00008755                0.08620939                0.00381422
               9.65422413                4.13509501               77.23667323                0.72154421               -0.03740504               -0.03738156                0.12461026               -0.00007471                0.10325694                0.00241038
              10.65396410                4.13324545               77.09172574                0.72118789               -0.01459203               -0.01454492                0.04854917               -0.00006796                0.11232651                0.00113312
              11.65393229                4.13139128               76.94682256                0.72107662                0.00823280                0.00828103               -0.02752249               -0.00007211                0.11332242               -0.00019241
              12.65412875                4.12953242               76.80189230                0.72120295                0.03105875                0.03111178               -0.10360284               -0.00008159                0.10619287               -0.00166096
              13.65455346                4.12766884               76.65686341                0.72157539                0.05387946                0.05396006               -0.17969128               -0.00009155                0.09097225               -0.00334032
              14.65520634                4.12580058               76.51166518                0.72219854                0.07669189                0.07683333               -0.25578566               -0.00008996                0.06779585               -0.00527859
              15.65608730                4.12392782               76.36622878                0.72307822                0.09949817                0.09972098               -0.33187826               -0.00006046                0.03689195               -0.00750780
              16.65719631                4.12205080               76.22048803                0.86189908                0.11090053                0.12258845               -0.40795178                0.00020491                0.01691991               -0.01004375
               6.65808977                5.13955785               77.66987241                0.86194486               -0.09388757               -0.10551662                0.35118426               -0.00023883                0.01410128                0.01304090
               7.65715089                5.13795127               77.52404755                0.72308146               -0.08250038               -0.08267384                0.27512412               -0.00002488                0.04686530                0.00845856
               8.65643976                5.13633975               77.37879755                0.72214721               -0.05972686               -0.05979054                0.19911708               -0.00005301                0.08810247                0.00562752
               9.65595636                5.13472343               77.23373654                0.72154208               -0.03693985               -0.03692396                0.12307084               -0.00007495                0.10547478                0.00343399
              10.65570096                5.13310231               77.08879261                0.72118819               -0.01412898               -0.01408159                0.04700530               -0.00009249                0.11464719                0.00159397
              11.65567378                5.13147644               76.94389321                0.72107270                0.00869495                0.00874869               -0.02907225               -0.00010004                0.11555882               -0.00014945
              12.65587486                5.12984592               76.79896522                0.72120444                0.03152160                0.03158280               -0.10515860               -0.00009534                0.10819141               -0.00201963
              13.65630421                5.12821085               76.65393574                0.72157771                0.05434398                0.05443374               -0.18125338               -0.00007841                0.09260582               -0.00421651
              14.65696174                5.12657131               76.50873288                0.72219846                0.07715970                0.07730602               -0.25735368               -0.00005270                0.06895574               -0.00692935
              15.65784740                5.12492735               76.36328680                0.72307758                0.09997056                0.10018753               -0.33344984               -0.00002478                0.03749390               -0.01033279
              16.65896115                5.12327894               76.21753066                0.86189935                0.11137519                0.12304854               -0.40952466                0.00022433                0.01721574               -0.01455321
               6.65957983                6.13850499               77.66695181                0.86194186               -0.09342489               -0.10506698                0.34964517               -0.00022266                0.01465733                0.01663154
               7.65864558                6.13712684               77.52110238                0.72308071               -0.08204281               -0.08220910                0.27358313                0.00001540                0.04846386                0.01032529
               8.65793898                6.13574418               77.37584907                0.72214421               -0.05927546               -0.05931324                0.19757587               -0.00001602                0.09112975                0.00667868
               9.65746008                6.13435653               77.23079246                0.72154172               -0.03648662               -0.03644908                0.12152826               -0.00007366                0.10908910                0.00398906
              10.65720924                6.13296382               77.08585735                0.72118591               -0.01366987               -0.01361321                0.04545961               -0.00011427                0.11852912                0.00184907
              11.65718668                6.13156625               76.94096809                0.72107514                0.00915959                0.00921299               -0.03062179               -0.00012395                0.11941472               -0.00010442
              12.65739244                6.13016407               76.79604880                0.72120498                0.03199110                0.03204437               -0.10671280               -0.00010539                0.11175131               -0.00218784
              13.65782650                6.12875751               76.65102394                0.72157799                0.05481738                0.05489239               -0.18281198               -0.00006342                0.09560755               -0.00471097
              14.65848878                6.12734670               76.50581901                0.72220103                0.07763397                0.07776562               -0.25891565               -0.00001326                0.07114367               -0.00801445
              15.65937918                6.12593157               76.36036168                0.72308012                0.10044177                0.10065737               -0.33501535                0.00001402                0.03865043               -0.01245070
              16.66049762                6.12451177               76.21458324                0.86190037                0.11184404                0.12353048               -0.41109324                0.00024633                0.01780048               -0.01830133
               6.66084160                7.13745651               77.66401556                0.86194271               -0.09295907               -0.10465006                0.34810068               -0.00019556                0.01548288                0.01861210
               7.65991201                7.13630709               77.51813446                0.72307979               -0.08159224               -0.08172850                0.27203487                0.00006312                0.05085023                0.01068741
               8.65920976                7.13515349               77.37288111                0.72214742               -0.05883877               -0.05880837                0.19602906                0.00000523                0.09562966                0.00665295
               9.65873524                7.13399445               77.22783548                0.72154584               -0.03604030               -0.03596399                0.11998171               -0.00009374                0.11442887                0.00390527
              10.65848895                7.13283004               77.08291751                0.72118954               -0.01320952               -0.01314617                0.04391237               -0.00014117                0.12425667                0.00181353
              11.65847105                7.13166070               76.93804738                0.72108046                0.00962728                0.00967382               -0.03217086               -0.00014520                0.12514459               -0.00005919
              12.65868150                7.13048680               76.79314568                0.72121091                0.03246329                0.03250054               -0.10826467               -0.00011680                0.11712795               -0.00206693
              13.65912031                7.12930869               76.64813329                0.72158144                0.05529623                0.05533981               -0.18436673               -0.00005788                0.10024286               -0.00458300
              14.65978742                7.12812662               76.50293152                0.72220182                0.07811500                0.07820899               -0.26047259                0.00002219                0.07459927               -0.00809284
              15.66068261                7.12694050               76.35746347                0.72308260                0.10091243                0.10112588               -0.33657429                0.00006229                0.04050793               -0.01323033
              16.66180567                7.12574955               76.21165663                0.86190029                0.11230587                0.12404431               -0.41265496                0.00027904                0.01875452               -0.02057363
               6.66187477                8.13641199               77.66104478                0.86194321               -0.09248959               -0.10430993                0.34654740               -0.00014593                0.01672232                0.01828701
               7.66094987                8.13549227               77.51512635                0.72308234               -0.08115239               -0.08118662                0.27047741                0.00009075                0.05436379                0.00885759
               8.66025172                8.13456801               77.36988156                0.72215058               -0.05841133               -0.05828693                0.19447526               -0.00004458                0.10213308                0.00533824
               9.65978165                8.13363725               77.22485875                0.72155151               -0.03557716               -0.03549876                0.11843080               -0.00013949                0.12195253                0.00312483
              10.65954018                8.13270090               77.07997013                0.72119886               -0.01273164               -0.01268834                0.04236324               -0.00015940                0.13218397                0.00146132
              11.65952701                8.13175973               76.93513131                0.72108942                0.01009625                0.01013262               -0.03371941               -0.00014710                0.13307255               -0.00001487
              12.65974210                8.13081409               76.79025937                0.72121683                0.03292546                0.03295982               -0.10981290               -0.00012124                0.12468750               -0.00161061
              13.66018552                8.12986431               76.64527132                0.72158950                0.05576607                0.05579178               -0.18591532               -0.00006810                0.10696494               -0.00367745
              14.66085742                8.12891088               76.50008297                0.72220665                0.07859897                0.07863674               -0.26202203                0.00002615                0.07980179               -0.00674122
              15.66175750                8.12795409               76.35460927                0.72308503                0.10138396                0.10156935               -0.33812507                0.00011230                0.04339287               -0.01178588
              16.66288510                8.12699266               76.20876990                0.86190186                0.11276013                0.12462117               -0.41420895                0.00033256                0.02027609               -0.02031650
               6.66267811                9.13537032               77.65801256                0.86194194               -0.09203045               -0.10412810                0.34498178               -0.00016904                0.01847480                0.01350090
               7.66175780                9.13468336               77.51205207                0.72308311               -0.08071077               -0.08053876                0.26890660               -0.00001004                0.05969513                0.00451058
               8.66106389                9.13398775               77.36683720                0.72215679               -0.05791237               -0.05786817                0.19291248               -0.00012269                0.11161071                0.00296310
               9.66059956                9.13328448               77.22185562                0.72156164               -0.03503063               -0.03506174                0.11687397               -0.00015161                0.13217185                0.00174070
              10.66036328                9.13257628               77.07701224                0.72121413               -0.01223190               -0.01223943                0.04081105               -0.00011749                0.14265016                0.00082382
              11.66035492                9.13186335               76.93222003                0.72110319                0.01056071                0.01059379               -0.03526709               -0.00010100                0.14352491                0.00001128
              12.66057449                9.13114600               76.78739347                0.72123117                0.03336172                0.03343014               -0.11135713               -0.00008748                0.13484092               -0.00087348
              13.66102215                9.13042453               76.64244644                0.72160066                0.05618366                0.05626527               -0.18745570               -0.00007050                0.11641514               -0.00204660
              14.66169817                9.12969936               76.49728975                0.72221511                0.07904639                0.07910168               -0.26355934               -0.00000367                0.08772345               -0.00386727
              15.66260308                9.12897188               76.35182685                0.72308911                0.10185033                0.10195692               -0.33966093                0.00010254                0.04808705               -0.00713273
              16.66373517                9.12824197               76.20595502                0.86190190                0.11320938                0.12531914               -0.41574876                0.00033372                0.02278801               -0.01480551
               6.66324530               10.13432942               77.65485685                0.93097062               -0.09130639               -0.10408918                0.34339602                0.01192683                0.02458687                0.01178250
               7.66233224               10.13388150               77.50888777                0.86154393               -0.07985765               -0.08018603                0.26731904                0.01150452                0.06958517                0.00344137
               8.66164815               10.13341065               77.36374048                0.86108018               -0.05710751               -0.05771043                0.19133764                0.01115130                0.12499563                0.00281451
               9.66119009               10.13293601               77.21882104                0.86078576               -0.03445963               -0.03484648                0.11530825                0.01132643                0.14534175                0.00165815
              10.66095896               10.13245611               77.07404148                0.86061147               -0.01174091               -0.01201654                0.03925462                0.01134733                0.15589833                0.00069254
              11.66095527               10.13197161               76.92931341                0.86055827                0.01101077                0.01082578               -0.03681431                0.01136402                0.15673965               -0.00022211
              12.66117917               10.13148269               76.78455039                0.86062164                0.03377423                0.03366878               -0.11289593                0.01136814                0.14791888               -0.00117668
              13.66163075               10.13098961               76.63966514                0.86080587                0.05654120                0.05650841               -0.18898575                0.01137156                0.12918993               -0.00229017
              14.66231000               10.13049292               76.49456628                0.86111090                0.07930935                0.07935573               -0.26508057                0.01136334                0.09987489               -0.00378190
              15.66321694               10.12999322               76.34915297                0.86154599                0.10208059                0.10213393               -0.34117479                0.01169243                0.05756212               -0.00608370
              16.66435161               10.12949904               76.20328562                0.93095218                0.11346663                0.12570723               -0.41726113                0.01222516                0.02999630               -0.01292010
               6.79354834                0.14772901               78.68796946                0.93093117               -0.09184690               -0.10357467                0.34342715               -0.01176602                0.02036843               -0.00508392
               7.79262987                0.14499095               78.54146635                0.86150009               -0.08094683               -0.08084165                0.27062970               -0.01111811                0.04816232               -0.00476063
               8.79192940                0.14226123               78.39543675                0.86107071               -0.05919418               -0.05918298                0.19787813               -0.01081879                0.08651341               -0.00178507
               9.79144599                0.13952747               78.24963785                0.86078137               -0.03746667               -0.03732312                0.12512174               -0.01089610                0.10694434               -0.00095825
              10.79118007                0.13678972               78.10397351                0.86061166               -0.01569844               -0.01548765                0.05236000               -0.01090641                0.11764457               -0.00036772
              11.79113202                0.13404745               77.95836478                0.86055711                0.00609332                0.00635408               -0.02040651               -0.01091541                0.11961603                0.00010484
              12.79130194                0.13130054               77.81273559                0.86061893                0.02789162                0.02819629               -0.09317914               -0.01091571                0.11306010                0.00053403
              13.79168985                0.12854883               77.66701101                0.86079627                0.04968597                0.05003614               -0.16596009               -0.01091794                0.09802522                0.00096231
              14.79229566                0.12579183               77.52111596                0.86109058                0.07147939                0.07189420               -0.23874972               -0.01089499                0.07443458                0.00144875
              15.79311944                0.12302927               77.37497396                0.86150967                0.09324334                0.09364685               -0.31154791               -0.01117550                0.04169321                0.00204238
              16.79416052                0.12025321               77.22849804                0.93092817                0.10410838                0.11631640               -0.38435394               -0.01119738                0.02032383                0.00400737
               6.79616874                1.14669326               78.68508297                0.86184179               -0.09161609               -0.10316117                0.34197298               -0.00027784                0.01633474               -0.00360722
               7.79525258                1.14418253               78.53855868                0.72295483               -0.08078926               -0.08069591                0.26917211               -0.00006240                0.04546370               -0.00435877
               8.79455296                1.14166940               78.39253479                0.72209818               -0.05899008               -0.05891193                0.19641923                0.00001036                0.08407430               -0.00102258
               9.79407278                1.13915424               78.24671995                0.72153653               -0.03709716               -0.03708961                0.12365532                0.00004852                0.10328210               -0.00017123
              10.79381101                1.13663485               78.10103714                0.72120653               -0.01526602               -0.01526016                0.05088567                0.00002446                0.11376834                0.00000125
              11.79376746                1.13411099               77.95540856                0.72110031                0.00655393                0.00657612               -0.02188908                0.00001018                0.11561815               -0.00011138
              12.79394209                1.13158250               77.80975887                0.72121868                0.02837826                0.02841481               -0.09467000                0.00000100                0.10899644               -0.00034233
              13.79433502                1.12904919               77.66401355                0.72156277                0.05021969                0.05025416               -0.16745951               -0.00000786                0.09394300               -0.00058207
              14.79494649                1.12651078               77.51809809                0.72213824                0.07209873                0.07210111               -0.24025824               -0.00007263                0.07038288               -0.00069692
              15.79577700                1.12396574               77.37193650                0.72296267                0.09390648                0.09397205               -0.31306499               -0.00009280                0.03830549               -0.00042443
              16.79682461                1.12141637               77.22545408                0.86181639                0.10476166                0.11633400               -0.38587420                0.00024303                0.01756087                0.00118619
               6.79856425                2.14566579               78.68213312                0.86182073               -0.09117589               -0.10245564                0.34051903               -0.00030605                0.01319650               -0.00229097
               7.79765249                2.14337703               78.53558652                0.72290617               -0.08031698               -0.08037840                0.26771824               -0.00013172                0.04503896               -0.00283254
               8.79695791                2.14108299               78.38959499                0.72205593               -0.05854889               -0.05845440                0.19497540               -0.00006413                0.08495019               -0.00067211
               9.79648151                2.13878567               78.24378433                0.72151030               -0.03670526               -0.03663487                0.12220243                0.00000152                0.10216043                0.00018154
              10.79622380                2.13648452               78.09809428                0.72118535               -0.01484694               -0.01480903                0.04941962                0.00000933                0.11182225                0.00018842
              11.79618457                2.13417898               77.95245375                0.72108445                0.00699796                0.00702308               -0.02336971               -0.00000608                0.11330961               -0.00020665
              12.79636376                2.13186883               77.80678996                0.72120102                0.02884240                0.02886031               -0.09616561               -0.00002537                0.10654032               -0.00079451
              13.79676142                2.12955391               77.66103016                0.72153786                0.05069471                0.05070424               -0.16896996               -0.00006233                0.09152983               -0.00142593
              14.79737765                2.12723386               77.51510189                0.72209925                0.07252855                0.07256671               -0.24178352               -0.00012245                0.06834794               -0.00191748
              15.79821199                2.12490871               77.36893380                0.72289758                0.09432348                0.09453558               -0.31460165               -0.00015205                0.03723165               -0.00192773
              16.79926412                2.12257989               77.22245812                0.86177717                0.10521347                0.11652838               -0.38741107                0.00012300                0.01712929               -0.00104617
               6.80074013                3.14464415               78.67918081                0.86181923               -0.09073912               -0.10191724                0.33905955               -0.00026553                0.01356294                0.00283841
               7.79983274                3.14257496               78.53263711                0.72290542               -0.07985522               -0.07999749                0.26626180               -0.00010196                0.04533340                0.00199401
               8.79914303                3.14050031               78.38664745                0.72205178               -0.05807316               -0.05807120                0.19351785               -0.00010732                0.08526008                0.00151361
               9.79867128                3.13842154               78.24084044                0.72150396               -0.03625648               -0.03620421                0.12074016               -0.00005597                0.10224586                0.00120545
              10.79841790                3.13633867               78.09514821                0.72117883               -0.01441268               -0.01436447                0.04794842               -0.00003722                0.11140967                0.00061641
              11.79838302                3.13425146               77.94950176                0.72107436                0.00743744                0.00747345               -0.02485176               -0.00004293                0.11258519               -0.00021837
              12.79856665                3.13215971               77.80382994                0.72119431                0.02928649                0.02931694               -0.09765917               -0.00006238                0.10564305               -0.00122826
              13.79896875                3.13006328               77.65806117                0.72153014                0.05112945                0.05117423               -0.17047490               -0.00009235                0.09059771               -0.00235075
              14.79958924                3.12796211               77.51212456                0.72209801                0.07295865                0.07306538               -0.24329755               -0.00012311                0.06756940               -0.00349606
              15.80042793                3.12585645               77.36595094                0.72289879                0.09477457                0.09499598               -0.31612205               -0.00010017                0.03678586               -0.00453685
              16.80148473                3.12374694               77.21947397                0.86177887                0.10568004                0.11690859               -0.38893257                0.00017079                0.01687380               -0.00538688
               6.80269731                4.14362744               78.67624193                0.86182087               -0.09030217               -0.10144182                0.33759595               -0.00024379                0.01375017                0.00836755
               7.80179429                4.14177708               78.52968955                0.72290370               -0.07940617               -0.07956946                0.26479890               -0.00006321                0.04589678                0.00555846
               8.80110918                4.13992157               78.38369913                0.72205204               -0.05761265               -0.05766254                0.19205326               -0.00009107                0.08626387                0.00383383
               9.80064203                4.13806159               78.23789266                0.72149905               -0.03580227               -0.03578012                0.11927156               -0.00008061                0.10328851                0.00242500
              10.80039314                4.13619723               78.09220086                0.72117572               -0.01396804               -0.01392329                0.04647374               -0.00007508                0.11234707                0.00114120
              11.80036267                4.13432845               77.94655327                0.72107317                0.00787768                0.00792339               -0.02633463               -0.00007907                0.11333413               -0.00019278
              12.80055069                4.13245517               77.80087851                0.72118794                0.02972474                0.02977464               -0.09915122               -0.00008735                0.10619483               -0.00167041
              13.80095717                4.13057740               77.65510504                0.72152953                0.05156617                0.05164280               -0.17197558               -0.00009518                0.09096472               -0.00335791
              14.80158202                4.12869516               77.50916219                0.72209565                0.07339956                0.07353473               -0.24480479               -0.00009165                0.06778116               -0.00530338
              15.80242516                4.12680863               77.36298115                0.72289814                0.09522759                0.09544055               -0.31763332               -0.00006092                0.03687932               -0.00753646
              16.80348657                4.12491806               77.21649596                0.86177714                0.10614093                0.11732728               -0.39044419                0.00019482                0.01690733               -0.01007295
               6.80443598                5.14261531               78.67330903                0.86182001               -0.08986270               -0.10099276                0.33612839               -0.00022973                0.01410820                0.01306756
               7.80353735                5.14098357               78.52673988                0.72290519               -0.07896416               -0.07912985                0.26333096               -0.00002770                0.04690537                0.00848247
               8.80285670                5.13934706               78.38074610                0.72204678               -0.05716758               -0.05722807                0.19058404               -0.00005833                0.08815465                0.00564763
               9.80239400                5.13770594               78.23494092                0.72149911               -0.03535764               -0.03534244                0.11779938               -0.00008123                0.10550256                0.00344879
              10.80214954                5.13606020               78.08925263                0.72117216               -0.01352488               -0.01347994                0.04499641               -0.00009905                0.11466231                0.00160142
              11.80212350                5.13440992               77.94360875                0.72107029                0.00832026                0.00837100               -0.02781791               -0.00010608                0.11556429               -0.00015037
              12.80231595                5.13275520               77.79793621                0.72118729                0.03016784                0.03022588               -0.10064155               -0.00010066                0.10818760               -0.00202926
              13.80272686                5.13109613               77.65216209                0.72152850                0.05201103                0.05209653               -0.17347166               -0.00008314                0.09259223               -0.00423398
              14.80335617                5.12943281               77.50621454                0.72209732                0.07384775                0.07398743               -0.24630642               -0.00005632                0.06893607               -0.00695465
              15.80420381                5.12776526               77.36002380                0.72289890                0.09568021                0.09588740               -0.31913882               -0.00002681                0.03747971               -0.01036379
              16.80526977                5.12609348               77.21352321                0.86177958                0.10659580                0.11776760               -0.39195075                0.00021342                0.01720348               -0.01458730
               6.80595619                6.14160759               78.67037340                0.86181873               -0.08942063               -0.10056289                0.33465795               -0.00021394                0.01466409                0.01666241
               7.80506198                6.14019448               78.52377964                0.72290122               -0.07852679               -0.07868585                0.26185850                0.00001096                0.04850455                0.01034987
               8.80438566                6.13877700               78.37778255                0.72204703               -0.05673590               -0.05677204                0.18911115               -0.00002262                0.09118303                0.00669923
               9.80392727                6.13735474               78.23198175                0.72149730               -0.03492426               -0.03488845                0.11632455               -0.00007940                0.10911637                0.00400376
              10.80368717                6.13592763               78.08630225                0.72117283               -0.01308571               -0.01303182                0.04351757               -0.00011904                0.11854201                0.00185643
              11.80366555                6.13449587               77.94066847                0.72107204                0.00876506                0.00881547               -0.02930130               -0.00012812                0.11941731               -0.00010539
              12.80386247                6.13305969               77.79500457                0.72119052                0.03061730                0.03066782               -0.10212954               -0.00010973                0.11174438               -0.00219716
              13.80427790                6.13161933               77.64923503                0.72153185                0.05246435                0.05253587               -0.17496442               -0.00006847                0.09559124               -0.00472912
              14.80491176                6.13017491               77.50328537                0.72209792                0.07430225                0.07442794               -0.24780354               -0.00001830                0.07112171               -0.00804027
              15.80576394                6.12872638               77.35708334                0.72290266                0.09613182                0.09633760               -0.32063894                0.00001058                0.03863439               -0.01248323
              16.80683439                6.12727341               77.21056042                0.86178060                0.10704511                0.11822918               -0.39345354                0.00023459                0.01778655               -0.01834026
               6.80725791                7.14060405               78.66742204                0.86181865               -0.08897541               -0.10016440                0.33318136               -0.00018799                0.01549000                0.01864347
               7.80636815                7.13940986               78.52079659                0.72290144               -0.07809610               -0.07822668                0.26037898                0.00005713                0.05089383                0.01070978
               8.80569598                7.13821162               78.37479946                0.72204895               -0.05631839               -0.05628952                0.18763273               -0.00000133                0.09568723                0.00667169
               9.80524178                7.13700817               78.22900964                0.72150035               -0.03449724               -0.03442454                0.11484531               -0.00009738                0.11445914                0.00391867
              10.80500604                7.13579957               78.08334727                0.72117871               -0.01264504               -0.01258504                0.04203738               -0.00014322                0.12427161                0.00182052
              11.80498888                7.13458623               77.93773260                0.72107862                0.00921256                0.00925665               -0.03078427               -0.00014695                0.12514806               -0.00005994
              12.80519029                7.13336856               77.79208626                0.72119678                0.03106922                0.03110450               -0.10361473               -0.00011927                0.11712093               -0.00207559
              13.80561027                7.13214685               77.64632915                0.72153481                0.05292299                0.05296438               -0.17645324               -0.00006175                0.10022664               -0.00459998
              14.80624875                7.13092136               77.50038263                0.72210061                0.07476305                0.07485288               -0.24929557                0.00001663                0.07457885               -0.00811788
              15.80710553                7.12969202               77.35416987                0.72290290                0.09658274                0.09678657               -0.32213306                0.00005721                0.04049331               -0.01326261
              16.80818040                7.12845807               77.20761852                0.86178022                0.10748763                0.11872140               -0.39495026                0.00026598                0.01874150               -0.02061321
               6.80834083                8.13960430               78.66443606                0.86181873               -0.08852646               -0.09983920                0.33169574               -0.00014057                0.01673168                0.01831629
               7.80745556                8.13862995               78.51777323                0.72290250               -0.07767548               -0.07770840                0.25888921                0.00008415                0.05441313                0.00887454
               8.80678732                8.13765121               78.37178470                0.72205243               -0.05590949               -0.05579064                0.18614617               -0.00004733                0.10219971                0.00535290
               9.80633737                8.13666625               78.22601774                0.72150912               -0.03405394               -0.03397939                0.11336138               -0.00013906                0.12199039                0.00313625
              10.80610624                8.13567593               78.08038473                0.72118833               -0.01218754               -0.01214689                0.04055468               -0.00015877                0.13220511                0.00146702
              11.80609362                8.13468100               77.93480138                0.72108676                0.00966151                0.00969585               -0.03226657               -0.00014704                0.13308172               -0.00001510
              12.80629947                8.13368178               77.78918480                0.72120548                0.03151163                0.03154431               -0.10509726               -0.00012166                0.12468601               -0.00161785
              13.80672386                8.13267862               77.64345203                0.72154313                0.05337278                0.05339724               -0.17793608               -0.00006972                0.10695354               -0.00369111
              14.80736693                8.13167197               77.49751891                0.72210767                0.07522646                0.07526250               -0.25077899                0.00002176                0.07978545               -0.00676163
              15.80822838                8.13066211               77.35130048                0.72290533                0.09703422                0.09721141               -0.32361818                0.00010585                0.04338247               -0.01181406
              16.80930761                8.12964784               77.20471660                0.86178058                0.10792251                0.11927389               -0.39643871                0.00031767                0.02026776               -0.02035442
               6.80920379                9.13860727               78.66138853                0.86181771               -0.08808735               -0.09966564                0.33019892               -0.00016246                0.01848560                0.01352232
               7.80832292                9.13785569               78.51468358                0.72290584               -0.07725281               -0.07708828                0.25738601               -0.00001108                0.05975268                0.00451914
               8.80765873                9.13709581               78.36872504                0.72205880               -0.05543165               -0.05538989                0.18465010               -0.00011971                0.11169217                0.00297218
               9.80721428                9.13632858               78.22299938                0.72151746               -0.03353092               -0.03356127                0.11187175               -0.00014808                0.13222302                0.00174768
              10.80698812                9.13555663               78.07741165                0.72119992               -0.01170952               -0.01171712                0.03906892               -0.00011614                0.14268331                0.00082720
              11.80698009                9.13478015               77.93187495                0.72110128                0.01010614                0.01013725               -0.03374786               -0.00010047                0.14354551                0.00001145
              12.80719024                9.13399944               77.78630378                0.72121794                0.03192943                0.03199461               -0.10657564               -0.00008721                0.13485039               -0.00087745
              13.80761868                9.13321479               77.64061207                0.72155340                0.05377248                0.05385068               -0.17941123               -0.00007026                0.11641495               -0.00205461
              14.80826569                9.13242661               77.49471065                0.72211306                0.07565472                0.07570779               -0.25225103               -0.00000532                0.08771712               -0.00387909
              15.80913178                9.13163624               77.34850304                0.72290862                0.09748082                0.09758291               -0.32508937                0.00009744                0.04808314               -0.00714954
              16.81021530                9.13084355               77.20188665                0.86178127                0.10835279                0.11994250               -0.39791330                0.00031938                0.02278390               -0.01483307
               6.80984074               10.13761098               78.65821730                0.93090907               -0.08739368               -0.09962867                0.32868082                0.01141512                0.02460644                0.01180128
               7.80896681               10.13708818               78.51150375                0.86145133               -0.07643548               -0.07675056                0.25586614                0.01101050                0.06965841                0.00344806
               8.80831203               10.13654342               78.36561292                0.86103389               -0.05466077               -0.05523899                0.18314277                0.01067203                0.12509782                0.00282260
               9.80787359               10.13599503               78.21994948                0.86076264               -0.03298439               -0.03335535                0.11037329                0.01083934                0.14541233                0.00166340
              10.80765235               10.13544159               78.07442566                0.86060638               -0.01123964               -0.01150374                0.03757918                0.01085883                0.15595113                0.00069521
              11.80764880               10.13488374               77.92895319                0.86055486                0.01053679                0.01035928               -0.03522863                0.01087456                0.15677934               -0.00022194
              12.80786308               10.13432167               77.78344566                0.86061287                0.03232399                0.03222302               -0.10804807                0.01087858                0.14794679               -0.00117944
              13.80829528               10.13375563               77.63781580                0.86077981                0.05411442                0.05408352               -0.18087571                0.01088222                0.12920802               -0.00229627
              14.80894537               10.13318613               77.49197229                0.86106065                0.07590622                0.07595118               -0.25370784                0.01087519                0.09988657               -0.00379118
              15.80981340               10.13261377               77.34581435                0.86145723                0.09770117                0.09775272               -0.32653900                0.01119066                0.05757240               -0.00609633
              16.81089939               10.13204669               77.19920245                0.93089152                0.10859909                0.12031434               -0.39936128                0.01170065                0.03000301               -0.01294293
               6.94061922                0.15057192               79.69132672                0.93087097               -0.08772367               -0.09892533                0.32800934               -0.01123814                0.02038790               -0.00508519
               7.93974199                0.14785831               79.54411196                0.86140995               -0.07731322               -0.07721205                0.25847944               -0.01061964                0.04821268               -0.00475872
               8.93907296                0.14515267               79.39737116                0.86101963               -0.05653743               -0.05652627                0.18899508               -0.01033398                0.08659065               -0.00177821
               9.93861124                0.14244314               79.25086102                0.86075925               -0.03578535               -0.03564817                0.11950603               -0.01040820                0.10702124               -0.00095308
              10.93835725                0.13972981               79.10448539                0.86060442               -0.01499448               -0.01479355                0.05001267               -0.01041824                0.11771910               -0.00036458
              11.93831135                0.13701215               78.95816532                0.86055460                0.00581873                0.00606687               -0.01948500               -0.01042672                0.11968621                0.00010577
              12.93847363                0.13429005               78.81182474                0.86061293                0.02663791                0.02692777               -0.08898823               -0.01042693                0.11312217                0.00053269
              13.93884411                0.13156339               78.66538868                0.86077048                0.04745315                0.04778647               -0.15849925               -0.01042872                0.09807591                0.00095870
              14.93942269                0.12883170               78.51878207                0.86103898                0.06826770                0.06866285               -0.22801938               -0.01040638                0.07447128                0.00144254
              15.94020946                0.12609470               78.37192841                0.86141862                0.08905410                0.08943880               -0.29754843               -0.01067386                0.04171474                0.00203583
              16.94120377                0.12334482               78.22474075                0.93086728                0.09943107                0.11109066               -0.36708577               -0.01069482                0.02033289                0.00400620
               6.94322045                1.14958267               79.68842602                0.86172082               -0.08750311               -0.09853068                0.32662133               -0.00026570                0.01634515               -0.00359937
               7.94234542                1.14708619               79.54119004                0.72277954               -0.07716216               -0.07707298                0.25708785               -0.00006118                0.04550620               -0.00434752
               8.94167720                1.14458740               79.39445494                0.72200173               -0.05634156               -0.05626749                0.18760186                0.00000664                0.08414196               -0.00100257
               9.94121858                1.14208666               79.24792878                0.72149077               -0.03543186               -0.03542530                0.11810597                0.00004190                0.10334623               -0.00015573
              10.94096857                1.13958187               79.10153461                0.72119450               -0.01458135               -0.01457641                0.04860502                0.00001833                0.11382985                0.00001019
              11.94092696                1.13707281               78.95519461                0.72109850                0.00625828                0.00627885               -0.02090029                0.00000474                0.11567495               -0.00010978
              12.94109373                1.13455933               78.80883344                0.72120433                0.02710188                0.02713641               -0.09041137               -0.00000374                0.10904485               -0.00034814
              13.94146900                1.13204126               78.66237657                0.72151724                0.04796185                0.04799467               -0.15993059               -0.00001117                0.09397936               -0.00059517
              14.94205297                1.12951833               78.51574946                0.72203748                0.06885809                0.06886036               -0.22945934               -0.00007160                0.07040545               -0.00071725
              15.94284616                1.12698909               78.36887613                0.72278413                0.08968648                0.08974926               -0.29899650               -0.00008951                0.03831625               -0.00044903
              16.94384670                1.12445573               78.22168196                0.86169790                0.10005419                0.11110745               -0.36853598                0.00023165                0.01756177                0.00116591
               6.94560686                2.14860131               79.68546196                0.86170288               -0.08708301               -0.09785724                0.32523369               -0.00029322                0.01320356               -0.00227665
               7.94473603                2.14631686               79.53820368                0.72273691               -0.07671158               -0.07677002                0.25570064               -0.00012910                0.04508267               -0.00281318
               8.94407262                2.14402732               79.39150104                0.72196119               -0.05592088               -0.05583073                0.18622442               -0.00006782                0.08501378               -0.00064609
               9.94361761                2.14173464               79.24497896                0.72146574               -0.03505800               -0.03499126                0.11671958               -0.00000708                0.10220892                0.00020257
              10.94337146                2.13943828               79.09857742                0.72117672               -0.01418117               -0.01414580                0.04720557               -0.00000055                0.11186539                0.00020066
              11.94333398                2.13713772               78.95222533                0.72108273                0.00668219                0.00670562               -0.02231405               -0.00001519                0.11334686               -0.00020514
              12.94350511                2.13483278               78.80584992                0.72118728                0.02754506                0.02756190               -0.09183982               -0.00003303                0.10656923               -0.00080396
              13.94388489                2.13252329               78.65937841                0.72149043                0.04841578                0.04842458               -0.16137377               -0.00006676                0.09154688               -0.00144610
              14.94447342                2.13020890               78.51273834                0.72200290                0.06926892                0.06930499               -0.23091634               -0.00012175                0.06835292               -0.00194680
              15.94527026                2.12788969               78.36585840                0.72272829                0.09008485                0.09028733               -0.30046414               -0.00014744                0.03723204               -0.00196248
              16.94627512                2.12556697               78.21867098                0.86166292                0.10048564                0.11129302               -0.37000358                0.00011641                0.01712527               -0.00107853
               6.94778349                3.14762552               79.68249539                0.86170147               -0.08666631               -0.09734318                0.32384141               -0.00025497                0.01356963                0.00285697
               7.94691682                3.14555079               79.53524004                0.72273488               -0.07627106               -0.07640661                0.25431097               -0.00010202                0.04537461                0.00201607
               8.94625807                3.14347079               79.38853926                0.72195813               -0.05546713               -0.05546501                0.18483359               -0.00011121                0.08531743                0.00153454
               9.94580748                3.14138684               79.24202079                0.72145904               -0.03462981               -0.03458016                0.11532401               -0.00006396                0.10228444                0.00122255
              10.94556547                3.13929896               79.09561697                0.72116918               -0.01376643               -0.01372139                0.04580108               -0.00004715                0.11143952                0.00062610
              11.94553215                3.13720693               78.94925885                0.72107708                0.00710193                0.00713570               -0.02372932               -0.00005259                0.11260780               -0.00021822
              12.94570751                3.13511057               78.80287529                0.72118040                0.02796911                0.02799811               -0.09326665               -0.00007022                0.10565705               -0.00123821
              13.94609154                3.13300975               78.65639470                0.72148641                0.04883122                0.04887356               -0.16281179               -0.00009728                0.09060099               -0.00237029
              14.94668413                3.13090443               78.50974620                0.72199812                0.06968020                0.06978156               -0.23236403               -0.00012414                0.06756347               -0.00352292
              15.94748514                3.12879484               78.36286069                0.72272793                0.09051606                0.09072736               -0.30191726               -0.00009917                0.03677877               -0.00456743
              16.94849445                3.12668159               78.21567193                0.86166288                0.10093151                0.11165643               -0.37145745                0.00016151                0.01686412               -0.00541620
               6.94975121                4.14665444               79.67954221                0.86170206               -0.08624965               -0.09688931                0.32244526               -0.00023437                0.01375638                0.00839073
               7.94888872                4.14478872               79.53227818                0.72273273               -0.07584284               -0.07599843                0.25291576               -0.00006590                0.04593573                0.00558196
               8.94823436                4.14291802               79.38557661                0.72195630               -0.05502777               -0.05507515                0.18343619               -0.00009706                0.08631661                0.00385472
               9.94778816                4.14104303               79.23905866                0.72145664               -0.03419638               -0.03417546                0.11392261               -0.00008872                0.10332012                0.00244111
              10.94755043                4.13916385               79.09265521                0.72116457               -0.01334210               -0.01330017                0.04439326               -0.00008462                0.11236754                0.00114954
              11.94752132                4.13728044               78.94629587                0.72107219                0.00752255                0.00756541               -0.02514563               -0.00008867                0.11334586               -0.00019336
              12.94770088                4.13539274               78.79990928                0.72117820                0.02838802                0.02843534               -0.09469199               -0.00009557                0.10619761               -0.00168104
              13.94808908                4.13350076               78.65342390                0.72148268                0.04924857                0.04932141               -0.16424592               -0.00010107                0.09095790               -0.00337755
              14.94868585                4.13160454               78.50676909                0.72200090                0.07010165                0.07023037               -0.23380508               -0.00009498                0.06776769               -0.00532984
              15.94949111                4.12970423               78.35987611                0.72272662                0.09094936                0.09115268               -0.30336307               -0.00006243                0.03686891               -0.00756771
              16.95050484                4.12780010               78.21267915                0.86166343                0.10137255                0.11205710               -0.37290444                0.00018411                0.01689695               -0.01010446
               6.95151024                5.14568774               79.67659497                0.86170060               -0.08583090               -0.09646083                0.32104629               -0.00022097                0.01411421                0.01309583
               7.95065193                5.14403083               79.52931417                0.72273343               -0.07542136               -0.07557946                0.25151625               -0.00003212                0.04694341                0.00850825
               8.95000182                5.14236929               79.38260923                0.72195580               -0.05460299               -0.05466088                0.18203492               -0.00006609                0.08820505                0.00566973
               9.94955987                5.14070333               79.23609253                0.72145653               -0.03377203               -0.03375784                0.11251784               -0.00008975                0.10552936                0.00346490
              10.94932637                5.13903295               79.08969254                0.72116233               -0.01291923               -0.01287691                0.04298304               -0.00010779                0.11467655                0.00160917
              11.94930149                5.13735823               78.94333685                0.72107232                0.00794512                0.00799297               -0.02656236               -0.00011489                0.11556859               -0.00015148
              12.94948528                5.13567927               78.79695239                0.72117505                0.02881158                0.02886660               -0.09611623               -0.00010897                0.10818267               -0.00203997
              13.94987772                5.13399618               78.65046631                0.72148326                0.04967396                0.04975549               -0.16567719               -0.00009006                0.09257951               -0.00425367
              14.95047876                5.13230903               78.50380676                0.72199832                0.07053018                0.07066344               -0.23524113               -0.00006144                0.06891760               -0.00698174
              15.95128832                5.13061789               78.35690402                0.72272981                0.09138224                0.09158000               -0.30480273               -0.00002955                0.03746562               -0.01039631
              16.95230640                5.12892273               78.20969164                0.86166302                0.10180768                0.11247787               -0.37434577                0.00020207                0.01719083               -0.01462323
               6.95306062                6.14472523               79.67364497                0.86169991               -0.08540933               -0.09605061                0.31964414               -0.00020579                0.01466994                0.01669414
               7.95220653                6.14327713               79.52633955                0.72273145               -0.07500422               -0.07515620                0.25011228                0.00000535                0.04854300                0.01037655
               8.95156053                6.14182480               79.37963129                0.72195565               -0.05419115               -0.05422600                0.18063004               -0.00003138                0.09123317                0.00672137
               9.95112270                6.14036788               79.23311895                0.72145820               -0.03335843               -0.03332459                0.11111001               -0.00008758                0.10914078                0.00401928
              10.95089337                6.13890631               79.08672770                0.72116379               -0.01250007               -0.01244903                0.04157107               -0.00012658                0.11855269                0.00186416
              11.95087270                6.13744030               78.94038206                0.72107037                0.00836970                0.00841765               -0.02797927               -0.00013560                0.11941781               -0.00010680
              12.95106076                6.13597007               78.79400621                0.72117809                0.02924100                0.02928918               -0.09753863               -0.00011706                0.11173562               -0.00220729
              13.95145752                6.13449587               78.64752465                0.72148728                0.05010754                0.05017570               -0.16710462               -0.00007567                0.09557482               -0.00474826
              14.95206291                6.13301780               78.50086294                0.72200060                0.07096507                0.07108489               -0.23667355               -0.00002517                0.07110112               -0.00806797
              15.95287682                6.13153583               78.35394890                0.72273200                0.09181415                0.09201050               -0.30623751                0.00000605                0.03861966               -0.01251722
              16.95389919                6.13004966               78.20671417                0.86166536                0.10223711                0.11291844               -0.37578095                0.00022242                0.01777369               -0.01837944
               6.95440231                7.14376672               79.67067919                0.86169986               -0.08498455               -0.09567039                0.31823547               -0.00018069                0.01549707                0.01867626
               7.95355247                7.14252770               79.52334204                0.72273187               -0.07459344               -0.07471834                0.24870126                0.00005029                0.05093475                0.01073435
               8.95291045                7.14128477               79.37663376                0.72195751               -0.05379298               -0.05376565                0.17921949               -0.00000969                0.09574034                0.00669176
               9.95247661                7.14003683               79.23013239                0.72145844               -0.03295108               -0.03288190                0.10969853               -0.00010353                0.11448541                0.00393278
              10.95225142                7.13878397               79.08375826                0.72116912               -0.01207965               -0.01202238                0.04015767               -0.00014854                0.12428271                0.00182769
              11.95223502                7.13752659               78.93743170                0.72107697                0.00879709                0.00883918               -0.02939608               -0.00015213                0.12514845               -0.00006111
              12.95242737                7.13626506               78.79107338                0.72118318                0.02967305                0.02970661               -0.09895828               -0.00012463                0.11711227               -0.00208489
              13.95282848                7.13499969               78.64460422                0.72149089                0.05054601                0.05058526               -0.16852736               -0.00006796                0.10020951               -0.00461775
              14.95343829                7.13373073               78.49794561                0.72200217                0.07140566                0.07149124               -0.23809979                0.00000909                0.07455783               -0.00814355
              15.95425659                7.13245810               78.35102081                0.72273242                0.09224570                0.09244010               -0.30766746                0.00005059                0.04047917               -0.01329618
              16.95528320                7.13118110               78.20375763                0.86166608                0.10266092                0.11338916               -0.37721418                0.00025229                0.01872974               -0.02065559
               6.95553505                8.14281182               79.66767869                0.86170143               -0.08455634               -0.09536040                0.31681870               -0.00013493                0.01673994                0.01834695
               7.95468949                8.14178277               79.52030413                0.72273370               -0.07419228               -0.07422395                0.24728033                0.00007737                0.05445860                0.00889320
               8.95405121                8.14074949               79.37360448                0.72195871               -0.05340309               -0.05328967                0.17780133               -0.00005153                0.10226048                0.00536882
               9.95362143                8.13971024               79.22712598                0.72146652               -0.03252824               -0.03245707                0.10828237               -0.00014088                0.12202336                0.00314799
              10.95340064                8.13866587               79.08078122                0.72117627               -0.01164274               -0.01160402                0.03874193               -0.00016057                0.13222175                0.00147279
              11.95338857                8.13761708               78.93448598                0.72108601                0.00922612                0.00925871               -0.03081207               -0.00014924                0.13308671               -0.00001572
              12.95358516                8.13656421               78.78815743                0.72119211                0.03009582                0.03012688               -0.10037491               -0.00012433                0.12468137               -0.00162553
              13.95399049                8.13550757               78.64171260                0.72149738                0.05097595                0.05099910               -0.16994510               -0.00007341                0.10694084               -0.00370580
              14.95460468                8.13444763               78.49506739                0.72200878                0.07184868                0.07188300               -0.23951829                0.00001612                0.07976851               -0.00678277
              15.95542746                8.13338464               78.34813690                0.72273458                0.09267753                0.09284654               -0.30908768                0.00009854                0.04336989               -0.01184297
              16.95645823                8.13231744               78.20084113                0.86166558                0.10307715                0.11391786               -0.37863918                0.00030219                0.02025603               -0.02039435
               6.95645772                9.14185952               79.66461654                0.86169951               -0.08413718               -0.09519525                0.31538976               -0.00015546                0.01849546                0.01354387
               7.95561635                9.14104322               79.51719979                0.72273370               -0.07378887               -0.07363202                0.24584587               -0.00001233                0.05980642                0.00452782
               8.95498194                9.14021897               79.37053020                0.72196901               -0.05294682               -0.05290740                0.17637365               -0.00011780                0.11176680                0.00298162
               9.95455741                9.13938769               79.22409306                0.72147602               -0.03202861               -0.03205781                0.10685969               -0.00014554                0.13226796                0.00175511
              10.95434137                9.13855189               79.07779362                0.72118777               -0.01118612               -0.01119360                0.03732305               -0.00011553                0.14271135                0.00083080
              11.95433369                9.13771176               78.93154507                0.72109925                0.00965076                0.00968045               -0.03222738               -0.00010070                0.14356148                0.00001135
              12.95453439                9.13686760               78.78526196                0.72120556                0.03049478                0.03055718               -0.10178733               -0.00008768                0.13485579               -0.00088202
              13.95494359                9.13601967               78.63885821                0.72150711                0.05135784                0.05143271               -0.17135532               -0.00007068                0.11641214               -0.00206348
              14.95556154                9.13516839               78.49224473                0.72201625                0.07225808                0.07230882               -0.24092601               -0.00000731                0.08770915               -0.00389231
              15.95638875                9.13431503               78.34532506                0.72273795                0.09310438                0.09320185               -0.31049427                0.00009222                0.04807684               -0.00716800
              16.95742363                9.13345946               78.19799676                0.86166709                0.10348833                0.11455716               -0.38004910                0.00030483                0.02277685               -0.01486041
               6.95716453               10.14090791               79.66143047                0.93084984               -0.08347470               -0.09516021                0.31394009                0.01090242                0.02462369                0.01181985
               7.95632979               10.14031013               79.51400509                0.86136955               -0.07300765               -0.07330955                0.24439431                0.01051491                0.06972685                0.00345359
               8.95570438               10.13969134               79.36740334                0.86098558               -0.05220934               -0.05276350                0.17493344                0.01019146                0.12519280                0.00283023
               9.95528560               10.13906908               79.22102851                0.86074237               -0.03150583               -0.03186112                0.10542827                0.01035140                0.14547568                0.00166935
              10.95507426               10.13844199               79.07479306                0.86059964               -0.01073722               -0.01098979                0.03589999                0.01036955                0.15599771                0.00069800
              11.95507085               10.13781069               78.92860884                0.86055626                0.01006185                0.00989267               -0.03364214                0.01038429                0.15681372               -0.00022181
              12.95527550               10.13717535               78.78238943                0.86060739                0.03087127                0.03077547               -0.10319410                0.01038828                0.14797005               -0.00118276
              13.95568828               10.13653623               78.63604762                0.86075794                0.05168396                0.05165534               -0.17275477                0.01039223                0.12922249               -0.00230298
              14.95630918               10.13589381               78.48949212                0.86101090                0.07249788                0.07254151               -0.24231818                0.01038601                0.09989520               -0.00380149
              15.95713824               10.13524867               78.34262219                0.86137101                0.09331466                0.09336427               -0.31187998                0.01068806                0.05758039               -0.00611085
              16.95817547               10.13460859               78.19529840                0.93083477                0.10372348                0.11491261               -0.38143259                0.01117544                0.03000812               -0.01296550
               7.08838561                0.15342870               80.69452964                0.93081271               -0.08359241               -0.09426660                0.31256073               -0.01070926                0.02040751               -0.00508511
               8.08754969                0.15073962               80.54663594                0.86132325               -0.07367258               -0.07357532                0.24630556               -0.01012025                0.04826295               -0.00475627
               9.08691216                0.14805810               80.39921665                0.86097417               -0.05387559               -0.05386418                0.18009394               -0.00984865                0.08666691               -0.00177221
              10.08647218                0.14537287               80.25202797                0.86073506               -0.03410085               -0.03396954                0.11387829               -0.00991988                0.10709724               -0.00094795
              11.08623015                0.14268400               80.10497377                0.86059875               -0.01428903               -0.01409788                0.04766000               -0.00992957                0.11779366               -0.00036158
              12.08618640                0.13999100               79.95797508                0.86055430                0.00554378                0.00577951               -0.01856271               -0.00993777                0.11975638                0.00010662
              13.08634102                0.13729378               79.81095583                0.86060475                0.02538214                0.02565725               -0.08479055               -0.00993750                0.11318451                0.00053131
              14.08669404                0.13459223               79.66384103                0.86074864                0.04521685                0.04553282               -0.15102575               -0.00993873                0.09812685                0.00095506
              15.08724536                0.13188590               79.51655557                0.86098999                0.06505032                0.06542533               -0.21726964               -0.00991704                0.07450885                0.00143695
              16.08799505                0.12917454               79.36902299                0.86133430                0.08485659                0.08522233               -0.28352171               -0.01017152                0.04173677                0.00202783
              17.08894249                0.12645092               79.22115632                0.93080910                0.09474430                0.10585458               -0.34978300               -0.01019152                0.02034110                0.00400258
               7.09096761                1.15248604               80.69161539                0.86160620               -0.08338182               -0.09389115                0.31123905               -0.00025415                0.01635572               -0.00359005
               8.09013379                1.15000387               80.54370044                0.72261150               -0.07352782               -0.07344275                0.24497964               -0.00006066                0.04554848               -0.00433567
               9.08949705                1.14751946               80.39628683                0.72190732               -0.05368782               -0.05361770                0.17876692                0.00000211                0.08420919               -0.00098314
              10.08906003                1.14503318               80.24908207                0.72144815               -0.03376325               -0.03375745                0.11254501                0.00003428                0.10341075               -0.00014003
              11.08882179                1.14254302               80.10200924                0.72117990               -0.01389529               -0.01389102                0.04631914                0.00001083                0.11389237                0.00001897
              12.08878213                1.14004879               79.95499055                0.72109301                0.00596218                0.00598145               -0.01991066               -0.00000222                0.11573289               -0.00010837
              13.08894103                1.13755036               79.80795064                0.72119396                0.02582338                0.02585599               -0.08614562               -0.00000950                0.10909441               -0.00035436
              14.08929859                1.13504756               79.66081494                0.72147298                0.04570020                0.04573117               -0.15238840               -0.00001547                0.09401697               -0.00060902
              15.08985503                1.13254016               79.51350891                0.72194525                0.06561143                0.06561352               -0.21864015               -0.00007161                0.07042895               -0.00073767
              16.09061082                1.13002677               79.36595657                0.72261813                0.08545815                0.08551831               -0.28490030               -0.00008700                0.03832668               -0.00047464
              17.09156420                1.12750947               79.21808336                0.86158628                0.09533735                0.10587107               -0.35116434                0.00021978                0.01756147                0.00114390
               7.09334488                2.15155088               80.68863779                0.86158986               -0.08298213               -0.09325007                0.30991888               -0.00028077                0.01321009               -0.00226063
               8.09251505                2.14927076               80.54070053                0.72257404               -0.07309900               -0.07315417                0.24365866               -0.00012764                0.04512538               -0.00279285
               9.09188290                2.14698575               80.39331948                0.72187676               -0.05328743               -0.05320152                0.17745507               -0.00007324                0.08507709               -0.00061946
              10.09144931                2.14469772               80.24611872                0.72142538               -0.03340764               -0.03334409                0.11122529               -0.00001733                0.10225824                0.00022445
              11.09121474                2.14240618               80.09903840                0.72116263               -0.01351458               -0.01348077                0.04498625               -0.00001277                0.11190967                0.00021279
              12.09117901                2.14011063               79.95200747                0.72108102                0.00636604                0.00638800               -0.02125743               -0.00002710                0.11338581               -0.00020389
              13.09134206                2.13781090               79.80495317                0.72117513                0.02624587                0.02626136               -0.08750671               -0.00004305                0.10659936               -0.00081426
              14.09170393                2.13550686               79.65780268                0.72144668                0.04613288                0.04614090               -0.15376406               -0.00007323                0.09156572               -0.00146749
              15.09226472                2.13319817               79.51048356                0.72190956                0.06600321                0.06603744               -0.22002964               -0.00012283                0.06835996               -0.00197782
              16.09302400                2.13088491               79.36292451                0.72256541                0.08583809                0.08603152               -0.28629997               -0.00014387                0.03723271               -0.00199858
              17.09398148                2.12856834               79.21505805                0.86155297                0.09574871                0.10604881               -0.35256432                0.00010954                0.01712070               -0.00111084
               7.09552223                3.15062104               80.68565764                0.86158895               -0.08258573               -0.09276045                0.30859373               -0.00024455                0.01357616                0.00287775
               8.09469637                3.14854078               80.53772333                0.72257072               -0.07267988               -0.07280854                0.24233660               -0.00010333                0.04541531                0.00204039
               9.09406863                3.14645543               80.39034413                0.72187171               -0.05285557               -0.05285333                0.17613113               -0.00011748                0.08537459                0.00155745
              10.09363926                3.14436629               80.24314692                0.72142016               -0.03300023               -0.03295252                0.10989641               -0.00007471                0.10232313                0.00124063
              11.09340862                3.14227340               80.09606423                0.72115507               -0.01312002               -0.01307650                0.04364883               -0.00005997                0.11147036                0.00063592
              12.09337686                3.14017655               79.94902718                0.72107302                0.00676578                0.00679777               -0.02260585               -0.00006542                0.11263188               -0.00021846
              13.09354394                3.13807558               79.80196460                0.72116882                0.02665018                0.02667721               -0.08886683               -0.00008138                0.10567227               -0.00124897
              14.09390986                3.13597038               79.65480493                0.72144367                0.04652923                0.04656912               -0.15513563               -0.00010493                0.09060583               -0.00239109
              15.09447452                3.13386091               79.50747728                0.72190736                0.06639578                0.06649211               -0.22141109               -0.00012712                0.06755948               -0.00355193
              16.09523778                3.13174740               79.35991260                0.72256544                0.08624973                0.08645155               -0.28768728               -0.00009895                0.03677418               -0.00460067
              17.09619952                3.12963044               79.21204482                0.86155388                0.09617429                0.10639568               -0.35395150                0.00015217                0.01685761               -0.00544868
               7.09750049                4.14969567               80.68269083                0.86158745               -0.08218988               -0.09232858                0.30726719               -0.00022528                0.01376264                0.00841728
               8.09667859                4.14781459               80.53474786                0.72257028               -0.07227291               -0.07242072                0.24101072               -0.00007000                0.04597408                0.00560906
               9.09605504                4.14592868               80.38736785                0.72186758               -0.05243779               -0.05248279                0.17480275               -0.00010598                0.08636846                0.00387777
              10.09562984                4.14403867               80.24017112                0.72141544               -0.03258765               -0.03256746                0.10856295               -0.00010063                0.10335104                0.00245787
              11.09540328                4.14214465               80.09308873                0.72115318               -0.01271573               -0.01267542                0.04230812               -0.00009778                0.11238833                0.00115832
              12.09537552                4.14024658               79.94605036                0.72106959                0.00716640                0.00720732               -0.02395557               -0.00010160                0.11335881               -0.00019464
              13.09554661                4.13834445               79.79898467                0.72116355                0.02704939                0.02709418               -0.09022583               -0.00010725                0.10620159               -0.00169243
              14.09591651                4.13643824               79.65182012                0.72143927                0.04692755                0.04699645               -0.15650397               -0.00011028                0.09095256               -0.00339899
              15.09648516                4.13452802               79.50448609                0.72190488                0.06679833                0.06692058               -0.22278667               -0.00010077                0.06775544               -0.00535877
              16.09725248                4.13261394               79.35691389                0.72256762                0.08666355                0.08685755               -0.28906758               -0.00006483                0.03685818               -0.00760131
              17.09821843                4.13069626               79.20903787                0.86155373                0.09659538                0.10677771               -0.35533230                0.00017316                0.01688548               -0.01013984
               7.09927988                5.14877447               80.67972996                0.86158892               -0.08179192               -0.09192085                0.30593766               -0.00021270                0.01411979                0.01312741
               8.09846196                5.14709237               80.53177020                0.72256985               -0.07187236               -0.07202261                0.23968056               -0.00003817                0.04697979                0.00853743
               9.09784243                5.14540577               80.38438680                0.72186687               -0.05203396               -0.05208897                0.17347021               -0.00007708                0.08825282                0.00569370
              10.09742128                5.14371494               80.23719127                0.72141618               -0.03218377               -0.03217009                0.10722595               -0.00010217                0.10555464                0.00348164
              11.09719876                5.14201989               80.09011229                0.72115060               -0.01231285               -0.01227240                0.04096522               -0.00012066                0.11468994                0.00161751
              12.09717502                5.14032070               79.94307751                0.72106809                0.00756915                0.00761484               -0.02530590               -0.00012745                0.11557318               -0.00015313
              13.09735014                5.13861747               79.79601388                0.72116453                0.02745322                0.02750544               -0.09158386               -0.00012049                0.10817804               -0.00205215
              14.09772409                5.13691031               79.64884855                0.72144171                0.04733344                0.04741068               -0.15786965               -0.00010014                0.09256651               -0.00427561
              15.09829681                5.13519932               79.50150972                0.72190529                0.06720755                0.06733423               -0.22415844               -0.00006946                0.06890048               -0.00701192
              16.09906824                5.13348455               79.35392774                0.72256554                0.08707705                0.08726571               -0.29044285               -0.00003436                0.03745247               -0.01043164
              17.10003835                5.13176600               79.20603629                0.86155458                0.09701103                0.10717925               -0.35670885                0.00018990                0.01717821               -0.01466002
               7.10086043                6.14785726               80.67676628                0.86158702               -0.08139119               -0.09153039                0.30460432               -0.00019819                0.01467508                0.01672851
               8.10004652                6.14637414               80.52878189                0.72256961               -0.07147582               -0.07162037                0.23834575               -0.00000217                0.04857876                0.01040592
               9.09943092                6.14488690               80.38139515                0.72186982               -0.05164235               -0.05167527                0.17213349               -0.00004323                0.09127922                0.00674539
              10.09901368                6.14339527               80.23420395                0.72141661               -0.03179026               -0.03175762                0.10588560               -0.00009938                0.10916278                0.00403611
              11.09879511                6.14189920               80.08713367                0.72115278               -0.01191367               -0.01186483                0.03962045               -0.00013802                0.11856169                0.00187225
              12.09877540                6.14039888               79.94010888                0.72106933                0.00797400                0.00801957               -0.02665629               -0.00014669                0.11941687               -0.00010854
              13.09895459                6.13889456               79.79305380                0.72116720                0.02786292                0.02790852               -0.09294063               -0.00012773                0.11172564               -0.00221937
              14.09933266                6.13738645               79.64589294                0.72144387                0.04774703                0.04781181               -0.15923188               -0.00008575                0.09555707               -0.00476948
              15.09990953                6.13587470               79.49855190                0.72190735                0.06762253                0.06773660               -0.22552567               -0.00003423                0.07108042               -0.00809786
              16.10068511                6.13435925               79.35095859                0.72256784                0.08748984                0.08767693               -0.29181432               -0.00000007                0.03860629               -0.01255448
              17.10165933                6.13283984               79.20304480                0.86155315                0.09742192                0.10759995               -0.35808209                0.00020945                0.01776370               -0.01842115
               7.10224214                7.14694386               80.67378675                0.86158681               -0.08098745               -0.09116881                0.30326571               -0.00017391                0.01550297                0.01871064
               8.10143227                7.14565996               80.52577061                0.72256930               -0.07108522               -0.07120423                0.23700424                0.00004192                0.05097210                0.01076102
               9.10082044                7.14437227               80.37838385                0.72186846               -0.05126362               -0.05123736                0.17079154               -0.00002043                0.09578859                0.00671385
              10.10040700                7.14307979               80.23120361                0.72141880               -0.03140271               -0.03133628                0.10454249               -0.00011242                0.11450801                0.00394877
              11.10019238                7.14178260               80.08415043                0.72115670               -0.01151327               -0.01145834                0.03827388               -0.00015686                0.12429082                0.00183539
              12.10017673                7.14048109               79.93714468                0.72107293                0.00838136                0.00842139               -0.02800663               -0.00016054                0.12514612               -0.00006263
              13.10036001                7.13917564               79.79010710                0.72117145                0.02827493                0.02830687               -0.09429534               -0.00013323                0.11710112               -0.00209567
              14.10074223                7.13786654               79.64295861                0.72144724                0.04816550                0.04820290               -0.16059021               -0.00007684                0.10019093               -0.00463736
              15.10132332                7.13655405               79.49562063                0.72190984                0.06804333                0.06812464               -0.22688756                0.00000003                0.07453597               -0.00817154
              16.10210310                7.13523809               79.34801652                0.72257023                0.08790206                0.08808708               -0.29317951                0.00004392                0.04046451               -0.01333224
              17.10308136                7.13391800               79.20007423                0.86155510                0.09782671                0.10804895               -0.35945041                0.00023881                0.01871858               -0.02069991
               7.10342475                8.14603388               80.67077243                0.86158759               -0.08058003               -0.09087423                0.30191808               -0.00012951                0.01674708                0.01837824
               8.10261895                8.14495006               80.52271884                0.72257105               -0.07070357               -0.07073394                0.23565268                0.00006987                0.05450034                0.00891376
               9.10201068                8.14386216               80.37534073                0.72187247               -0.05089258               -0.05078450                0.16944250               -0.00005721                0.10231573                0.00538659
              10.10160110                8.14276854               80.22818339                0.72142528               -0.03100017               -0.03093194                0.10319461               -0.00014464                0.12205139                0.00316092
              11.10139068                8.14167003               80.08115957                0.72116547               -0.01109737               -0.01105981                0.03692549               -0.00016470                0.13223397                0.00147920
              12.10137915                8.14056731               79.93418513                0.72108251                0.00879001                0.00882145               -0.02935661               -0.00015423                0.13308788               -0.00001669
              13.10156648                8.13946069               79.78717731                0.72117890                0.02867811                0.02870793               -0.09564691               -0.00012956                0.12467333               -0.00163396
              14.10195271                8.13835051               79.64005313                0.72145437                0.04857586                0.04859803               -0.16194355               -0.00007904                0.10692522               -0.00372211
              15.10253799                8.13723719               79.49272854                0.72191297                0.06846644                0.06849909               -0.22824300                0.00000909                0.07974979               -0.00680617
              16.10332204                8.13612100               79.34511873                0.72257036                0.08831462                0.08847548               -0.29453688                0.00009103                0.04335759               -0.01187324
              17.10430428                8.13500082               79.19714381                0.86155594                0.09822433                0.10855346               -0.36081111                0.00028723                0.02024620               -0.02043463
               7.10440720                9.14512637               80.66769633                0.86158821               -0.08018082               -0.09071752                0.30055717               -0.00014839                0.01850479                0.01356599
               8.10360539                9.14424528               80.51960050                0.72257253               -0.07031952               -0.07017022                0.23428729               -0.00001350                0.05985592                0.00453867
               9.10300081                9.14335658               80.37225252                0.72187860               -0.05045815               -0.05042069                0.16808347               -0.00011666                0.11183428                0.00299201
              10.10259623                9.14246115               80.22513657                0.72143685               -0.03052407               -0.03055182                0.10183958               -0.00014476                0.13230660                0.00176246
              11.10239033                9.14156140               80.07815811                0.72117619               -0.01066218               -0.01066883                0.03557375               -0.00011672                0.14273343                0.00083461
              12.10238298                9.14065752               79.93123041                0.72109359                0.00919457                0.00922368               -0.03070601               -0.00010265                0.14357213                0.00001088
              13.10257422                9.13974980               79.78426804                0.72119253                0.02905834                0.02911845               -0.09699406               -0.00008968                0.13485669               -0.00088675
              14.10296415                9.13883851               79.63718496                0.72146324                0.04894006                0.04901193               -0.16328940               -0.00007216                0.11640530               -0.00207327
              15.10355302                9.13792403               79.48989213                0.72192178                0.06885695                0.06890585               -0.22958711               -0.00000996                0.08769921               -0.00390615
              16.10434129                9.13700760               79.34229315                0.72257389                0.08872194                0.08881506               -0.29588008                0.00008646                0.04807033               -0.00718642
              17.10532746                9.13608907               79.19428566                0.86155594                0.09861686                0.10916367               -0.36215770                0.00028992                0.02277041               -0.01488807
               7.10518396               10.14421953               80.66449610                0.93079388               -0.07954908               -0.09068443                0.29917539                0.01038904                0.02464058                0.01183858
               8.10438847               10.14354665               80.51639164                0.86128771               -0.06957448               -0.06986296                0.23290439                0.01001906                0.06978985                0.00346118
               9.10379247               10.14285374               80.36911159                0.86094270               -0.04975468               -0.05028374                0.16671142                0.00970950                0.12527872                0.00283782
              10.10339338               10.14215751               80.22205804                0.86072296               -0.03002510               -0.03036455                0.10047564                0.00986103                0.14553183                0.00167442
              11.10319197               10.14145666               80.07514366                0.86059479               -0.01023387               -0.01047465                0.03421721                0.00987840                0.15603706                0.00070074
              12.10318870               10.14075178               79.92828035                0.86055500                0.00958623                0.00942607               -0.03205475                0.00989237                0.15684166               -0.00022212
              13.10338370               10.14004306               79.78138178                0.86060002                0.02941666                0.02932667               -0.09833522                0.00989641                0.14798780               -0.00118582
              14.10377704               10.13933075               79.63436070                0.86073941                0.04925027                0.04922441               -0.16462383                0.00990093                0.12923204               -0.00230991
              15.10436870               10.13861531               79.48712593                0.86096485                0.06908499                0.06912795               -0.23091437                0.00989582                0.09990112               -0.00381127
              16.10515874               10.13789730               79.33957675                0.86128919                0.08892200                0.08897012               -0.29720055                0.01018388                0.05758671               -0.00612435
              17.10614714               10.13718409               79.19157379                0.93077939                0.09884071                0.10950280               -0.36347696                0.01064824                0.03001239               -0.01298733
               7.23681477                0.15629871               81.69757793                0.93075642               -0.07945336               -0.08959948                0.29708447               -0.01017966                0.02042797               -0.00508358
               8.23602024                0.15363421               81.54903807                0.86124492               -0.07002497               -0.06993122                0.23410745               -0.00962005                0.04831203               -0.00475426
               9.23541427                0.15097687               81.40097303                0.86092607               -0.05120856               -0.05119639                0.17117421               -0.00936246                0.08674199               -0.00176531
              10.23499606                0.14831599               81.25313858                0.86071484               -0.03241305               -0.03228744                0.10823938               -0.00943066                0.10717430               -0.00094231
              11.23476601                0.14565162               81.10543859                0.86059292               -0.01358248               -0.01340025                0.04530163               -0.00944028                0.11786916               -0.00035891
              12.23472442                0.14298334               80.95779407                0.86055273                0.00526816                0.00549206               -0.01763948               -0.00944805                0.11982687                0.00010723
              13.23487137                0.14031105               80.81012893                0.86059905                0.02412421                0.02438470               -0.08058569               -0.00944763                0.11324725                0.00052994
              14.23520690                0.13763467               80.66236817                0.86072732                0.04297631                0.04327525               -0.14353873               -0.00944820                0.09817848                0.00095150
              15.23573090                0.13495376               80.51443667                0.86094322                0.06182701                0.06218193               -0.20650012               -0.00942690                0.07454686                0.00143113
              16.23644344                0.13226810               80.36625797                0.86125362                0.08065147                0.08099798               -0.26946917               -0.00966828                0.04175936                0.00202062
              17.23734393                0.12957080               80.21774509                0.93075295                0.09004885                0.10060835               -0.33244751               -0.00968730                0.02035097                0.00399867
               7.23937748                1.15540272               81.69465080                0.86149930               -0.07925255               -0.08924291                0.29582766               -0.00024219                0.01636692               -0.00357886
               8.23858496                1.15293489               81.54608963                0.72245031               -0.06988628               -0.06980515                0.23284737               -0.00006020                0.04559063               -0.00432351
               9.23797976                1.15046491               81.39803027                0.72182420               -0.05102864               -0.05096227                0.16991368               -0.00000362                0.08427658               -0.00096323
              10.23756438                1.14799311               81.25017968                0.72141078               -0.03209129               -0.03208585                0.10697228                0.00002536                0.10347629               -0.00012407
              11.23733793                1.14551762               81.10246099                0.72116713               -0.01320814               -0.01320375                0.04402793                0.00000223                0.11395635                0.00002755
              12.23730022                1.14303826               80.95479640                0.72109046                0.00566517                0.00568394               -0.01891988               -0.00001033                0.11579261               -0.00010735
              13.23745123                1.14055490               80.80711053                0.72117786                0.02454226                0.02457366               -0.08187291               -0.00001670                0.10914601               -0.00036094
              14.23779107                1.13806742               80.65932880                0.72143248                0.04343408                0.04346385               -0.14483261               -0.00002093                0.09405659               -0.00062326
              15.23831991                1.13557558               80.51137665                0.72185398                0.06235857                0.06236091               -0.20780095               -0.00007241                0.07045461               -0.00075941
              16.23903824                1.13307808               80.36317813                0.72245702                0.08122181                0.08127968               -0.27077776               -0.00008515                0.03833898               -0.00050097
              17.23994435                1.13057688               80.21465867                0.86147869                0.09061147                0.10062497               -0.33375922                0.00020747                0.01756282                0.00112018
               7.24174558                2.15451385               81.69166033                0.86148264               -0.07887354               -0.08863417                0.29457463               -0.00026838                0.01321643               -0.00224217
               8.24095684                2.15223810               81.54307685                0.72241736               -0.06947986               -0.06953113                0.23159380               -0.00012711                0.04516767               -0.00277058
               9.24035598                2.14995763               81.39505014                0.72178917               -0.05064909               -0.05056695                0.16866885               -0.00008120                0.08514081               -0.00059256
              10.23994386                2.14767427               81.24720347                0.72138874               -0.03175371               -0.03169312                0.10571886               -0.00003093                0.10230876                0.00024612
              11.23972091                2.14538755               81.09947715                0.72115239               -0.01284650               -0.01281401                0.04276193               -0.00002783                0.11195594                0.00022496
              12.23968693                2.14309702               80.95180018                0.72107880                0.00604876                0.00607033               -0.02019972               -0.00004143                0.11342740               -0.00020341
              13.23984188                2.14080253               80.80409978                0.72116072                0.02494373                0.02495907               -0.08316698               -0.00005545                0.10663246               -0.00082566
              14.24018580                2.13850394               80.65630313                0.72140744                0.04384565                0.04385350               -0.14614098               -0.00008183                0.09158678               -0.00149067
              15.24071879                2.13620098               80.50833775                0.72182208                0.06273138                0.06276429               -0.20912304               -0.00012559                0.06836916               -0.00201121
              16.24144043                2.13389369               80.36013240                0.72241116                0.08158342                0.08176841               -0.27211058               -0.00014161                0.03723542               -0.00203824
              17.24235046                2.13158330               80.21161969                0.86144880                0.09100303                0.10079565               -0.33509354                0.00010178                0.01711736               -0.00114842
               7.24392362                3.15363004               81.68866727                0.86148270               -0.07849782               -0.08816950                0.29331865               -0.00023477                0.01358351                0.00290200
               8.24313864                3.15154427               81.54008677                0.72241621               -0.06908268               -0.06920353                0.23034027               -0.00010616                0.04545497                0.00206804
               9.24254196                3.14945357               81.39206188                0.72178322               -0.05023990               -0.05023644                0.16741291               -0.00012639                0.08543126                0.00158227
              10.24213384                3.14735925               81.24421872                0.72138306               -0.03136708               -0.03132140                0.10445795               -0.00008906                0.10236378                0.00125957
              11.24191462                3.14526134               81.09648994                0.72114767               -0.01247146               -0.01242995                0.04149148               -0.00007668                0.11150322                0.00064603
              12.24188441                3.14315967               80.94880674                0.72106930                0.00642882                0.00645988               -0.02148153               -0.00008176                0.11265828               -0.00021951
              13.24204320                3.14105408               80.80109795                0.72115834                0.02532827                0.02535446               -0.08446022               -0.00009542                0.10569000               -0.00126153
              14.24239098                3.13894449               80.65329199                0.72140391                0.04422283                0.04426099               -0.14744609               -0.00011519                0.09061281               -0.00241490
              15.24292766                3.13683086               80.50531798                0.72182065                0.06310517                0.06319730               -0.21043852               -0.00013230                0.06755741               -0.00358435
              16.24365308                3.13471344               80.35710694                0.72241026                0.08197552                0.08216869               -0.27343203               -0.00010029                0.03677000               -0.00463797
              17.24456717                3.13259280               80.20859290                0.86145014                0.09140848                0.10112655               -0.33641594                0.00014178                0.01685051               -0.00548392
               7.24591241                4.15275047               81.68568755                0.86148059               -0.07812280               -0.08775979                0.29206227               -0.00021674                0.01376871                0.00844769
               8.24513118                4.15085403               81.53709839                0.72241488               -0.06869689               -0.06883624                0.22908392               -0.00007580                0.04601083                0.00563957
               9.24453847                4.14895290               81.38907267                0.72178070               -0.04984379               -0.04988528                0.16615366               -0.00011774                0.08641912                0.00390424
              10.24413431                4.14704784               81.24122992                0.72137558               -0.03097595               -0.03095606                0.10319308               -0.00011599                0.10338291                0.00247695
              11.24391895                4.14513895               81.09350137                0.72114407               -0.01208768               -0.01204896                0.04021815               -0.00011532                0.11241005                0.00116751
              12.24389255                4.14322622               80.94581676                0.72106601                0.00680985                0.00684919               -0.02276457               -0.00011908                0.11337298               -0.00019657
              13.24405515                4.14130962               80.79810476                0.72115549                0.02570828                0.02575119               -0.08575324               -0.00012284                0.10620712               -0.00170585
              14.24440672                4.13938916               80.65029382                0.72139819                0.04460205                0.04466800               -0.14874916               -0.00012277                0.09094852               -0.00342323
              15.24494719                4.13746492               80.50231336                0.72181958                0.06348871                0.06360573               -0.21174967               -0.00010932                0.06774534               -0.00539189
              16.24567649                4.13553706               80.35409476                0.72240923                0.08237001                0.08255585               -0.27474807               -0.00006901                0.03685101               -0.00763958
              17.24659459                4.13360583               80.20557250                0.86144799                0.09180990                0.10149048               -0.33773237                0.00016160                0.01687912               -0.01017762
               7.24771215                5.15187484               81.68271373                0.86148077               -0.07774601               -0.08737296                0.29080313               -0.00020493                0.01412511                0.01316199
               8.24693469                5.15016755               81.53410778                0.72241282               -0.06831746               -0.06845936                0.22782434               -0.00004617                0.04701461                0.00857006
               9.24634580                5.14845586               81.38607864                0.72178134               -0.04946095               -0.04951224                0.16489095               -0.00009143                0.08829920                0.00572088
              10.24594547                5.14674013               81.23823705                0.72137755               -0.03059297               -0.03057911                0.10192469               -0.00011855                0.10557966                0.00350069
              11.24573394                5.14502036               81.09051185                0.72114171               -0.01170528               -0.01166620                0.03894291               -0.00013821                0.11470307                0.00162657
              12.24571137                5.14329665               80.94283073                0.72106525                0.00719274                0.00723664               -0.02404835               -0.00014497                0.11557776               -0.00015538
              13.24587780                5.14156911               80.79512072                0.72115396                0.02609257                0.02614269               -0.08704569               -0.00013687                0.10817418               -0.00206587
              14.24623322                5.13983785               80.64730892                0.72140161                0.04498863                0.04506273               -0.15005006               -0.00011442                0.09255402               -0.00429987
              15.24677757                5.13810298               80.49932359                0.72181775                0.06387888                0.06400022               -0.21305764               -0.00008048                0.06888374               -0.00704512
              16.24751079                5.13636456               80.35109517                0.72240993                0.08276479                0.08294533               -0.27606102               -0.00004066                0.03744173               -0.01047183
              17.24843286                5.13462261               80.20255747                0.86145041                0.09220702                0.10187327               -0.33904669                0.00017737                0.01717014               -0.01470403
               7.24932290                6.15100301               81.67973706                0.86147938               -0.07736657               -0.08700261                0.28954046               -0.00019097                0.01468063                0.01676654
               8.24854923                6.14948484               81.53110646                0.72241550               -0.06794188               -0.06807857                0.22656000               -0.00001158                0.04861261                0.01043928
               9.24796406                6.14796265               81.38307396                0.72178376               -0.04908978               -0.04912012                0.16362344               -0.00005862                0.09132275                0.00677238
              10.24756744                6.14643626               81.23523666                0.72137841               -0.03021975               -0.03018781                0.10065309               -0.00011517                0.10918335                0.00405513
              11.24735967                6.14490563               81.08752011                0.72114085               -0.01132641               -0.01127913                0.03766590               -0.00015401                0.11856919                0.00188112
              12.24734091                6.14337095               80.93984893                0.72106674                0.00757745                0.00762153               -0.02533235               -0.00016275                0.11941488               -0.00011062
              13.24751122                6.14183247               80.79214739                0.72115612                0.02648240                0.02652645               -0.08833706               -0.00014327                0.11171505               -0.00223287
              14.24787056                6.14029042               80.64434001                0.72140064                0.04538270                0.04544503               -0.15134807               -0.00010007                0.09553897               -0.00479337
              15.24841887                6.13874493               80.49635243                0.72181974                0.06427471                0.06438403               -0.21436149               -0.00004614                0.07105904               -0.00813069
              16.24915605                6.13719597               80.34811261                0.72241103                0.08315895                0.08333757               -0.27736971               -0.00000729                0.03859163               -0.01259464
              17.25008205                6.13564330               80.19955253                0.86145094                0.09259965                0.10227414               -0.34035830                0.00019627                0.01775194               -0.01846695
               7.25074465                7.15013479               81.67674450                0.86147997               -0.07698433               -0.08665997                0.28827281               -0.00016727                0.01550805                0.01874910
               8.24997481                7.14880597               81.52808212                0.72241220               -0.06757195               -0.06768462                0.22528951                0.00003198                0.05100633                0.01079177
               9.24939321                7.14747346               81.38004959                0.72178490               -0.04873073               -0.04870498                0.16235123               -0.00003455                0.09583270                0.00673893
              10.24900020                7.14613637               81.23222324                0.72138369               -0.02985214               -0.02978796                0.09937851               -0.00012517                0.11452717                0.00396660
              11.24879617                7.14479478               81.08452374                0.72114488               -0.01094644               -0.01089298                0.03638687               -0.00016921                0.12429567                0.00184378
              12.24878127                7.14344908               80.93687157                0.72107044                0.00796456                0.00800369               -0.02661623               -0.00017310                0.12514095               -0.00006444
              13.24895546                7.14209964               80.78918747                0.72115742                0.02687459                0.02690579               -0.08962702               -0.00014572                0.11708714               -0.00210804
              14.24931876                7.14074675               80.64139242                0.72140646                0.04578153                0.04581785               -0.15264297               -0.00008885                0.10017020               -0.00465954
              15.24987109                7.13939066               80.49340786                0.72182005                0.06467610                0.06475413               -0.21566079               -0.00001125                0.07451329               -0.00820279
              16.25061228                7.13803131               80.34515722                0.72241333                0.08355228                0.08372848               -0.27867209                0.00003606                0.04044981               -0.01337090
              17.25154214                7.13666809               80.19656862                0.86145133                0.09298584                0.10270121               -0.34166219                0.00022496                0.01870759               -0.02074519
               7.25197718                8.14926981               81.67371705                0.86148111               -0.07659818               -0.08638121                0.28699546               -0.00012448                0.01675282                0.01841174
               8.25121120                8.14813115               81.52501719                0.72241507               -0.06721032               -0.06723891                0.22400887                0.00006096                0.05453789                0.00893734
               9.25063297                8.14698855               81.37699333                0.72178740               -0.04837903               -0.04827554                0.16107237               -0.00006539                0.10236491                0.00540682
              10.25024362                8.14584050               81.22918987                0.72138777               -0.02947001               -0.02940423                0.09809906               -0.00015152                0.12207366                0.00317522
              11.25004357                8.14468777               81.08151973                0.72115656               -0.01055124               -0.01051433                0.03510568               -0.00017214                0.13224021                0.00148624
              12.25003259                8.14353102               80.93389885                0.72108026                0.00835303                0.00838419               -0.02790000               -0.00016224                0.13308353               -0.00001810
              13.25021063                8.14237059               80.78624449                0.72116778                0.02725823                0.02728763               -0.09091379               -0.00013742                0.12466056               -0.00164383
              14.25057776                8.14120677               80.63847373                0.72141310                0.04617239                0.04619432               -0.15393239               -0.00008673                0.10690556               -0.00374024
              15.25113408                8.14004001               80.49050253                0.72182725                0.06507933                0.06511099               -0.21695258                0.00000061                0.07972823               -0.00683216
              16.25187934                8.13887054               80.34224617                0.72241537                0.08394563                0.08409863               -0.27996633                0.00008247                0.04334412               -0.01190681
              17.25281299                8.13769732               80.19362491                0.86145128                0.09336505                0.10318143               -0.34295911                0.00027160                0.02023649               -0.02047691
               7.25301947                9.14840716               81.67062769                0.86148049               -0.07621913               -0.08623344                0.28570420               -0.00014177                0.01851295                0.01358787
               8.25225728                9.14746120               81.52188554                0.72241699               -0.06684566               -0.06670366                0.22271304               -0.00001565                0.05990055                0.00455039
               9.25168256                9.14650795               81.37389187                0.72179386               -0.04796643               -0.04793051                0.15978245               -0.00011661                0.11189435                0.00300394
              10.25129795                9.14554829               81.22612985                0.72139994               -0.02901767               -0.02904352                0.09681264               -0.00014530                0.13233813                0.00177118
              11.25110221                9.14458449               81.07850509                0.72116536               -0.01013751               -0.01014290                0.03382123               -0.00011989                0.14274767                0.00083862
              12.25109520                9.14361677               80.93093095                0.72109165                0.00873785                0.00876674               -0.02918337               -0.00010648                0.14357502                0.00001013
              13.25127696                9.14264539               80.78332207                0.72118093                0.02761988                0.02767844               -0.09219593               -0.00009309                0.13485084               -0.00089251
              14.25164760                9.14167064               80.63559242                0.72142479                0.04651884                0.04658847               -0.15521381               -0.00007486                0.11639232               -0.00208419
              15.25220734                9.14069288               80.48765299                0.72183444                0.06545100                0.06549850               -0.21823314               -0.00001368                0.08768399               -0.00392173
              16.25295662                9.13971329               80.33940746                0.72241756                0.08433354                0.08442253               -0.28124659                0.00008019                0.04806155               -0.00720631
              17.25389401                9.13873172               80.19075360                0.86145199                0.09373905                0.10376305               -0.34424337                0.00027507                0.02276407               -0.01491659
               7.25386628               10.14754514               81.66741398                0.93073922               -0.07561819               -0.08620252                0.28439095                0.00987467                0.02465624                0.01185527
               8.25311010               10.14679708               81.51866318                0.86120988               -0.06613641               -0.06641170                0.22139899                0.00952182                0.06984794                0.00346778
               9.25254355               10.14602994               81.37073757                0.86090029               -0.04729632               -0.04780070                0.15847894                0.00922656                0.12535712                0.00284625
              10.25216417               10.14525963               81.22303802                0.86070436               -0.02854263               -0.02886579                0.09551628                0.00936991                0.14557936                0.00168090
              11.25197270               10.14448491               81.07547741                0.86058975               -0.00973007               -0.00995843                0.03253180                0.00938555                0.15606737                0.00070323
              12.25196957               10.14370636               80.92796774                0.86055316                0.00911021                0.00895923               -0.03046615                0.00939887                0.15686094               -0.00022258
              13.25215490               10.14292416               80.78042273                0.86059402                0.02796002                0.02787670               -0.09347210                0.00940316                0.14799742               -0.00118948
              14.25252877               10.14213854               80.63275514                0.86071808                0.04681286                0.04679079               -0.15648351                0.00940812                0.12923415               -0.00231734
              15.25309116               10.14134998               80.48487384                0.86092078                0.06566702                0.06571010               -0.21949674                0.00940424                0.09990108               -0.00382195
              16.25384211               10.14055899               80.33667818                0.86121370                0.08452357                0.08457056               -0.28250421                0.00967896                0.05759028               -0.00613715
              17.25478163               10.13977258               80.18802886                0.93072620                0.09395210                0.10408634               -0.34549986                0.01012101                0.03001574               -0.01300871
               7.38587390                0.15918130               82.70047133                0.93070358               -0.07530647               -0.08492376                0.28157921               -0.00964946                0.02044573               -0.00508368
               8.38512083                0.15654142               82.55131809                0.86116833               -0.06637012               -0.06627978                0.22188484               -0.00911957                0.04836057               -0.00475139
               9.38454649                0.15390832               82.40264013                0.86088706               -0.04853613               -0.04852284                0.16223624               -0.00887625                0.08681867               -0.00175870
              10.38415011                0.15127182               82.25419276                0.86069610               -0.03072259               -0.03060128                0.10258835               -0.00894152                0.10725229               -0.00093817
              11.38393204                0.14863202               82.10587980                0.86058756               -0.01287540               -0.01270067                0.04293793               -0.00895046                0.11794565               -0.00035598
              12.38389260                0.14598849               81.95762229                0.86055349                0.00499130                0.00520452               -0.01671501               -0.00895770                0.11989909                0.00010772
              13.38403187                0.14334118               81.80934411                0.86059414                0.02286310                0.02311014               -0.07637317               -0.00895698                0.11331076                0.00052770
              14.38434986                0.14069000               81.66097025                0.86070831                0.04073116                0.04101374               -0.13603785               -0.00895712                0.09823007                0.00094727
              15.38484649                0.13803456               81.51242557                0.86089898                0.05859757                0.05893292               -0.19571106               -0.00893620                0.07458543                0.00142512
              16.38552181                0.13537465               81.36363361                0.86117406                0.07643894                0.07676651               -0.25539246               -0.00916410                0.04178305                0.00201143
              17.38637527                0.13270374               81.21450737                0.93070095                0.08534557                0.09535363               -0.31508317               -0.00918229                0.02036187                0.00399197
               7.38841728                1.15833206               82.69753195                0.86139397               -0.07511560               -0.08458631                0.28038851               -0.00023047                0.01637871               -0.00356763
               8.38766613                1.15587862               82.54835738                0.72230313               -0.06623771               -0.06616027                0.22069126               -0.00006041                0.04563354               -0.00430964
               9.38709253                1.15342309               82.39968510                0.72174051               -0.04836429               -0.04830108                0.16104184               -0.00001062                0.08434534               -0.00094267
              10.38669884                1.15096581               82.25122151                0.72137309               -0.03041640               -0.03041045                0.10138792                0.00001460                0.10354412               -0.00010897
              11.38648420                1.14850501               82.10288980                0.72116090               -0.01251997               -0.01251467                0.04173167               -0.00000810                0.11402288                0.00003614
              12.38644844                1.14604054               81.95461215                0.72109286                0.00536714                0.00538635               -0.01792752               -0.00002010                0.11585414               -0.00010676
              13.38659154                1.14357228               81.80631318                0.72116977                0.02325783                0.02328928               -0.07759194               -0.00002518                0.10919916               -0.00036880
              14.38691360                1.14110014               81.65791829                0.72138986                0.04116287                0.04119274               -0.13726297               -0.00002740                0.09409825               -0.00063903
              15.38741480                1.13862389               81.50935289                0.72176845                0.05909930                0.05910285               -0.19694253               -0.00007390                0.07048197               -0.00078210
              16.38809558                1.13614232               81.36054102                0.72230596                0.07697791                0.07703383               -0.25663055               -0.00008335                0.03835256               -0.00053002
              17.38895436                1.13365728               81.21140818                0.86137580                0.08587747                0.09537025               -0.31632411                0.00019523                0.01756550                0.00109240
               7.39077617                2.15748957               82.69452928                0.86137996               -0.07475737               -0.08401015                0.27920329               -0.00025628                0.01322532               -0.00222066
               8.39002860                2.15521821               82.54533241                0.72227098               -0.06585395               -0.06590095                0.21950587               -0.00012764                0.04521142               -0.00274573
               9.38945909                2.15294229               82.39669286                0.72170955               -0.04800610               -0.04792680                0.15986505               -0.00009105                0.08520546               -0.00056323
              10.38906848                2.15066361               82.24823309                0.72135355               -0.03009712               -0.03003862                0.10020164               -0.00004712                0.10236180                0.00026904
              11.38885715                2.14838172               82.09989363                0.72114388               -0.01217738               -0.01214556                0.04053281               -0.00004631                0.11200506                0.00023683
              12.38882493                2.14609622               81.95160348                0.72107561                0.00573070                0.00575261               -0.01914052               -0.00005950                0.11347062               -0.00020380
              13.38897176                2.14380697               81.80328983                0.72114993                0.02363868                0.02365485               -0.07881935               -0.00007116                0.10666758               -0.00083863
              14.38929770                2.14151385               81.65487986                0.72137138                0.04155333                0.04156264               -0.13850475               -0.00009278                0.09161121               -0.00151623
              15.38980283                2.13921662               81.50630110                0.72173720                0.05945309                0.05948593               -0.19819744               -0.00013012                0.06838093               -0.00204789
              16.39048676                2.13691533               81.35748230                0.72226269                0.07732136                0.07749824               -0.25789693               -0.00014023                0.03723911               -0.00208155
              17.39134926                2.13461114               81.20835618                0.86134926                0.08624941                0.09553390               -0.31759285                0.00009385                0.01711446               -0.00119098
               7.39295488                3.15665186               82.69152401                0.86137858               -0.07440270               -0.08357043                0.27801765               -0.00022522                0.01359154                0.00293068
               8.39221085                3.15456060               82.54233014                0.72227111               -0.06547864               -0.06559157                0.21832169               -0.00011060                0.04549589                0.00209879
               9.39164531                3.15246455               82.39369238                0.72170566               -0.04761930               -0.04761434                0.15867828               -0.00013829                0.08548970                0.00160994
              10.39125847                3.15036504               82.24523608                0.72134680               -0.02973205               -0.02968670                0.09900919               -0.00010668                0.10240594                0.00128093
              11.39105067                3.14826210               82.09689406                0.72113586               -0.01182285               -0.01178155                0.03932958               -0.00009749                0.11153804                0.00065618
              12.39102201                3.14615559               81.94859755                0.72106941                0.00609090                0.00612200               -0.02035559               -0.00010263                0.11268701               -0.00022155
              13.39117249                3.14404538               81.80027540                0.72114278                0.02400379                0.02403018               -0.08004690               -0.00011388                0.10571054               -0.00127580
              14.39150209                3.14193139               81.65185601                0.72136617                0.04191188                0.04194968               -0.13974411               -0.00012910                0.09062275               -0.00244134
              15.39201072                3.13981361               81.50326851                0.72173500                0.05980847                0.05989762               -0.19944754               -0.00014023                0.06755807               -0.00362123
              16.39269826                3.13769228               81.35444396                0.72226205                0.07769411                0.07787960               -0.25915417               -0.00010339                0.03676800               -0.00468029
              17.39356461                3.13556795               81.20531650                0.86134882                0.08663490                0.09584968               -0.31885141                0.00013073                0.01684456               -0.00552711
               7.39495418                4.15581817               82.68853208                0.86137753               -0.07404906               -0.08318301                0.27683206               -0.00020856                0.01377534                0.00848308
               8.39421369                4.15390638               82.53932954                0.72226566               -0.06511464               -0.06524510                0.21713627               -0.00008369                0.04604837                0.00567502
               9.39365189                4.15199001               82.39069092                0.72170389               -0.04724506               -0.04728269                0.15748870               -0.00013350                0.08647089                0.00393388
              10.39326879                4.15006988               82.24223498                0.72134229               -0.02936228               -0.02934102                0.09781285               -0.00013585                0.10341541                0.00249788
              11.39306465                4.14814609               82.09389309                0.72113015               -0.01145977               -0.01142055                0.03812377               -0.00013754                0.11243313                0.00117751
              12.39303960                4.14621866               81.94559507                0.72106437                0.00645201                0.00649124               -0.02157196               -0.00014142                0.11338902               -0.00019941
              13.39319369                4.14428757               81.79726961                0.72114246                0.02436442                0.02440682               -0.08127428               -0.00014311                0.10621456               -0.00172140
              14.39352689                4.14235285               81.64884514                0.72136305                0.04227229                0.04233651               -0.14098225               -0.00013928                0.09094663               -0.00345118
              15.39403913                4.14041457               81.50025109                0.72173282                0.06017338                0.06028646               -0.20069535               -0.00012078                0.06773694               -0.00542968
              16.39473035                4.13847292               81.35141893                0.72226230                0.07806985                0.07824868               -0.26040773               -0.00007496                0.03684305               -0.00768409
              17.39560053                4.13652814               81.20228322                0.86135246                0.08701758                0.09619686               -0.32010728                0.00014900                0.01686881               -0.01022411
               7.39677428                5.15498820               82.68554602                0.86137601               -0.07369405               -0.08281761                0.27564550               -0.00019759                0.01413126                0.01320257
               8.39603734                5.15325570               82.53632669                0.72226853               -0.06475689               -0.06488996                0.21594880               -0.00005637                0.04704925                0.00860846
               9.39547914                5.15151890               82.38768462                0.72170209               -0.04688370               -0.04693063                0.15629648               -0.00011003                0.08834446                0.00575176
              10.39509966                5.14977821               82.23922977                0.72133932               -0.02900030               -0.02898474                0.09661387               -0.00014025                0.10560392                0.00352195
              11.39489914                5.14803369               82.09089115                0.72113114               -0.01109786               -0.01105815                0.03691660               -0.00016122                0.11471637                0.00163676
              12.39487771                5.14628541               81.94259654                0.72106272                0.00681495                0.00685875               -0.02278940               -0.00016791                0.11558284               -0.00015829
              13.39503543                5.14453351               81.79427297                0.72114174                0.02472945                0.02477868               -0.08250161               -0.00015833                0.10817054               -0.00208194
              14.39537230                5.14277812               81.64584755                0.72136390                0.04263993                0.04271197               -0.14221919               -0.00013269                0.09254218               -0.00432830
              15.39588823                5.14101934               81.49724856                0.72173364                0.06054478                0.06066211               -0.20194030               -0.00009400                0.06886782               -0.00708390
              16.39658319                5.13925726               81.34840652                0.72226413                0.07844588                0.07861956               -0.26165816               -0.00004789                0.03742954               -0.01051779
              17.39745715                5.13749189               81.19925536                0.86135137                0.08739587                0.09656075               -0.32135897                0.00016409                0.01715779               -0.01475227
               7.39841523                6.15416181               82.68255709                0.86137717               -0.07333656               -0.08246783                0.27445528               -0.00018420                0.01468558                0.01680984
               8.39768187                6.15260858               82.53331309                0.72226396               -0.06440296               -0.06453118                0.21475690               -0.00002286                0.04864474                0.01047801
               9.39712717                6.15105139               82.38466762                0.72170150               -0.04653364               -0.04656075                0.15510061               -0.00007825                0.09136401                0.00680313
              10.39675120                6.14949018               82.23621701                0.72134172               -0.02864760               -0.02861513                0.09541258               -0.00013661                0.10920205                0.00407650
              11.39655422                6.14792493               82.08788699                0.72113095               -0.01073910               -0.01069185                0.03570780               -0.00017567                0.11857481                0.00189119
              12.39653641                6.14635583               81.93960223                0.72106484                0.00717958                0.00722382               -0.02400696               -0.00018416                0.11941108               -0.00011316
              13.39669781                6.14478314               81.79128706                0.72113995                0.02509959                0.02514344               -0.08372862               -0.00016401                0.11170305               -0.00224867
              14.39703841                6.14320709               81.64286598                0.72136391                0.04301504                0.04307591               -0.14345464               -0.00011872                0.09551965               -0.00482098
              15.39755812                6.14162782               81.49426467                0.72173562                0.06092200                0.06102772               -0.20318247               -0.00006094                0.07103727               -0.00816881
              16.39825685                6.14004531               81.34541119                0.72226555                0.07882129                0.07899289               -0.26290448               -0.00001609                0.03857666               -0.01264045
              17.39913454                6.13845935               81.19623763                0.86134979                0.08776955                0.09694116               -0.32260649                0.00018222                0.01773886               -0.01851616
               7.39987706                7.15333884               82.67955221                0.86137774               -0.07297584               -0.08214424                0.27325895               -0.00016121                0.01551291                0.01879128
               8.39914730                7.15196507               82.53027640                0.72226904               -0.06405415               -0.06415973                0.21355842                0.00002023                0.05103791                0.01082765
               9.39859598                7.15058768               82.38163088                0.72170225               -0.04619519               -0.04616879                0.15389986               -0.00005243                0.09587247                0.00676815
              10.39822340                7.14920591               82.23319118                0.72134576               -0.02830022               -0.02823717                0.09420760               -0.00014287                0.11454255                0.00398671
              11.39802997                7.14781985               82.08487816                0.72113759               -0.01037920               -0.01032633                0.03449697               -0.00018704                0.12429627                0.00185317
              12.39801581                7.14642989               81.93661236                0.72107028                0.00754652                0.00758621               -0.02522448               -0.00019099                0.12513093               -0.00006653
              13.39818090                7.14503638               81.78831456                0.72114591                0.02547182                0.02550377               -0.08495365               -0.00016319                0.11706917               -0.00212234
              14.39852525                7.14363964               81.63990575                0.72136515                0.04339434                0.04343072               -0.14468706               -0.00010536                0.10014622               -0.00468475
              15.39904879                7.14223990               81.49130742                0.72173892                0.06130420                0.06138017               -0.20442000               -0.00002589                0.07448793               -0.00823737
              16.39975133                7.14083711               81.34244308                0.72226492                0.07919625                0.07936506               -0.26414588                0.00002594                0.04043356               -0.01341352
              17.40063271                7.13943071               81.19324099                0.86135239                0.08813806                0.09734719               -0.32385063                0.00020991                0.01869541               -0.02079320
               7.40115955                8.15251893               82.67651234                0.86137828               -0.07261120               -0.08188167                0.27205346               -0.00011961                0.01675913                0.01844853
               8.40043343                8.15132539               82.52719902                0.72226490               -0.06371283               -0.06373911                0.21234995                0.00005040                0.05457229                0.00896489
               9.39988529                8.15012802               82.37856218                0.72170689               -0.04586324               -0.04576310                0.15269181               -0.00007690                0.10240759                0.00543044
              10.39951617                8.14892544               82.23014537                0.72135188               -0.02793924               -0.02787425                0.09299757               -0.00016222                0.12208952                0.00319188
              11.39932650                8.14771840               82.08186168                0.72114241               -0.01000530               -0.00996767                0.03328363               -0.00018393                0.13224025                0.00149407
              12.39931606                8.14650756               81.93362713                0.72107844                0.00791497                0.00794699               -0.02644194               -0.00017497                0.13307198               -0.00001973
              13.39948480                8.14529322               81.78535903                0.72115448                0.02583619                0.02586623               -0.08617542               -0.00014970                0.12464056               -0.00165497
              14.39983279                8.14407570               81.63697448                0.72137484                0.04376585                0.04378852               -0.14591308               -0.00009829                0.10688053               -0.00376038
              15.40036012                8.14285542               81.48838949                0.72174268                0.06168795                0.06171955               -0.20564926               -0.00001084                0.07970266               -0.00685989
              16.40106655                8.14163261               81.33951940                0.72226961                0.07957089                0.07971707               -0.26537784                0.00007256                0.04332816               -0.01194159
              17.40195154                8.14040630               81.19028463                0.86135368                0.08849930                0.09780327               -0.32508504                0.00025563                0.02022550               -0.02052039
               7.40226175                9.15170121               82.67341041                0.86137666               -0.07225313               -0.08174376                0.27083396               -0.00013510                0.01852035                0.01361219
               8.40153922                9.15069029               82.52405476                0.72226980               -0.06336821               -0.06323326                0.21112633               -0.00001901                0.05994087                0.00456486
               9.40099439                9.14967242               82.37544816                0.72171315               -0.04547257               -0.04543744                0.15147281               -0.00011885                0.11194673                0.00301774
              10.40062977                9.14864843               82.22707282                0.72136194               -0.02751057               -0.02753307                0.09178007               -0.00014817                0.13236115                0.00178092
              11.40044417                9.14762050               82.07883453                0.72115849               -0.00961338               -0.00961583                0.03206673               -0.00012504                0.14275312                0.00084356
              12.40043750                9.14658883               81.93064674                0.72109100                0.00827954                0.00830983               -0.02765897               -0.00011268                0.14356839                0.00000906
              13.40060976                9.14555371               81.78242412                0.72116877                0.02617913                0.02623746               -0.08739315               -0.00009918                0.13483551               -0.00089908
              14.40096108                9.14451541               81.63408069                0.72138717                0.04409471                0.04416292               -0.14713039               -0.00007991                0.11637177               -0.00209589
              15.40149166                9.14347429               81.48552747                0.72174867                0.06204122                0.06208782               -0.20686715               -0.00001926                0.08766330               -0.00393817
              16.40220191                9.14243146               81.33666822                0.72227193                0.07994001                0.08002514               -0.26659618                0.00007331                0.04804841               -0.00722743
              17.40309046                9.14138678               81.18740080                0.86135314                0.08885529                0.09835541               -0.32630578                0.00026056                0.02275371               -0.01494613
               7.40317868               10.15088405               82.67018392                0.93068912               -0.07168344               -0.08171561                0.26959143                0.00935957                0.02467065                0.01187307
               8.40246184               10.15006072               82.52081962                0.86113638               -0.06269496               -0.06295711                0.20988231                0.00902325                0.06990027                0.00347645
               9.40192478               10.14921927               82.37228117                0.86086015               -0.04483577               -0.04531506                0.15023762                0.00874205                0.12542509                0.00285566
              10.40156513               10.14837478               82.22396837                0.86068715               -0.02705884               -0.02736495                0.09055128                0.00887690                0.14561710                0.00168701
              11.40138360               10.14752609               82.07579429                0.86058281               -0.00922635               -0.00944115                0.03084465                0.00889154                0.15608697                0.00070685
              12.40138060               10.14667375               81.92767103                0.86055154                0.00863208                0.00849245               -0.02887563                0.00890407                0.15686766               -0.00022326
              13.40155624               10.14581797               81.77951234                0.86058990                0.02650051                0.02642589               -0.08860450                0.00890804                0.14799584               -0.00119376
              14.40191061               10.14495896               81.63123103                0.86069801                0.04437226                0.04435517               -0.14833612                0.00891326                0.12922673               -0.00232434
              15.40244369               10.14409718               81.48273600                0.86088004                0.06224542                0.06228893               -0.20806826                0.00891075                0.09989274               -0.00383250
              16.40315552               10.14323312               81.33392666                0.86113708                0.08012066                0.08016611               -0.26779312                0.00917270                0.05758775               -0.00615178
              17.40404610               10.14237341               81.18466380                0.93067740                0.08905826                0.09866255               -0.32750126                0.00959307                0.03001461               -0.01303066
               7.53553016                0.16207581               83.70320952                0.93065346               -0.07115180               -0.08023922                0.26604377               -0.00911855                0.02046500               -0.00508154
               8.53481864                0.15946060               83.55347577                0.86109415               -0.06270914               -0.06262114                0.20963863               -0.00861868                0.04841063               -0.00474848
               9.53427598                0.15685177               83.40421776                0.86084329               -0.04585995               -0.04584397                0.15328109               -0.00838923                0.08689792               -0.00175226
              10.53390145                0.15423971               83.25519035                0.86067845               -0.02902974               -0.02891149                0.09692591               -0.00845167                0.10733467               -0.00093302
              11.53369538                0.15162450               83.10629735                0.86058195               -0.01216808               -0.01199922                0.04057002               -0.00846074                0.11802623               -0.00035339
              12.53365808                0.14900577               82.95745977                0.86055356                0.00471226                0.00491714               -0.01578858               -0.00846746                0.11997348                0.00010785
              13.53378963                0.14638347               82.80860146                0.86058788                0.02159813                0.02183371               -0.07215251               -0.00846634                0.11337570                0.00052573
              14.53409005                0.14375754               82.65964741                0.86068690                0.03848099                0.03874859               -0.12852380               -0.00846534                0.09828286                0.00094214
              15.53455925                0.14112762               82.51052245                0.86085547                0.05536234                0.05567836               -0.18490367               -0.00844429                0.07462346                0.00141711
              16.53519729                0.13849351               82.36115012                0.86110027                0.07221926                0.07252768               -0.24129161               -0.00865875                0.04180489                0.00200249
              17.53600364                0.13584903               82.21144343                0.93065158                0.08063418                0.09008947               -0.29768828               -0.00867665                0.02037048                0.00398533
               7.53805419                1.16127341               83.70025857                0.86129554               -0.07097107               -0.07992121                0.26492088               -0.00021920                0.01639021               -0.00355374
               8.53734448                1.15883439               83.55050346                0.72215969               -0.06258274               -0.06250816                0.20851185               -0.00006172                0.04567724               -0.00429492
               9.53680253                1.15639333               83.40125111                0.72165926               -0.04569564               -0.04563460                0.15215352               -0.00001854                0.08441796               -0.00092153
              10.53643056                1.15395059               83.25220744                0.72133693               -0.02873928               -0.02873145                0.09579320                0.00000271                0.10361749               -0.00009299
              11.53622775                1.15150451               83.10329562                0.72114950               -0.01183197               -0.01182361                0.03943124               -0.00002047                0.11409412                0.00004431
              12.53619392                1.14905494               82.95443785                0.72109125                0.00506688                0.00508887               -0.01693307               -0.00003173                0.11591965               -0.00010700
              13.53632908                1.14660181               82.80555869                0.72115661                0.02196988                0.02200304               -0.07330256               -0.00003532                0.10925513               -0.00037750
              14.53663332                1.14414502               82.65658354                0.72135602                0.03888701                0.03891782               -0.12967928               -0.00003515                0.09414165               -0.00065670
              15.53710682                1.14168440               82.50743780                0.72168635                0.05583386                0.05583915               -0.18606439               -0.00007588                0.07051113               -0.00080797
              16.53775000                1.13921878               82.35804551                0.72216400                0.07272593                0.07278063               -0.24245744               -0.00008154                0.03836712               -0.00056208
              17.53856134                1.13674993               82.20833219                0.86127947                0.08113437                0.09010627               -0.29885610                0.00018253                0.01756764                0.00106047
               7.54040384                2.16047738               83.69724440                0.86128151               -0.07063421               -0.07937806                0.26380537               -0.00024454                0.01323321               -0.00219544
               8.53969749                2.15821043               83.54746697                0.72212944               -0.06222174               -0.06226365                0.20739518               -0.00012982                0.04525584               -0.00271804
               9.53915940                2.15593908               83.39824744                0.72163333               -0.04535864               -0.04528130                0.15104439               -0.00010366                0.08527423               -0.00053222
              10.53879032                2.15366508               83.24920750                0.72131460               -0.02843874               -0.02838048                0.09467475               -0.00006619                0.10242066                0.00029253
              11.53859063                2.15138803               83.10028781                0.72113348               -0.01150859               -0.01147505                0.03829963               -0.00006781                0.11205933                0.00024869
              12.53856015                2.14910755               82.95141737                0.72107591                0.00541084                0.00543496               -0.01807921               -0.00008047                0.11351848               -0.00020545
              13.53869884                2.14682353               82.80252340                0.72114420                0.02233022                0.02234882               -0.07446325               -0.00008953                0.10670580               -0.00085464
              14.53900675                2.14453590               82.65353303                0.72133062                0.03925659                0.03926811               -0.13085454               -0.00010644                0.09163759               -0.00154573
              15.53948397                2.14224440               82.50437380                0.72165772                0.05616917                0.05620241               -0.18725352               -0.00013653                0.06839504               -0.00208923
              16.54013014                2.13994912               82.35497446                0.72212664                0.07305111                0.07322134               -0.24365752               -0.00013959                0.03724421               -0.00213255
              17.54094500                2.13765116               82.20526783                0.86125808                0.08148601                0.09026415               -0.30005884                0.00008553                0.01711159               -0.00124266
               7.54258319                3.15968585               83.69422762                0.86128187               -0.07030094               -0.07896348                0.26269051               -0.00021609                0.01359888                0.00296459
               8.54188018                3.15758911               83.54445321                0.72212912               -0.06186900               -0.06197277                0.20628163               -0.00011682                0.04553712                0.00213475
               9.54134581                3.15548770               83.39523544                0.72162659               -0.04499475               -0.04498681                0.14992723               -0.00015381                0.08555089                0.00164076
              10.54098029                3.15338298               83.24619890                0.72131083               -0.02809462               -0.02804830                0.09355028               -0.00012839                0.10245353                0.00130337
              11.54078392                3.15127501               83.09727653                0.72112497               -0.01117389               -0.01113123                0.03716403               -0.00012206                0.11157841                0.00066684
              12.54075681                3.14916364               82.94839963                0.72106631                0.00575138                0.00578435               -0.01922789               -0.00012767                0.11271939               -0.00022456
              13.54089895                3.14704879               82.79949702                0.72113423                0.02267582                0.02270437               -0.07562549               -0.00013635                0.10573349               -0.00129362
              14.54121033                3.14493039               82.65049711                0.72132833                0.03959612                0.03963545               -0.13202991               -0.00014625                0.09063583               -0.00247269
              15.54169087                3.14280845               82.50132903                0.72165576                0.05650616                0.05659374               -0.18844030               -0.00015065                0.06756075               -0.00366454
              16.54234045                3.14068321               82.35192386                0.72212333                0.07340524                0.07358494               -0.24485334               -0.00010767                0.03676630               -0.00473158
              17.54315897                3.13855521               82.20221587                0.86125554                0.08185250                0.09056655               -0.30125794                0.00011933                0.01683868               -0.00557952
               7.54459299                4.15889811               83.69122419                0.86128102               -0.06996892               -0.07859858                0.26157720               -0.00020105                0.01378191                0.00852510
               8.54389330                4.15697098               83.54144112                0.72212750               -0.06152707               -0.06164736                0.20516813               -0.00009366                0.04608565                0.00571658
               9.54336245                4.15503934               83.39222244                0.72162783               -0.04464283               -0.04467483                0.14880810               -0.00015318                0.08652369                0.00396787
              10.54300045                4.15310411               83.24318618                0.72130730               -0.02774634               -0.02772243                0.09242287               -0.00016048                0.10345163                0.00252159
              11.54280753                4.15116541               83.09426385                0.72112020               -0.01083155               -0.01079030                0.03602604               -0.00016493                0.11246047                0.00118835
              12.54278382                4.14922324               82.94538532                0.72106119                0.00609227                0.00613384               -0.02037800               -0.00016932                0.11340770               -0.00020313
              13.54292937                4.14727762               82.79647927                0.72113046                0.02301743                0.02306163               -0.07678877               -0.00016898                0.10622408               -0.00173992
              14.54324417                4.14532860               82.64747418                0.72132534                0.03993838                0.04000288               -0.13320491               -0.00016035                0.09094690               -0.00348360
              15.54372814                4.14337628               82.49829945                0.72165443                0.05685284                0.05696362               -0.18962558               -0.00013545                0.06772958               -0.00547459
              16.54438122                4.14142082               82.34888660                0.72212749                0.07376217                0.07393663               -0.24604545               -0.00008244                0.03683638               -0.00773644
              17.54520338                4.13946249               82.19917035                0.86125771                0.08221596                0.09089715               -0.30245176                0.00013575                0.01686033               -0.01027821
               7.54643344                5.15811388               83.68822664                0.86128155               -0.06963595               -0.07825475                0.26046392               -0.00019093                0.01413580                0.01324989
               8.54573708                5.15635617               83.53842675                0.72212541               -0.06119131               -0.06131424                0.20405367               -0.00006885                0.04708232                0.00865352
               9.54520961                5.15459421               83.38920457                0.72162448               -0.04430324               -0.04434419                0.14768786               -0.00013298                0.08838987                0.00578830
              10.54485101                5.15282854               83.24016933                0.72130519               -0.02740573               -0.02738708                0.09129434               -0.00016719                0.10563027                0.00354725
              11.54466150                5.15105920               83.09125018                0.72112143               -0.01049039               -0.01044828                0.03488710               -0.00019019                0.11473141                0.00164826
              12.54464121                5.14928632               82.94237494                0.72106110                0.00643510                0.00648151               -0.02152899               -0.00019694                0.11558856               -0.00016194
              13.54479020                5.14751002               82.79347068                0.72112935                0.02336293                0.02341430               -0.07795194               -0.00018563                0.10816780               -0.00210088
              14.54510847                5.14573044               82.64446453                0.72132349                0.04028738                0.04035958               -0.13437941               -0.00015646                0.09253126               -0.00436139
              15.54559595                5.14394772               82.49528478                0.72165509                0.05720609                0.05732099               -0.19080949               -0.00011216                0.06885171               -0.00712855
              16.54625259                5.14216194               82.34586200                0.72212451                0.07411995                0.07428956               -0.24723508               -0.00005831                0.03741833               -0.01057009
              17.54707835                5.14037315               82.19613029                0.86125824                0.08257594                0.09124271               -0.30364311                0.00014949                0.01714795               -0.01480690
               7.54810461                6.15733302               83.68522616                0.86128046               -0.06930064               -0.07792595                0.25934783               -0.00017815                0.01468967                0.01685904
               8.54741160                6.15574469               83.53540160                0.72212672               -0.06085924               -0.06097813                0.20293603               -0.00003694                0.04867521                0.01052359
               9.54688742                6.15415246               83.38617598                0.72162562               -0.04397457               -0.04399714                0.14656536               -0.00010263                0.09140361                0.00684030
              10.54653211                6.15255637               83.23714491                0.72130983               -0.02707422               -0.02703937                0.09016418               -0.00016368                0.10921962                0.00410205
              11.54634594                6.15095644               83.08823427                0.72112093               -0.01015239               -0.01010273                0.03374684               -0.00020400                0.11857880                0.00190285
              12.54632906                6.14935287               82.93936880                0.72106457                0.00677978                0.00682654               -0.02267992               -0.00021241                0.11940460               -0.00011613
              13.54648153                6.14774591               82.79047282                0.72113211                0.02371364                0.02375975               -0.07911426               -0.00019078                0.11168827               -0.00226668
              14.54680333                6.14613580               82.64147092                0.72132614                0.04064322                0.04070509               -0.13555248               -0.00014286                0.09549890               -0.00485354
              15.54729440                6.14452270               82.49228878                0.72165551                0.05756452                0.05766859               -0.19199079               -0.00008063                0.07101438               -0.00821207
              16.54795463                6.14290661               82.34285452                0.72212618                0.07447760                0.07464449               -0.24842190               -0.00002801                0.03856207               -0.01269124
              17.54878395                6.14128734               82.19310040                0.86125943                0.08293252                0.09160367               -0.30483257                0.00016703                0.01772850               -0.01857145
               7.54960652                7.15655536               83.68220968                0.86128133               -0.06896241               -0.07762230                0.25822612               -0.00015580                0.01551718                0.01883936
               8.54891690                7.15513660               83.53235329                0.72212604               -0.06053211               -0.06063021                0.20181220                0.00000544                0.05106733                0.01086967
               9.54839588                7.15371427               83.38312759                0.72162524               -0.04365699               -0.04362915                0.14543793               -0.00007523                0.09590886                0.00680245
              10.54804376                7.15228775               83.23410739                0.72131036               -0.02674789               -0.02668375                0.08903041               -0.00016618                0.11455403                0.00401047
              11.54786092                7.15085715               83.08521368                0.72112697               -0.00981344               -0.00975804                0.03260498               -0.00021128                0.12429208                0.00186435
              12.54784749                7.14942285               82.93636708                0.72106712                0.00712661                0.00716904               -0.02383093               -0.00021561                0.12511524               -0.00006892
              13.54800346                7.14798521               82.78748840                0.72113688                0.02406650                0.02410084               -0.08027444               -0.00018715                0.11704450               -0.00213796
              14.54832882                7.14654455               82.63849868                0.72132965                0.04100335                0.04104161               -0.13672198               -0.00012745                0.10011715               -0.00471361
              15.54882352                7.14510109               82.48931946                0.72165702                0.05792793                0.05800343               -0.19316756               -0.00004486                0.07445988               -0.00827648
              16.54948738                7.14365483               82.33987430                0.72212621                0.07483480                0.07499792               -0.24960333                0.00001372                0.04041529               -0.01346018
              17.55032022                7.14220523               82.19009160                0.86125764                0.08328391                0.09198818               -0.30601655                0.00019449                0.01868180               -0.02084585
               7.55093901                8.15578057               83.67915812                0.86127989               -0.06862039               -0.07737695                0.25709578               -0.00011529                0.01676362                0.01849039
               8.55025281                8.15453209               83.52926418                0.72212765               -0.06021191               -0.06023557                0.20067844                0.00003760                0.05460247                0.00899854
               9.54973477                8.15327988               83.38004716                0.72163285               -0.04334518               -0.04324762                0.14430222               -0.00009206                0.10244437                0.00545861
              10.54938590                8.15202270               83.23104982                0.72131898               -0.02640810               -0.02634213                0.08789125               -0.00017742                0.12209913                0.00321129
              11.54920661                8.15076128               83.08218540                0.72113401               -0.00946098               -0.00941982                0.03146064               -0.00020094                0.13223251                0.00150349
              12.54919668                8.14949625               82.93337001                0.72107478                0.00747421                0.00751023               -0.02498208               -0.00019314                0.13305209               -0.00002139
              13.54935609                8.14822792               82.78452098                0.72114264                0.02441117                0.02444431               -0.08143227               -0.00016755                0.12461156               -0.00166773
              14.54968491                8.14695663               82.63555547                0.72133455                0.04135603                0.04138112               -0.13788623               -0.00011472                0.10684749               -0.00378259
              15.55018322                8.14568276               82.48638954                0.72166050                0.05829298                0.05832588               -0.19433695               -0.00002554                0.07967221               -0.00689125
              16.55085077                8.14440657               82.33693861                0.72212836                0.07519179                0.07533224               -0.25077633                0.00006106                0.04330909               -0.01198011
              17.55168705                8.14312711               82.18712320                0.86125980                0.08362848                0.09242017               -0.30719146                0.00023937                0.02021223               -0.02056423
               7.55210118                9.15500782               83.67604436                0.86128033               -0.06828343               -0.07724954                0.25594975               -0.00012859                0.01852691                0.01363959
               8.55141835                9.15393189               83.52610807                0.72213234               -0.05988748               -0.05975953                0.19952844               -0.00002313                0.05997608                0.00458318
               9.55090343                9.15284931               83.37692132                0.72163980               -0.04297699               -0.04294140                0.14315442               -0.00012285                0.11198935                0.00303439
              10.55055881                9.15176091               83.22796545                0.72132599               -0.02600389               -0.02602074                0.08674363               -0.00015381                0.13237425                0.00179244
              11.55038335                9.15066875               83.07914642                0.72114427               -0.00909124               -0.00908776                0.03031203               -0.00013418                0.14274843                0.00084921
              12.55037698                9.14957306               82.93037777                0.72109093                0.00781851                0.00785335               -0.02613274               -0.00012274                0.14355014                0.00000823
              13.55053972                9.14847410               82.78157421                0.72115829                0.02473522                0.02479620               -0.08258604               -0.00010854                0.13480838               -0.00090692
              14.55087169                9.14737217               82.63264982                0.72134721                0.04166744                0.04173661               -0.13904177               -0.00008768                0.11634084               -0.00210887
              15.55137307                9.14626761               82.48351565                0.72167029                0.05862855                0.05867552               -0.19549432               -0.00002618                0.08763444               -0.00395694
              16.55204426                9.14516148               82.33407554                0.72213270                0.07554268                0.07562487               -0.25193490                0.00006579                0.04803225               -0.00725108
              17.55288393                9.14405363               82.18422749                0.86125859                0.08396686                0.09294319               -0.30835105                0.00024562                0.02274504               -0.01497478
               7.55308830               10.15423558               83.67280580                0.93064154               -0.06774482               -0.07722428                0.25477772                0.00884392                0.02468200                0.01189284
               8.55241085               10.15333690               83.52286083                0.86106997               -0.05925008               -0.05949926                0.19835497                0.00852405                0.06994535                0.00348652
               9.55190330               10.15242105               83.37374232                0.86082286               -0.04237333               -0.04282654                0.14198910                0.00825609                0.12548217                0.00286557
              10.55156339               10.15150228               83.22484905                0.86066816               -0.02557617               -0.02586231                0.08558386                0.00838183                0.14564370                0.00169411
              11.55139178               10.15057952               83.07609430                0.86057913               -0.00872541               -0.00892279                0.02915728                0.00839394                0.15609481                0.00071055
              12.55138888               10.14965331               82.92739023                0.86054994                0.00815163                0.00802598               -0.02728318                0.00840587                0.15686054               -0.00022332
              13.55155481               10.14872385               82.77865064                0.86058409                0.02503817                0.02497477               -0.08373258                0.00841085                0.14797912               -0.00119819
              14.55188964               10.14779136               82.62978842                0.86067881                0.04192867                0.04191917               -0.14018467                0.00841684                0.12920578               -0.00233206
              15.55239338               10.14685627               82.48071247                0.86083788                0.05882102                0.05886633               -0.19663367                0.00841620                0.09987326               -0.00384378
              16.55306606               10.14591906               82.33132232                0.86106679                0.07571369                0.07575871               -0.25307098                0.00866526                0.05757984               -0.00616653
              17.55390766               10.14498597               82.18147883                0.93062929                0.08415942                0.09323401               -0.30948593                0.00906364                0.03001367               -0.01305111
               7.68575069                0.16498156               84.70579221                0.93060641               -0.06698893               -0.07554569                0.25047802               -0.00858667                0.02048541               -0.00507935
               8.68508080                0.16239107               84.55551086                0.86102545               -0.05904101               -0.05895498                0.19736732               -0.00811705                0.04846407               -0.00474581
               9.68456987                0.15980657               84.40570576                0.86080739               -0.04317958               -0.04315943                0.14430823               -0.00790203                0.08698305               -0.00174625
              10.68421721                0.15721897               84.25613127                0.86066042               -0.02733632               -0.02721773                0.09125355               -0.00796161                0.10742317               -0.00092825
              11.68402315                0.15462840               84.10669120                0.86057677               -0.01146274               -0.01129577                0.03819922               -0.00797027                0.11811229               -0.00035092
              12.68398796                0.15203450               83.95730652                0.86054969                0.00442969                0.00462994               -0.01485891               -0.00797644                0.12005205                0.00010781
              13.68411174                0.14943724               83.80790106                0.86058095                0.02032863                0.02055559               -0.06792292               -0.00797470                0.11344206                0.00052258
              14.68439453                0.14683658               83.65839978                0.86066962                0.03622537                0.03647984               -0.12099539               -0.00797318                0.09833428                0.00093684
              15.68483625                0.14423220               83.50872749                0.86081628                0.05212018                0.05241830               -0.17407638               -0.00795237                0.07466002                0.00140986
              16.68543693                0.14162392               83.35880778                0.86103033                0.06799102                0.06828130               -0.22716454               -0.00815287                0.04182598                0.00199235
              17.68619607                0.13900593               83.20855361                0.93060555                0.07591342                0.08481551               -0.28025938               -0.00817001                0.02037812                0.00397665
               7.68825532                1.16422611               84.70283037                0.86120124               -0.06681838               -0.07524730                0.24942313               -0.00020792                0.01640322               -0.00353764
               8.68758713                1.16180152               84.55252762                0.72202441               -0.05892068               -0.05884859                0.19630811               -0.00006348                0.04572504               -0.00427874
               9.68707690                1.15937497               84.40272817                0.72158466               -0.04302267               -0.04296243                0.14324816               -0.00002788                0.08449688               -0.00090022
              10.68672668                1.15694680               84.25313738                0.72130365               -0.02706107               -0.02704845                0.09018817               -0.00001062                0.10369740               -0.00007697
              11.68653568                1.15451544               84.10367843                0.72113966               -0.01114536               -0.01113054                0.03712788               -0.00003382                0.11417188                0.00005230
              12.68650377                1.15208080               83.95427349                0.72108839                0.00476347                0.00479161               -0.01593557               -0.00004470                0.11599057               -0.00010805
              13.68663095                1.14964280               83.80484713                0.72114800                0.02067727                0.02071521               -0.06900439               -0.00004701                0.10931475               -0.00038805
              14.68691732                1.14720138               83.65532470                0.72131653                0.03660508                0.03663953               -0.12208113               -0.00004451                0.09418726               -0.00067653
              15.68736305                1.14475639               83.50563160                0.72160720                0.05256125                0.05257025               -0.17516600               -0.00007942                0.07054153               -0.00083696
              16.68796854                1.14230674               83.35569187                0.72202465                0.06846552                0.06852061               -0.22825824               -0.00008100                0.03838313               -0.00059853
              17.68873236                1.13985408               83.20543106                0.86118974                0.07638206                0.08483394               -0.28135514                0.00016906                0.01757170                0.00102269
               7.69059570                2.16347662               84.69980539                0.86119076               -0.06650302               -0.07473746                0.24837787               -0.00023322                0.01324222               -0.00216506
               8.68993067                2.16121410               84.54948031                0.72199942               -0.05858284               -0.05861898                0.19526070               -0.00013312                0.04530363               -0.00268642
               9.68942404                2.15894732               84.39971375                0.72156251               -0.04270705               -0.04263014                0.14220709               -0.00011843                0.08534913               -0.00049896
              10.68907653                2.15667800               84.25012659                0.72128486               -0.02677872               -0.02671834                0.08913739               -0.00008788                0.10248656                0.00031718
              11.68888847                2.15440579               84.10065963                0.72112314               -0.01084108               -0.01080237                0.03606317               -0.00009222                0.11212049                0.00026038
              12.68885971                2.15213033               83.95124189                0.72107469                0.00508738                0.00511775               -0.01701506               -0.00010480                0.11357210               -0.00020876
              13.68899022                2.14985155               83.80180056                0.72112940                0.02101715                0.02104156               -0.07009911               -0.00011178                0.10674845               -0.00087318
              14.68928005                2.14756937               83.65226277                0.72129962                0.03695426                0.03697064               -0.12319096               -0.00012331                0.09166695               -0.00158028
              15.68972930                2.14528361               83.50255603                0.72158371                0.05287827                0.05291431               -0.17629033               -0.00014487                0.06841158               -0.00213888
              16.69033762                2.14299434               83.35260915                0.72199521                0.06877265                0.06893877               -0.22939417               -0.00014007                0.03725243               -0.00219314
              17.69110475                2.14070261               83.20235500                0.86116717                0.07671388                0.08498786               -0.28249567                0.00007634                0.01711212               -0.00130740
               7.69277568                3.16273136               84.69677782                0.86119038               -0.06619123               -0.07434844                0.24733506               -0.00020775                0.01360760                0.00300522
               8.69211377                3.16062914               84.54645577                0.72199704               -0.05825257               -0.05834682                0.19421842               -0.00012510                0.04558169                0.00217598
               9.69161063                3.15852237               84.39669093                0.72155702               -0.04236609               -0.04235380                0.14116008               -0.00017249                0.08561780                0.00167559
              10.69126645                3.15641243               84.24710709                0.72128014               -0.02645602               -0.02640606                0.08808166               -0.00015413                0.10250726                0.00132802
              11.69108151                3.15429939               84.09763734                0.72111603               -0.01052655               -0.01047860                0.03499495               -0.00015153                0.11162431                0.00067782
              12.69105592                3.15218315               83.94821299                0.72106231                0.00540805                0.00544745               -0.01809766               -0.00015730                0.11275721               -0.00022941
              13.69118967                3.15006363               83.79876289                0.72112260                0.02134347                0.02137780               -0.07119675               -0.00016337                0.10576038               -0.00131511
              14.69148279                3.14794079               83.64921541                0.72129198                0.03727592                0.03731887               -0.12430345               -0.00016784                0.09065019               -0.00251051
              15.69193519                3.14581467               83.49949970                0.72158128                0.05319767                0.05328620               -0.17741571               -0.00016420                0.06756542               -0.00371648
              16.69254674                3.14368551               83.34954689                0.72199577                0.06910774                0.06928545               -0.23052850               -0.00011362                0.03676687               -0.00479423
              17.69331735                3.14155384               83.19929134                0.86116851                0.07706045                0.08527761               -0.28363433                0.00010682                0.01683378               -0.00564659
               7.69479597                4.16198965               84.69376362                0.86119065               -0.06588141               -0.07400660                0.24629626               -0.00019436                0.01378912                0.00857474
               8.69413716                4.16004717               84.54343290                0.72199793               -0.05793314               -0.05804296                0.19317805               -0.00010629                0.04612543                0.00576502
               9.69363731                4.15810024               84.39366709                0.72155585               -0.04203686               -0.04206190                0.14011258               -0.00017750                0.08658143                0.00400714
              10.69329642                4.15614988               84.24408344                0.72127407               -0.02612968               -0.02610035                0.08702465               -0.00019067                0.10349349                0.00254836
              11.69311471                4.15419622               84.09461361                0.72111216               -0.01020468               -0.01015787                0.03392520               -0.00019838                0.11249195                0.00120017
              12.69309233                4.15223928               83.94518751                0.72106112                0.00572963                0.00577719               -0.01918188               -0.00020299                0.11342961               -0.00020810
              13.69322931                4.15027910               83.79573383                0.72112101                0.02166613                0.02171594               -0.07229623               -0.00020010                0.10623561               -0.00176283
              14.69352565                4.14831575               83.64618104                0.72129082                0.03759950                0.03766772               -0.12541678               -0.00018658                0.09094824               -0.00352305
              15.69398130                4.14634933               83.49645858                0.72157901                0.05352627                0.05363831               -0.17854115               -0.00015484                0.06772396               -0.00552768
              16.69459617                4.14438005               83.34649802                0.72199355                0.06944677                0.06962112               -0.23166248               -0.00009308                0.03683122               -0.00779932
              17.69537023                4.14240816               83.19623419                0.86116912                0.07740585                0.08559351               -0.28477162                0.00012132                0.01685399               -0.01034453
               7.69665676                5.16125123               84.69075530                0.86119072               -0.06557091               -0.07368489                0.24525829               -0.00018512                0.01414225                0.01330570
               8.69600105                5.15946829               84.54040776                0.72199537               -0.05761991               -0.05773252                0.19213853               -0.00008462                0.04711762                0.00870683
               9.69550436                5.15768113               84.39063838                0.72155565               -0.04171968               -0.04175319                0.13906581               -0.00016179                0.08843815                0.00583125
              10.69516666                5.15589042               84.24105565                0.72127532               -0.02581082               -0.02578616                0.08596727               -0.00020076                0.10565958                0.00357646
              11.69498815                5.15409624               84.09158889                0.72111386               -0.00988435               -0.00983636                0.03285490               -0.00022625                0.11474835                0.00166137
              12.69496897                5.15229870               83.94216596                0.72106043                0.00605255                0.00610500               -0.02026639               -0.00023335                0.11559454               -0.00016612
              13.69510920                5.15049795               83.79271393                0.72112022                0.02199260                0.02204952               -0.07339560               -0.00022007                0.10816364               -0.00212284
              14.69540882                5.14869415               83.64315996                0.72129003                0.03792995                0.03800624               -0.12653004               -0.00018653                0.09251916               -0.00440026
              15.69586780                5.14688744               83.49343237                0.72157967                0.05386135                0.05397826               -0.17966577               -0.00013546                0.06883639               -0.00718135
              16.69648605                5.14507793               83.34346182                0.72199428                0.06978720                0.06995742               -0.23279524               -0.00007160                0.03740811               -0.01063229
              17.69726354                5.14326571               83.19318250                0.86117042                0.07774902                0.08592243               -0.28590772                0.00013421                0.01713943               -0.01487341
               7.69835815                6.16051595               84.68774405                0.86118902               -0.06525897               -0.07337787                0.24421970               -0.00017283                0.01469485                0.01691757
               8.69770556                6.15889252               84.53737181                0.72199567               -0.05731073               -0.05741998                0.19109782               -0.00005470                0.04870625                0.01057802
               9.69721194                6.15726518               84.38759892                0.72155476               -0.04141312               -0.04142942                0.13801798               -0.00013340                0.09144337                0.00688403
              10.69687730                6.15563416               84.23802029                0.72127440               -0.02550098               -0.02546057                0.08490891               -0.00019779                0.10923711                0.00413208
              11.69670192                6.15399949               84.08856192                0.72110888               -0.00956748               -0.00951179                0.03178428               -0.00024005                0.11858224                0.00191688
              12.69668595                6.15236138               83.93914864                0.72106212                0.00637690                0.00643015               -0.02135085               -0.00024886                0.11939627               -0.00011924
              13.69682945                6.15072009               83.78970477                0.72111957                0.02232391                0.02237592               -0.07449378               -0.00022563                0.11166944               -0.00228680
              14.69713243                6.14907587               83.64015493                0.72129384                0.03826732                0.03833350               -0.12764157               -0.00017422                0.09547362               -0.00488943
              15.69759480                6.14742890               83.49042486                0.72157865                0.05420215                0.05430825               -0.18078815               -0.00010576                0.07098900               -0.00826161
              16.69821647                6.14577919               83.34044276                0.72199545                0.07012815                0.07029443               -0.23392527               -0.00004246                0.03854552               -0.01274997
              17.69899736                6.14412661               83.19014098                0.86116926                0.07808939                0.08626393               -0.28704056                0.00015132                0.01771556               -0.01863370
               7.69990018                7.15978367               84.68471673                0.86118953               -0.06494441               -0.07309507                0.24317648               -0.00015092                0.01552161                0.01889617
               8.69925073                7.15831989               84.53431265                0.72199687               -0.05700630               -0.05709665                0.19005203               -0.00001228                0.05109530                0.01092065
               9.69876005                7.15685254               84.38453964                0.72155693               -0.04111711               -0.04108595                0.13696552               -0.00010373                0.09594185                0.00684330
              10.69842839                7.15538121               84.23497179                0.72127814               -0.02519620               -0.02512765                0.08384791               -0.00019632                0.11456188                0.00403880
              11.69825613                7.15390600               84.08553026                0.72111575               -0.00924995               -0.00918819                0.03071254               -0.00024295                0.12428406                0.00187820
              12.69824339                7.15242730               83.93613574                0.72106254                0.00670314                0.00675265               -0.02243505               -0.00024783                0.12509453               -0.00007110
              13.69839019                7.15094547               83.78670907                0.72112519                0.02265710                0.02269803               -0.07559044               -0.00021804                0.11701347               -0.00215592
              14.69869653                7.14946082               83.63717131                0.72129520                0.03860863                0.03865181               -0.12874927               -0.00015566                0.10008025               -0.00474568
              15.69916236                7.14797360               83.48744407                0.72158203                0.05454786                0.05462543               -0.18190590               -0.00006855                0.07442556               -0.00832059
              16.69978749                7.14648382               83.33745101                0.72199509                0.07046874                0.07062891               -0.23504918               -0.00000095                0.04039484               -0.01351246
              17.70057174                7.14499099               83.18712066                0.86117123                0.07842462                0.08662610               -0.28816545                0.00017823                0.01866843               -0.02090077
               7.70128270                8.15905405               84.68165425                0.86119086               -0.06462557               -0.07286742                0.24212317               -0.00011140                0.01676759                0.01853909
               8.70063644                8.15775058               84.53121258                0.72199685               -0.05670807               -0.05672870                0.18899556                0.00002271                0.05462926                0.00903898
               9.70014854                8.15644346               84.38144822                0.72156020               -0.04082648               -0.04072938                0.13590524               -0.00011198                0.10247452                0.00549126
              10.69981991                8.15513161               84.23190319                0.72128680               -0.02487836               -0.02480791                0.08278152               -0.00019867                0.12210137                0.00323458
              11.69965097                8.15381573               84.08249089                0.72112503               -0.00891927               -0.00887069                0.02963791               -0.00022427                0.13221596                0.00151512
              12.69964153                8.15249643               83.93312749                0.72107597                0.00703028                0.00707383               -0.02351910               -0.00021751                0.13302134               -0.00002275
              13.69979157                8.15117405               83.78373038                0.72113414                0.02298243                0.02302235               -0.07668460               -0.00019106                0.12457086               -0.00168207
              14.70010118                8.14984891               83.63421676                0.72130243                0.03894244                0.03897299               -0.12985248               -0.00013586                0.10680236               -0.00380866
              15.70057042                8.14852141               83.48450275                0.72158733                0.05489445                0.05493069               -0.18301623               -0.00004392                0.07963181               -0.00692622
              16.70119906                8.14719177               83.33450388                0.72199821                0.07080857                0.07094510               -0.23616408                0.00004711                0.04328571               -0.01202156
              17.70198659                8.14585913               83.18414080                0.86117017                0.07875303                0.08703321               -0.28928190                0.00022216                0.02019836               -0.02060995
               7.70250489                9.15832632               84.67852941                0.86119033               -0.06431053               -0.07275102                0.24105263               -0.00012229                0.01853100                0.01367005
               8.70186178                9.15718531               84.52804533                0.72200224               -0.05640486               -0.05628282                0.18792073               -0.00002866                0.06000479                0.00460521
               9.70137679                9.15603795               84.37831125                0.72156775               -0.04048147               -0.04044331                0.13483114               -0.00012971                0.11202302                0.00305372
              10.70105215                9.15488505               84.22880770                0.72129577               -0.02449852               -0.02450715                0.08170601               -0.00016298                0.13237786                0.00180640
              11.70088682                9.15372859               84.07944077                0.72113775               -0.00857179               -0.00855882                0.02855875               -0.00014654                0.14273055                0.00085627
              12.70088072                9.15256878               83.93012408                0.72108757                0.00735366                0.00739737               -0.02460341               -0.00013647                0.14351639                0.00000753
              13.70103389                9.15140591               83.78077240                0.72114775                0.02328745                0.02335487               -0.07777434               -0.00012209                0.13476394               -0.00091508
              14.70134646                9.15024028               83.63129985                0.72131215                0.03923663                0.03930968               -0.13094763               -0.00009893                0.11629321               -0.00212407
              15.70181862                9.14907222               83.48161758                0.72159377                0.05521231                0.05526212               -0.18411509               -0.00003596                0.08759341               -0.00397696
              16.70245071                9.14790273               83.33162952                0.72199878                0.07114201                0.07122273               -0.23726538                0.00005621                0.04800890               -0.00727460
              17.70324146                9.14673165               83.18123378                0.86117176                0.07907537                0.08752788               -0.29038508                0.00023031                0.02273188               -0.01500276
               7.70356227               10.15759903               84.67527948                0.93059469               -0.06380337               -0.07272906                0.23995336                0.00832798                0.02469223                0.01191227
               8.70292424               10.15662493               84.52478672                0.86100175               -0.05580336               -0.05603857                0.18682016                0.00802360                0.06998380                0.00349826
               9.70244620               10.15563459               84.37512095                0.86078903               -0.03991076               -0.04033623                0.13373751                0.00776822                0.12552805                0.00287758
              10.70212602               10.15464146               84.22568004                0.86065441               -0.02409429               -0.02435888                0.08061635                0.00788477                0.14565738                0.00170251
              11.70196432               10.15364455               84.07637744                0.86057401               -0.00822740               -0.00840381                0.02747227                0.00789558                0.15608639                0.00071488
              12.70196147               10.15264438               83.92712536                0.86055040                0.00766577                0.00756038               -0.02568797                0.00790576                0.15683532               -0.00022340
              13.70211763               10.15164115               83.77783768                0.86057851                0.02357100                0.02352375               -0.07885728                0.00791027                0.14794191               -0.00120212
              14.70243289               10.15063510               83.62842734                0.86066006                0.03948125                0.03948269               -0.13202959                0.00791773                0.12916473               -0.00234016
              15.70290726               10.14962665               83.47880332                0.86080036                0.05539301                0.05544312               -0.18519587                0.00791935                0.09983882               -0.00385443
              16.70354075               10.14861623               83.32886524                0.86100226                0.07130436                0.07135007               -0.23834487                0.00815616                0.05756248               -0.00617940
              17.70433334               10.14760969               83.17847408                0.93058526                0.07925911                0.08780337               -0.29146432                0.00853413                0.03000680               -0.01306842
               7.83650255                0.16789790               85.70821908                0.93056227               -0.06281779               -0.07084239                0.23488031               -0.00805417                0.02050780               -0.00507503
               8.83587438                0.16533217               85.55742312                0.86096049               -0.05536617               -0.05528062                0.18506991               -0.00761441                0.04852204               -0.00474243
               9.83539523                0.16277202               85.40710392                0.86077049               -0.04049556               -0.04046848                0.13531687               -0.00741360                0.08707645               -0.00173998
              10.83506447                0.16020894               85.25701542                0.86064395               -0.02564240               -0.02551991                0.08557172               -0.00747049                0.10752148               -0.00092348
              11.83488238                0.15764303               85.10706133                0.86057440               -0.01076015               -0.01059032                0.03582699               -0.00747919                0.11820582               -0.00034873
              12.83484926                0.15507399               84.95716259                0.86054858                0.00414173                0.00434275               -0.01392340               -0.00748504                0.12013396                0.00010749
              13.83496522                0.15250179               84.80724300                0.86057678                0.01905193                0.01927574               -0.06368197               -0.00748302                0.11350848                0.00051957
              14.83523030                0.14992642               84.65722750                0.86065128                0.03396157                0.03420736               -0.11345025               -0.00748032                0.09838318                0.00093014
              15.83564445                0.14734760               84.50704092                0.86077964                0.04886982                0.04915239               -0.16322727               -0.00745900                0.07469201                0.00139934
              16.83620770                0.14476517               84.35660683                0.86096479                0.06375421                0.06402701               -0.21301077               -0.00764560                0.04184309                0.00197887
              17.83691953                0.14217367               84.20583824                0.93056030                0.07118358                0.07953164               -0.26279729               -0.00766262                0.02038341                0.00396131
               7.83898774                1.16718948               85.70524703                0.86111787               -0.06265697               -0.07056366                0.23389257               -0.00019696                0.01641766               -0.00351800
               8.83836117                1.16477937               85.55442962                0.72190002               -0.05525157               -0.05518078                0.18407755               -0.00006548                0.04577716               -0.00426077
               9.83788271                1.16236734               85.40411607                0.72151623               -0.04034594               -0.04028399                0.13432404               -0.00003765                0.08458415               -0.00087777
              10.83755425                1.15995374               85.25401121                0.72127239               -0.02538221               -0.02536133                0.08457331               -0.00002497                0.10378725               -0.00006068
              11.83737507                1.15753713               85.10403818                0.72113231               -0.01046112               -0.01043533                0.03482263               -0.00004871                0.11425759                0.00005967
              12.83734503                1.15511741               84.95411913                0.72108582                0.00445510                0.00449459               -0.01493277               -0.00005931                0.11606651               -0.00011017
              13.83746417                1.15269455               84.80417860                0.72113660                0.01937811                0.01942583               -0.06469530               -0.00006033                0.10937673               -0.00040049
              14.83773259                1.15026850               84.65414192                0.72128485                0.03431586                0.03435784               -0.11446660               -0.00005523                0.09423292               -0.00070017
              15.83815049                1.14783912               84.50393448                0.72153386                0.04928058                0.04929613               -0.16424608               -0.00008398                0.07057145               -0.00087175
              16.83871821                1.14540544               84.35348035                0.72190058                0.06419583                0.06425332               -0.21403102               -0.00008094                0.03839846               -0.00064342
              17.83943440                1.14296899               84.20270509                0.86110386                0.07161975                0.07955266               -0.26381901                0.00015524                0.01757438                0.00097165
               7.84131884                2.16648663               85.70221196                0.86110444               -0.06236308               -0.07008764                0.23291860               -0.00022230                0.01325249               -0.00212863
               8.84069521                2.16422856               85.55137218                0.72187719               -0.05493680               -0.05496629                0.18309950               -0.00013773                0.04535591               -0.00265085
               9.84022010                2.16196634               85.40109159                0.72149559               -0.04005185               -0.03997287                0.13335138               -0.00013535                0.08543262               -0.00046323
              10.83989417                2.15970171               85.25099025                0.72125285               -0.02511848               -0.02505204                0.08359014               -0.00011227                0.10256228                0.00034282
              11.83971773                2.15743433               85.10100907                0.72111473               -0.01017584               -0.01012741                0.03382447               -0.00011981                0.11219010                0.00027153
              12.83969066                2.15516388               84.95107707                0.72107010                0.00475972                0.00480116               -0.01594676               -0.00013238                0.11363196               -0.00021387
              13.83981293                2.15289031               84.80112141                0.72112261                0.01969836                0.01973329               -0.06572547               -0.00013679                0.10679465               -0.00089656
              14.84008462                2.15061358               84.65106922                0.72126633                0.03464497                0.03467068               -0.11551268               -0.00014311                0.09169800               -0.00162203
              15.84050583                2.14833352               84.50084799                0.72151270                0.04957962                0.04962236               -0.16530777               -0.00015668                0.06842873               -0.00219813
              16.84107621                2.14605023               84.35038658                0.72187263                0.06448547                0.06465088               -0.21510641               -0.00014283                0.03725952               -0.00226721
              17.84179554                2.14376472               84.19961792                0.86108530                0.07193229                0.07970524               -0.26490180                0.00006643                0.01711015               -0.00138961
               7.84349944                3.16578772               85.69917432                0.86110674               -0.06207353               -0.06972518                0.23195050               -0.00019973                0.01361775                0.00305502
               8.84287871                3.16368004               85.54833757                0.72187298               -0.05462967               -0.05471357                0.18213044               -0.00013528                0.04563055                0.00222404
               9.84240685                3.16156788               85.39805865                0.72149018               -0.03973416               -0.03971510                0.13237538               -0.00019478                0.08569293                0.00171492
              10.84208402                3.15945270               85.24796053                0.72124891               -0.02481717               -0.02475982                0.08260361               -0.00018382                0.10257070                0.00135543
              11.84191050                3.15733458               85.09797643                0.72110577               -0.00988112               -0.00982368                0.03282377               -0.00018520                0.11167900                0.00068921
              12.84188640                3.15521344               84.94803767                0.72106374                0.00506137                0.00511139               -0.01696394               -0.00019155                0.11280059               -0.00023618
              13.84201173                3.15308922               84.79807308                0.72111457                0.02000589                0.02005090               -0.06675988               -0.00019525                0.10579034               -0.00134154
              14.84228652                3.15096191               84.64801104                0.72126249                0.03494832                0.03500096               -0.11656378               -0.00019430                0.09066705               -0.00255632
              15.84271070                3.14883157               84.49778072                0.72150774                0.04988142                0.04997645               -0.16637385               -0.00018229                0.06757182               -0.00378065
              16.84328415                3.14669845               84.34731329                0.72187152                0.06480259                0.06498336               -0.21618423               -0.00012271                0.03676871               -0.00487195
              17.84400675                3.14456309               84.19654319                0.86108456                0.07226035                0.07998587               -0.26598585                0.00009328                0.01683064               -0.00573182
               7.84553022                4.16509212               85.69615012                0.86110545               -0.06178657               -0.06940758                0.23098894               -0.00018823                0.01379761                0.00863527
               8.84491235                4.16313428               85.54530468                0.72187379               -0.05433335               -0.05443225                0.18116581               -0.00012178                0.04616904                0.00582203
               9.84444355                4.16117204               85.39502469                0.72148736               -0.03942788               -0.03944409                0.13140197               -0.00020662                0.08664685                0.00405269
              10.84412379                4.15920652               85.24492667                0.72124583               -0.02451285               -0.02447457                0.08161792               -0.00022612                0.10354383                0.00257942
              11.84395329                4.15723785               85.09494235                0.72110153               -0.00958016               -0.00952306                0.03182236               -0.00023768                0.11253062                0.00121327
              12.84393219                4.15526611               84.94500168                0.72106162                0.00536296                0.00542165               -0.01798237               -0.00024312                0.11345567               -0.00021453
              13.84406055                4.15329133               84.79503335                0.72110855                0.02030960                0.02037044               -0.06779628               -0.00023826                0.10624851               -0.00178954
              14.84433838                4.15131360               84.64496584                0.72125917                0.03525430                0.03533217               -0.11761765               -0.00021948                0.09094962               -0.00356959
              15.84476564                4.14933305               84.49472863                0.72150717                0.05019289                0.05031245               -0.16744314               -0.00017926                0.06771858               -0.00559248
              16.84534224                4.14734990               84.34425335                0.72186784                0.06512456                0.06530537               -0.21726511               -0.00010664                0.03682684               -0.00787789
              17.84606813                4.14536444               84.19347492                0.86108699                0.07258892                0.08029004               -0.26707348                0.00010568                0.01684783               -0.01043016
               7.84741136                5.16439957               85.69313180                0.86110425               -0.06150005               -0.06910927                0.23003111               -0.00018004                0.01414937                0.01337278
               8.84679636                5.16259139               85.54226952                0.72186944               -0.05404366               -0.05414561                0.18020461               -0.00010396                0.04715571                0.00877003
               9.84633048                5.16077900               85.39198588                0.72149012               -0.03913352               -0.03915795                0.13043040               -0.00019641                0.08849257                0.00588174
              10.84601369                5.15896321               85.24188867                0.72124435               -0.02421620               -0.02418195                0.08063317               -0.00024083                0.10569536                0.00361053
              11.84584616                5.15714412               85.09190728                0.72110396               -0.00928117               -0.00922212                0.03082134               -0.00026944                0.11477001                0.00167692
              12.84582806                5.15532187               84.94196962                0.72105856                0.00566568                0.00572984               -0.01900066               -0.00027726                0.11560251               -0.00017102
              13.84595947                5.15349662               84.79200277                0.72111177                0.02061707                0.02068526               -0.06883258               -0.00026187                0.10815862               -0.00214829
              14.84624041                5.15166855               84.64193393                0.72125834                0.03556683                0.03565293               -0.11867093               -0.00022323                0.09250446               -0.00444534
              15.84667081                5.14983782               84.49169147                0.72150796                0.05051095                0.05063585               -0.16851098               -0.00016390                0.06881817               -0.00724301
              16.84725062                5.14800456               84.34120610                0.72187137                0.06544859                0.06562601               -0.21834383               -0.00008777                0.03739612               -0.01070646
              17.84797978                5.14616889               84.19041213                0.86108665                0.07291589                0.08060330               -0.26815733                0.00011727                0.01712959               -0.01495198
               7.84914297                6.16370994               85.69011056                0.86110272               -0.06121249               -0.06882484                0.22907345               -0.00016836                0.01470056                0.01698722
               8.84853085                6.16205137               85.53922356                0.72187245               -0.05375827               -0.05385756                0.17924410               -0.00007584                0.04873879                0.01064330
               9.84806781                6.16038888               85.38893634                0.72148747               -0.03884978               -0.03885810                0.12945958               -0.00017043                0.09148623                0.00693586
              10.84775385                6.15872288               85.23884309                0.72124511               -0.02392836               -0.02387910                0.07964872               -0.00023934                0.10925805                0.00416765
              11.84758924                6.15705341               85.08886995                0.72110428               -0.00898565               -0.00891891                0.02982145               -0.00028382                0.11858653                0.00193425
              12.84757414                6.15538070               84.93894178                0.72105888                0.00596951                0.00603505               -0.02001845               -0.00029323                0.11938561               -0.00012223
              13.84770863                6.15370503               84.78898295                0.72111240                0.02092908                0.02099290               -0.06986776               -0.00026821                0.11164637               -0.00230980
              14.84799272                6.15202666               84.63891809                0.72126152                0.03588595                0.03596236               -0.11972252               -0.00021212                0.09544252               -0.00493077
              15.84842635                6.15034577               84.48867302                0.72151149                0.05083448                0.05094832               -0.16957568               -0.00013577                0.07095813               -0.00831802
              16.84900941                6.14866242               84.33817602                0.72187208                0.06577312                0.06594495               -0.21941756               -0.00006003                0.03852699               -0.01281641
              17.84974181                6.14697651               84.18735959                0.86108608                0.07324016                0.08092486               -0.26923392                0.00013389                0.01770374               -0.01870216
               7.85072513                7.16302308               85.68707321                0.86110334               -0.06092244               -0.06856322                0.22811156               -0.00014676                0.01552584                0.01896232
               8.85011590                7.16151424               85.53615433                0.72187236               -0.05347767               -0.05355943                0.17827899               -0.00003322                0.05112234                0.01098149
               9.84965557                7.16000183               85.38586690                0.72148652               -0.03857654               -0.03853983                0.12848549               -0.00013856                0.09597460                0.00689201
              10.84934437                7.15848563               85.23578435                0.72124804               -0.02364567               -0.02356958                0.07866286               -0.00023437                0.11456952                0.00407286
              11.84918266                7.15696574               85.08582793                0.72110747               -0.00868969               -0.00861690                0.02882106               -0.00028329                0.12427178                0.00189513
              12.84917058                7.15544257               84.93591837                0.72106355                0.00627488                0.00633731               -0.02103520               -0.00028895                0.12506576               -0.00007228
              13.84930816                7.15391648               84.78597659                0.72111546                0.02124254                0.02129601               -0.07090129               -0.00025784                0.11697296               -0.00217530
              14.84959543                7.15238780               84.63592369                0.72126266                0.03620879                0.03626277               -0.12077093               -0.00019153                0.10003390               -0.00478107
              15.85003233                7.15085679               84.48568134                0.72151196                0.05116287                0.05124788               -0.17063628               -0.00009772                0.07438278               -0.00836881
              16.85061868                7.14932346               84.33517332                0.72187155                0.06609780                0.06626022               -0.22048569               -0.00001882                0.04036977               -0.01356833
              17.85135429                7.14778739               84.18432830                0.86108759                0.07356037                0.08126418               -0.27030343                0.00016083                0.01865412               -0.02095819
               7.85215770                8.16233867               85.68400059                0.86110546               -0.06062783               -0.06835372                0.22713825               -0.00010758                0.01677134                0.01859465
               8.85155143                8.16098018               85.53304410                0.72187438               -0.05320251               -0.05321899                0.17730308                0.00000529                0.05465353                0.00908754
               9.85109365                8.15961808               85.38276527                0.72149490               -0.03830842               -0.03820889                0.12750360               -0.00013716                0.10250063                0.00553161
              10.85078526                8.15825148               85.23270545                0.72125677               -0.02335126               -0.02327218                0.07767153               -0.00022679                0.12209808                0.00326288
              11.85062663                8.15688107               85.08277816                0.72111761               -0.00838190               -0.00832047                0.02781780               -0.00025577                0.13219013                0.00152942
              12.85061762                8.15550745               84.93289963                0.72107409                0.00658080                0.00663826               -0.02205145               -0.00025050                0.13297726               -0.00002310
              13.85075825                8.15413095               84.78298729                0.72112246                0.02154836                0.02160087               -0.07193154               -0.00022285                0.12451461               -0.00169688
              14.85104859                8.15275191               84.63295842                0.72126843                0.03652447                0.03656534               -0.12181397               -0.00016422                0.10674239               -0.00383636
              15.85148873                8.15137073               84.48272922                0.72151693                0.05149218                0.05153575               -0.17168958               -0.00006734                0.07957921               -0.00696385
              16.85207843                8.14998763               84.33221533                0.72187396                0.06642182                0.06655786               -0.22154455                0.00003113                0.04325521               -0.01206490
              17.85281717                8.14860179               84.18133757                0.86108676                0.07387404                0.08164542               -0.27136280                0.00020483                0.02018141               -0.02065483
               7.85343996                9.16165600               85.68086542                0.86110550               -0.06033578               -0.06824934                0.22614645               -0.00011562                0.01853519                0.01370511
               8.85283660                9.16044986               85.52986648                0.72187637               -0.05292147               -0.05280450                0.17630791               -0.00003578                0.06003036                0.00463243
               9.85238153                9.15923766               85.37961795                0.72150283               -0.03798768               -0.03794405                0.12650728               -0.00014009                0.11204903                0.00307759
              10.85207685                9.15802018               85.22959957                0.72126632               -0.02299741               -0.02299241                0.07667023               -0.00017668                0.13236996                0.00182329
              11.85192158                9.15679933               85.07971760                0.72113159               -0.00805800               -0.00802911                0.02680967               -0.00016435                0.14269718                0.00086505
              12.85191569                9.15557534               84.92988571                0.72108731                0.00688283                0.00694191               -0.02306866               -0.00015553                0.14346323                0.00000721
              13.85205924                9.15434850               84.78001872                0.72113421                0.02183421                0.02191418               -0.07295808               -0.00014020                0.13469840               -0.00092406
              14.85235237                9.15311911               84.63003086                0.72127822                0.03680183                0.03688322               -0.12284970               -0.00011429                0.11622438               -0.00214068
              15.85279527                9.15188750               84.47983334                0.72152423                0.05179361                0.05184891               -0.17273237               -0.00004832                0.08753392               -0.00399965
              16.85338824                9.15065462               84.32933023                0.72187897                0.06673905                0.06682013               -0.22259116                0.00004622                0.04797484               -0.00730099
              17.85413005                9.14942030               84.17841979                0.86108738                0.07418116                0.08211039               -0.27240965                0.00021584                0.02271349               -0.01503102
               7.85456767               10.16097369               85.67760487                0.93055192               -0.05986132               -0.06823135                0.22512405                0.00781178                0.02470055                0.01193443
               8.85396906               10.15992409               85.52659723                0.86093814               -0.05235676               -0.05257696                0.17528393                0.00752139                0.07001631                0.00351232
               9.85352053               10.15885920               85.37641707                0.86075469               -0.03745038               -0.03784547                0.12548825                0.00727783                0.12556310                0.00289069
              10.85322005               10.15779164               85.22646137                0.86063866               -0.02261733               -0.02285450                0.07565266                0.00738471                0.14565591                0.00171196
              11.85306819               10.15672049               85.07664374                0.86057057               -0.00773536               -0.00788425                0.02579290                0.00739336                0.15605701                0.00071991
              12.85306534               10.15564629               84.92687647                0.86055021                0.00717415                0.00709508               -0.02408670                0.00740295                0.15678453               -0.00022379
              13.85321167               10.15456924               84.77707349                0.86057315                0.02209791                0.02207366               -0.07397852                0.00740796                0.14787776               -0.00120717
              14.85350730               10.15348958               84.62714783                0.86064447                0.03702932                0.03704698               -0.12387277                0.00741641                0.12909619               -0.00234919
              15.85395226               10.15240770               84.47700855                0.86076551                0.05196290                0.05202028               -0.17375846                0.00742102                0.09977933               -0.00386705
              16.85454656               10.15132403               84.32655542                0.86094071                0.06689351                0.06694096               -0.22361851                0.00764632                0.05752906               -0.00619459
              17.85529013               10.15024400               84.17564955                0.93054500                0.07435696                0.08237001               -0.27343664                0.00800447                0.02999021               -0.01308679
               7.98775277                0.17082415               86.71048981                0.93052124               -0.05863739               -0.06612846                0.21924716               -0.00752097                0.02053288               -0.00507165
               8.98716640                0.16828322               86.55921226                0.86090092               -0.05168381               -0.05159757                0.17274445               -0.00711105                0.04858741               -0.00474013
               9.98671910                0.16574746               86.40841209                0.86073787               -0.03780840               -0.03777106                0.12630765               -0.00692431                0.08718255               -0.00173388
              10.98641023                0.16320893               86.25784271                0.86062909               -0.02395031               -0.02381786                0.07988215               -0.00697839                0.10763250               -0.00091900
              11.98624009                0.16066773               86.10740774                0.86056944               -0.01006330               -0.00988269                0.03345559               -0.00698708                0.11830885               -0.00034670
              12.98620897                0.15812356               85.95702805                0.86055012                0.00384529                0.00405540               -0.01297872               -0.00699269                0.12021986                0.00010687
              13.98631700                0.15557644               85.80662742                0.86057096                0.01776533                0.01799390               -0.05942601               -0.00699013                0.11357240                0.00051539
              14.98656427                0.15302635               85.65613077                0.86063420                0.03168802                0.03193119               -0.10588632               -0.00698635                0.09842512                0.00092232
              15.98695076                0.15047307               85.50546295                0.86074374                0.04561020                0.04588110               -0.15235648               -0.00696479                0.07471549                0.00138689
              16.98747648                0.14791647               85.35454756                0.86090306                0.05950802                0.05976510               -0.19883026               -0.00713706                0.04185319                0.00196228
              17.98814092                0.14535147               85.20329766                0.93051988                0.06644412                0.07423734               -0.24530059               -0.00715451                0.02038273                0.00394106
               7.99021850                1.17016287               86.70750822                0.86103396               -0.05848635               -0.06586973                0.21832706               -0.00018618                0.01643601               -0.00349468
               8.98963363                1.16776724               86.55620917                0.72178249               -0.05157499               -0.05150451                0.17181869               -0.00006790                0.04583784               -0.00424136
               9.98918700                1.16536975               86.40541465                0.72145295               -0.03766591               -0.03759914                0.12538139               -0.00004805                0.08468477               -0.00085475
              10.98888032                1.16297075               86.25482884                0.72124316               -0.02370465               -0.02366996                0.07895003               -0.00003962                0.10389010               -0.00004424
              11.98871290                1.16056890               86.10437488                0.72112227               -0.00978166               -0.00973796                0.03251747               -0.00006386                0.11435378                0.00006677
              12.98868468                1.15816412               85.95397484                0.72108643                0.00413974                0.00419759               -0.01392196               -0.00007436                0.11614805               -0.00011383
              13.98879570                1.15575638               85.80355322                0.72112689                0.01807046                0.01813481               -0.06037251               -0.00007423                0.10943966               -0.00041601
              14.98904609                1.15334567               85.65303537                0.72125497                0.03201755                0.03207286               -0.10683355               -0.00006681                0.09427686               -0.00072840
              15.98943605                1.15093188               85.50234668                0.72146627                0.04599079                0.04601700               -0.15330306               -0.00008956                0.07059897               -0.00091413
              16.98996591                1.14851412               85.35141125                0.72178132                0.05991622                0.05997920               -0.19977492               -0.00008190                0.03841329               -0.00069924
              17.99063437                1.14609384               85.20015468                0.86102299                0.06684674                0.07426238               -0.24624525                0.00014016                0.01757746                0.00090536
               7.99254030                2.16950676               86.70446376                0.86102526               -0.05821424               -0.06542861                0.21742606               -0.00021149                0.01326551               -0.00208247
               8.99195816                2.16725313               86.55314230                0.72175953               -0.05128367               -0.05130585                0.17091131               -0.00014288                0.04541620               -0.00260934
               9.99151463                2.16499548               86.40238078                0.72143002               -0.03739330               -0.03730970                0.12447814               -0.00015322                0.08553033               -0.00042421
              10.99121029                2.16273553               86.25179839                0.72122515               -0.02345880               -0.02338173                0.07803446               -0.00013768                0.10265257                0.00037009
              11.99104545                2.16047297               86.10133612                0.72110734               -0.00951457               -0.00945026                0.03158538               -0.00014854                0.11227120                0.00028273
              12.99102000                2.15820751               85.95092296                0.72106995                0.00442560                0.00448511               -0.01487182               -0.00016166                0.11369867               -0.00022173
              13.99113396                2.15593913               85.80048605                0.72111039                0.01837149                0.01842427               -0.06134003               -0.00016456                0.10684398               -0.00092484
              14.99138743                2.15366781               85.64995252                0.72123377                0.03232735                0.03236873               -0.10781870               -0.00016617                0.09172913               -0.00167257
              15.99178051                2.15139341               85.49924988                0.72144877                0.04627248                0.04632724               -0.15430524               -0.00017136                0.06844520               -0.00227195
              16.99231288                2.14911605               85.34830702                0.72175465                0.06018857                0.06035896               -0.20079366               -0.00014795                0.03726803               -0.00236287
              17.99298428                2.14683672               85.19705697                0.86100683                0.06714013                0.07441801               -0.24727669                0.00005520                0.01711053               -0.00150093
               7.99472153                3.16885430               86.70141683                0.86102552               -0.05794722               -0.06509439                0.21653560               -0.00019200                0.01363066                0.00311702
               8.99414206                3.16674113               86.55009838                0.72175990               -0.05099985               -0.05107361                0.17001739               -0.00014673                0.04568724                0.00228092
               9.99370153                3.16462356               86.39933844                0.72142812               -0.03709899               -0.03707124                0.12357455               -0.00021896                0.08578194                0.00176058
              10.99340008                3.16250312               86.24875916                0.72121928               -0.02317888               -0.02310999                0.07711813               -0.00021588                0.10264889                0.00138602
              11.99323795                3.16037989               86.09829381                0.72110038               -0.00923965               -0.00916645                0.03065197               -0.00022171                0.11174507                0.00070140
              12.99321528                3.15825382               85.94787371                0.72106012                0.00470792                0.00477656               -0.01582481               -0.00022947                0.11285122               -0.00024508
              13.99333211                3.15612486               85.79742769                0.72110600                0.01866043                0.01872421               -0.06231275               -0.00023129                0.10582381               -0.00137349
              14.99358849                3.15399304               85.64688414                0.72123104                0.03261343                0.03268263               -0.10881142               -0.00022504                0.09068358               -0.00261256
              15.99398438                3.15185843               85.49617223                0.72144390                0.04655772                0.04666614               -0.15531696               -0.00020464                0.06757652               -0.00386018
              16.99451965                3.14972130               85.34522321                0.72175613                0.06048888                0.06068100               -0.20182203               -0.00013463                0.03677031               -0.00497295
              17.99519416                3.14758220               85.19397162                0.86100826                0.06745119                0.07469474               -0.24831677                0.00007859                0.01682814               -0.00584790
               7.99676280                4.16820487               86.69838340                0.86102622               -0.05768386               -0.06480277                0.21565509               -0.00018243                0.01380914                0.00870968
               8.99618596                4.16623166               86.54705622                0.72175530               -0.05072720               -0.05081603                0.16913131               -0.00013927                0.04622077                0.00588972
               9.99574826                4.16425406               86.39629513                0.72142609               -0.03681615               -0.03682176                0.12267667               -0.00023943                0.08672500                0.00410589
              10.99544964                4.16227333               86.24571579                0.72121873               -0.02289696               -0.02284545                0.07620408               -0.00026588                0.10360689                0.00261494
              11.99529032                4.16028964               86.09525006                0.72109686               -0.00895977               -0.00888595                0.02971924               -0.00028177                0.11257944                0.00122806
              12.99527044                4.15830305               85.94482786                0.72105623                0.00498991                0.00506783               -0.01677832               -0.00028877                0.11348794               -0.00022211
              13.99539012                4.15631362               85.79437791                0.72110193                0.01894608                0.01902602               -0.06328800               -0.00028201                0.10626347               -0.00182154
              14.99564936                4.15432146               85.64382869                0.72122851                0.03290207                0.03299758               -0.10980801               -0.00025775                0.09094970               -0.00362607
              15.99604816                4.15232673               85.49310972                0.72144312                0.04685246                0.04698798               -0.15633288               -0.00020865                0.06771014               -0.00567124
              16.99658641                4.15032967               85.34215272                0.72175240                0.06079477                0.06099205               -0.20285447               -0.00012320                0.03682030               -0.00797531
              17.99726405                4.14833061               85.19089272                0.86100505                0.06776381                0.07499038               -0.24935945                0.00008895                0.01684101               -0.01053945
               7.99866431                5.16755824               86.69535592                0.86102456               -0.05742217               -0.06452912                0.21478101               -0.00017554                0.01415864                0.01345400
               8.99809009                5.16572481               86.54401186                0.72175605               -0.05046204               -0.05055421                0.16825184               -0.00012607                0.04720035                0.00884501
               9.99765507                5.16388712               86.39324698                0.72142658               -0.03654553               -0.03655898                0.12178318               -0.00023630                0.08855749                0.00594027
              10.99735917                5.16204621               86.24266832                0.72121831               -0.02262306               -0.02257486                0.07529355               -0.00028716                0.10574152                0.00365028
              11.99720261                5.16020218               86.09220532                0.72109262               -0.00868240               -0.00860579                0.02878846               -0.00031961                0.11479938                0.00169511
              12.99718553                5.15835518               85.94178595                0.72105520                0.00527236                0.00535647               -0.01773047               -0.00032853                0.11561428               -0.00017611
              13.99730805                5.15650538               85.79133728                0.72109951                0.01923467                0.01932286               -0.06426292               -0.00031138                0.10815325               -0.00217731
              14.99757022                5.15465299               85.64078654                0.72122477                0.03319717                0.03330190               -0.11080464               -0.00026765                0.09248641               -0.00449738
              15.99797200                5.15279819               85.49006215                0.72143940                0.04715429                0.04729643               -0.15734836               -0.00019857                0.06879587               -0.00731508
              16.99851331                5.15094114               85.33909495                0.72175351                0.06110347                0.06129874               -0.20388371               -0.00010760                0.03738184               -0.01079310
              17.99919407                5.14908201               85.18781935                0.86100768                0.06807591                0.07528967               -0.25039611                0.00009926                0.01711925               -0.01504602
               8.00042616                6.16691429               86.69232551                0.86102358               -0.05716012               -0.06426787                0.21390807               -0.00016452                0.01470792                0.01706919
               8.99985456                6.16522057               86.54095669                0.72175578               -0.05020162               -0.05029144                0.16737441               -0.00010057                0.04877576                0.01071978
               9.99942213                6.16352288               86.39018811                0.72142561               -0.03628576               -0.03628382                0.12089210               -0.00021392                0.09153654                0.00699680
              10.99912884                6.16182184               86.23961327                0.72122009               -0.02235839               -0.02229525                0.07438531               -0.00028859                0.10928564                0.00420972
              11.99897496                6.16011752               86.08915835                0.72109705               -0.00840891               -0.00832415                0.02786022               -0.00033641                0.11859384                0.00195503
              12.99896066                6.15841017               85.93874827                0.72106068                0.00555557                0.00564147               -0.01868071               -0.00034654                0.11937367               -0.00012434
              13.99908607                6.15670008               85.78830741                0.72110532                0.01952713                0.01961171               -0.06523528               -0.00031960                0.11161777               -0.00233470
              14.99935121                6.15498750               85.63776048                0.72122877                0.03349823                0.03359371               -0.11179771               -0.00025841                0.09540426               -0.00497666
              15.99975604                6.15327266               85.48703334                0.72144180                0.04746164                0.04759200               -0.15835910               -0.00017267                0.07092079               -0.00838083
              17.00030044                6.15155565               85.33605440                0.72175549                0.06141336                0.06160021               -0.20490554               -0.00008172                0.03850395               -0.01288998
              18.00098430                6.14983640               85.18475630                0.86100772                0.06838623                0.07559184               -0.25142176                0.00011516                0.01768917               -0.01877840
               8.00204845                7.16627288               86.68927896                0.86102366               -0.05689619               -0.06402777                0.21303121               -0.00014320                0.01553074                0.01903891
               9.00147949                7.16471898               86.53787823                0.72175659               -0.04994617               -0.05001947                0.16649418               -0.00005827                0.05115213                0.01105313
              10.00104953                7.16316145               86.38710934                0.72142709               -0.03603653               -0.03599158                0.12000013               -0.00018054                0.09601106                0.00694998
              11.00075876                7.16160030               86.23654505                0.72121915               -0.02209936               -0.02200959                0.07347700               -0.00028079                0.11457810                0.00411355
              12.00060754                7.16003569               86.08610668                0.72110011               -0.00813568               -0.00804410                0.02693296               -0.00033301                0.12425636                0.00191617
              13.00059604                7.15846800               85.93571503                0.72106467                0.00583975                0.00592319               -0.01962914               -0.00033976                0.12502880               -0.00007190
              14.00072433                7.15689762               85.78529104                0.72110700                0.01982110                0.01989532               -0.06620496               -0.00030673                0.11691960               -0.00219555
              15.00099247                7.15532487               85.63475589                0.72123471                0.03380306                0.03387551               -0.11278668               -0.00023511                0.09997371               -0.00481968
              16.00140039                7.15375003               85.48403134                0.72144758                0.04777334                0.04787310               -0.15936290               -0.00013286                0.07432878               -0.00842151
              17.00194793                7.15217315               85.33304130                0.72175467                0.06172328                0.06189543               -0.20591944               -0.00004013                0.04033776               -0.01362817
              18.00263486                7.15059385               85.18171459                0.86100915                0.06869284                0.07590704               -0.25243757                0.00014225                0.01863551               -0.02101628
               8.00353111                8.16563373               86.68619702                0.86102442               -0.05662783               -0.06383735                0.21214377               -0.00010429                0.01677563                0.01865828
               9.00296483                8.16422018               86.53475865                0.72176033               -0.04969594               -0.04970770                0.16560381               -0.00001594                0.05467783                0.00914585
              10.00253719                8.16280305               86.38399829                0.72143115               -0.03579243               -0.03568705                0.11910029               -0.00016933                0.10252522                0.00557927
              11.00224898                8.16138164               86.23345662                0.72122970               -0.02182953               -0.02173533                0.07256422               -0.00026317                0.12209017                0.00329666
              12.00210060                8.15995664               86.08304725                0.72110856               -0.00785184               -0.00776939                0.02600366               -0.00029597                0.13215484                0.00154755
              13.00209195                8.15852864               85.93268646                0.72107137                0.00612376                0.00620363               -0.02057697               -0.00029234                0.13291819               -0.00002190
              14.00222307                8.15709798               85.78229175                0.72111392                0.02010753                0.02018052               -0.06717184               -0.00026288                0.12443873               -0.00171226
              15.00249410                8.15566501               85.63178048                0.72123811                0.03410118                0.03415932               -0.11377137               -0.00019949                0.10666148               -0.00386633
              16.00290510                8.15423013               85.48106896                0.72145097                0.04808619                0.04814301               -0.16036107               -0.00009577                0.07950902               -0.00700411
              17.00345582                8.15279356               85.33007299                0.72175958                0.06203249                0.06217335               -0.20692437                0.00001264                0.04321464               -0.01210892
              18.00414575                8.15135454               85.17871355                0.86100894                0.06899287                0.07626033               -0.25344129                0.00018692                0.02015965               -0.02069496
               8.00487346                9.16499614               86.68305234                0.86102613               -0.05636057               -0.06374627                0.21123630               -0.00010879                0.01853981                0.01374477
               9.00430986                9.16372482               86.53157149                0.72176216               -0.04943920               -0.04932573                0.16469354               -0.00004488                0.06005265                0.00466615
              10.00388468                9.16244771               86.38084140                0.72143869               -0.03549802               -0.03544417                0.11818572               -0.00015477                0.11206766                0.00310649
              11.00359990                9.16116560               86.23034110                0.72123634               -0.02150271               -0.02147756                0.07164082               -0.00019606                0.13235164                0.00184344
              12.00345463                9.15988031               86.07997697                0.72112505               -0.00755212               -0.00749921                0.02506878               -0.00018795                0.14264752                0.00087608
              13.00344885                9.15859208               85.92966271                0.72108800                0.00640386                0.00648692               -0.02152550               -0.00018035                0.14338684                0.00000788
              14.00358270                9.15730123               85.77931324                0.72112750                0.02037388                0.02047444               -0.06813528               -0.00016373                0.13460414               -0.00093352
              15.00385633                9.15600805               85.62884286                0.72125137                0.03436155                0.03445862               -0.11474918               -0.00013411                0.11612630               -0.00215870
              16.00426993                9.15471289               85.47816293                0.72145768                0.04837168                0.04843810               -0.16135070               -0.00006431                0.08745062               -0.00402340
              17.00482377                9.15341661               85.32717770                0.72176263                0.06233463                0.06241980               -0.20791904                0.00003425                0.04792708               -0.00732565
              18.00551663                9.15211905               85.17578558                0.86101001                0.06928599                0.07669411               -0.25443285                0.00020126                0.02268912               -0.01505173
               8.00607156               10.16435881               86.67978196                0.93051313               -0.05591961               -0.06373291                0.21029459                0.00729581                0.02470910                0.01195809
               9.00551236               10.16323367               86.52829239                0.86088185               -0.04891200               -0.04911546                0.16375111                0.00701833                0.07004369                0.00352985
              10.00509332               10.16209416               86.37763072                0.86072375               -0.03499512               -0.03535448                0.11724591                0.00678530                0.12558629                0.00290705
              11.00481246               10.16095209               86.22719310                0.86062240               -0.02114796               -0.02135051                0.07069918                0.00688126                0.14563848                0.00172257
              12.00467036               10.15980666               86.07689330                0.86056522               -0.00725235               -0.00736481                0.02412398                0.00688782                0.15600532                0.00072585
              13.00466742               10.15865838               85.92664363                0.86055045                0.00667318                0.00662994               -0.02247559                0.00689676                0.15670213               -0.00022346
              14.00480382               10.15750747               85.77635811                0.86057023                0.02061695                0.02062433               -0.06909312                0.00690264                0.14777504               -0.00121249
              15.00507975               10.15635418               85.62594989                0.86062862                0.03457134                0.03461317               -0.11571461                0.00691297                0.12898837               -0.00235841
              16.00549525               10.15519889               85.47532815                0.86073368                0.04852928                0.04860000               -0.16232444                0.00692031                0.09968733               -0.00387930
              17.00605034               10.15404195               85.32439287                0.86088374                0.06248215                0.06253409               -0.20889901                0.00713433                0.05747666               -0.00620625
              18.00674489               10.15288843               85.17300534                0.93050573                0.06945550                0.07693744               -0.25541257                0.00747417                0.02996500               -0.01309518
               8.13946831                0.17375966               87.71260402                0.93048319               -0.05444677               -0.06140258                0.20357322               -0.00698623                0.02056239               -0.00506508
               9.13892384                0.17124355               87.56087801                0.86084342               -0.04799379               -0.04790531                0.16038860               -0.00660621                0.04866333               -0.00473716
              10.13850844                0.16873223               87.40963008                0.86070420               -0.03511875               -0.03506712                0.11728069               -0.00643343                0.08730621               -0.00172807
              11.13822147                0.16621829               87.25861306                0.86061702               -0.02226106               -0.02211186                0.07418626               -0.00648462                0.10776115               -0.00091476
              12.13806321                0.16370182               87.10773045                0.86056567               -0.00937465               -0.00917331                0.03108883               -0.00649332                0.11842485               -0.00034450
              13.13803398                0.16118256               86.95690302                0.86055040                0.00353672                0.00376795               -0.01202076               -0.00649878                0.12031053                0.00010579
              14.13813395                0.15866050               86.80605448                0.86056806                0.01646509                0.01670992               -0.05515044               -0.00649622                0.11363108                0.00051063
              15.13836328                0.15613567               86.65510978                0.86062231                0.02940093                0.02965090               -0.09829889               -0.00649164                0.09845360                0.00091292
              16.13872197                0.15360787               86.50399380                0.86071317                0.04233840                0.04260378               -0.14145968               -0.00646973                0.07472237                0.00137171
              17.13921005                0.15107704               86.35263023                0.86084770                0.05525082                0.05549536               -0.18462075               -0.00662750                0.04185084                0.00194065
              18.13982698                0.14853847               86.20093223                0.93048273                0.06169382                0.06893245               -0.22776608               -0.00664548                0.02037304                0.00390987
               8.14191456                1.17314563               87.70961358                0.86095788               -0.05430588               -0.06116461                0.20272183               -0.00017526                0.01645713               -0.00346441
               9.14137150                1.17076450               87.55786599                0.72166876               -0.04789110               -0.04781960                0.15952987               -0.00006995                0.04590847               -0.00421859
              10.14095673                1.16838156               87.40662370                0.72139181               -0.03498348               -0.03490800                0.11642077               -0.00005737                0.08480301               -0.00082972
              11.14067183                1.16599717               87.25559021                0.72121577               -0.02202928               -0.02197467                0.07331963               -0.00005291                0.10401073               -0.00002731
              12.14051615                1.16361009               87.10468853                0.72111669               -0.00910895               -0.00903876                0.03021532               -0.00007774                0.11446316                0.00007346
              13.14048965                1.16122024               86.95384070                0.72108475                0.00381409                0.00390070               -0.01290003               -0.00008859                0.11623618               -0.00011905
              14.14059243                1.15882760               86.80297115                0.72111869                0.01675130                0.01684207               -0.05603218               -0.00008811                0.10950183               -0.00043480
              15.14082467                1.15643218               86.65200525                0.72122598                0.02970783                0.02978458               -0.09917895               -0.00007919                0.09431473               -0.00076307
              16.14118659                1.15403391               86.50086842                0.72140362                0.04269002                0.04273315               -0.14233472               -0.00009636                0.07061957               -0.00096645
              17.14167848                1.15163199               86.34948485                0.72167092                0.05562563                0.05569906               -0.18548897               -0.00008408                0.03842449               -0.00077131
              18.14229910                1.14922779               86.19778018                0.86094910                0.06206244                0.06896449               -0.22863330                0.00012400                0.01757895                0.00081223
               8.14422707                2.17253637               87.70656048                0.86095065               -0.05405536               -0.06076043                0.20189660               -0.00020066                0.01328169               -0.00202389
               9.14368652                2.17028716               87.55479041                0.72165333               -0.04762279               -0.04763809                0.15869456               -0.00014756                0.04548765               -0.00256050
              10.14327462                2.16803407               87.40358115                0.72137118               -0.03473193               -0.03464099                0.11558736               -0.00016977                0.08564664               -0.00038039
              11.14299188                2.16577880               87.25255094                0.72120045               -0.02180116               -0.02170767                0.07247130               -0.00016140                0.10276108                0.00039970
              12.14283860                2.16352105               87.10164078                0.72109924               -0.00885948               -0.00877107                0.02934830               -0.00017590                0.11236698                0.00029377
              13.14281469                2.16126057               86.95077963                0.72106879                0.00408244                0.00416971               -0.01378762               -0.00019035                0.11377382               -0.00023213
              14.14292024                2.15899734               86.79989461                0.72110567                0.01703445                0.01711465               -0.05693959               -0.00019284                0.10689460               -0.00095962
              15.14315538                2.15673136               86.64891284                0.72120557                0.02999924                0.03006560               -0.10010704               -0.00019102                0.09175791               -0.00173525
              16.14352023                2.15446254               86.49776189                0.72138478                0.04295521                0.04303066               -0.14328324               -0.00018856                0.06845812               -0.00236483
              17.14401449                2.15219102               86.34637071                0.72164824                0.05588168                0.05606547               -0.18645847               -0.00015512                0.03727278               -0.00248739
              18.14463786                2.14991776               86.19467239                0.86093392                0.06233769                0.06912950               -0.22962396                0.00004283                0.01710735               -0.00165431
               8.14640896                3.17193043               87.70350503                0.86095083               -0.05381115               -0.06045722                0.20108753               -0.00018422                0.01364684                0.00319581
               9.14587084                3.16981174               87.55173792                0.72164777               -0.04736256               -0.04742805                0.15787823               -0.00015826                0.04575529                0.00234851
              10.14546170                3.16768874               87.40053014                0.72136650               -0.03446100               -0.03442307                0.11475800               -0.00024328                0.08589061                0.00181274
              11.14518162                3.16556302               87.24950290                0.72119461               -0.02154240               -0.02145694                0.07162570               -0.00024789                0.10274605                0.00142046
              12.14503086                3.16343467               87.09858947                0.72109404               -0.00860393               -0.00850703                0.02848142               -0.00025845                0.11182603                0.00071473
              13.14500955                3.16130363               86.94772118                0.72106112                0.00434632                0.00444294               -0.01467751               -0.00026824                0.11291092               -0.00025632
              14.14511778                3.15916989               86.79682683                0.72109482                0.01730566                0.01739852               -0.05785393               -0.00026947                0.10585975               -0.00141193
              15.14535566                3.15703349               86.64583481                0.72120131                0.03026881                0.03036570               -0.10104604               -0.00025926                0.09069888               -0.00268086
              16.14572316                3.15489453               86.49467438                0.72138138                0.04322477                0.04335804               -0.14424672               -0.00023056                0.06757840               -0.00396011
              17.14622015                3.15275330               86.34327685                0.72164731                0.05616601                0.05638194               -0.18744465               -0.00014929                0.03676848               -0.00510322
              18.14684648                3.15061038               86.19157685                0.86093519                0.06263253                0.06940844               -0.23062894                0.00006252                0.01682189               -0.00600282
               8.14846076                4.17132722               87.70046322                0.86095295               -0.05357216               -0.06019427                0.20029302               -0.00017682                0.01382372                0.00880141
               9.14792504                4.16933860               87.54868731                0.72164640               -0.04711447               -0.04719589                0.15707432               -0.00015772                0.04628305                0.00596967
              10.14751847                4.16734561               87.39747823                0.72136569               -0.03420226               -0.03419634                0.11393811               -0.00027376                0.08682214                0.00416752
              11.14724100                4.16534966               87.24645075                0.72119266               -0.02128303               -0.02121391                0.07078503               -0.00030741                0.10368922                0.00265552
              12.14709281                4.16335090               87.09553674                0.72108711               -0.00834480               -0.00824685                0.02761774               -0.00032818                0.11264278                0.00124532
              13.14707410                4.16134943               86.94466611                0.72105821                0.00460901                0.00471562               -0.01556678               -0.00033723                0.11352853               -0.00023092
              14.14718499                4.15934531               86.79376759                0.72109669                0.01757311                0.01768383               -0.05877012               -0.00032949                0.10628039               -0.00185879
              15.14742556                4.15733868               86.64276968                0.72119911                0.03054072                0.03066628               -0.10198873               -0.00030074                0.09094689               -0.00369298
              16.14779581                4.15532970               86.49160197                0.72138200                0.04350405                0.04366843               -0.14521461               -0.00024274                0.06769717               -0.00576759
              17.14829564                4.15331866               86.34019626                0.72164644                0.05645707                0.05668576               -0.18843540               -0.00014322                0.03681015               -0.00809782
              18.14892495                4.15130593               86.18848773                0.86093458                0.06293056                0.06970041               -0.23163580                0.00007070                0.01683175               -0.01068053
               8.15038266                5.17072654               87.69742742                0.86095109               -0.05333603               -0.05994694                0.19950652               -0.00017142                0.01417147                0.01355035
               9.14984930                5.16886782               87.54563456                0.72164587               -0.04687460               -0.04696012                0.15627949               -0.00015038                0.04725508                0.00893174
              10.14944517                5.16700481               87.39442155                0.72136528               -0.03395625               -0.03395776                0.11312516               -0.00027962                0.08863958                0.00600814
              11.14917018                5.16513874               87.24339454                0.72119185               -0.02103259               -0.02096588                0.06995051               -0.00033756                0.10580448                0.00369632
              12.14902452                5.16326973               87.09248305                0.72108807               -0.00808929               -0.00798787                0.02675867               -0.00037461                0.11484077                0.00171679
              13.14900839                5.16139794               86.94161501                0.72105671                0.00487129                0.00498490               -0.01645317               -0.00038557                0.11563103               -0.00018054
              14.14912195                5.15952357               86.79071751                0.72109258                0.01784320                0.01796306               -0.05968432               -0.00036722                0.10814576               -0.00220945
              15.14936526                5.15764682               86.63971784                0.72120039                0.03081878                0.03095491               -0.10293045               -0.00031796                0.09246153               -0.00455704
              16.14973832                5.15576789               86.48854450                0.72138088                0.04379025                0.04396321               -0.14618065               -0.00023856                0.06876575               -0.00740025
              17.15024106                5.15388702               86.33712843                0.72164676                0.05675166                0.05698069               -0.18942053               -0.00013095                0.03736207               -0.01089736
              18.15087336                5.15200439               86.18540421                0.86093644                0.06322933                0.06998872               -0.23263254                0.00008002                0.01710569               -0.01516019
               8.15217477                6.17012828               87.69438872                0.86094927               -0.05310114               -0.05970956                0.19872304               -0.00016126                0.01471807                0.01716348
               9.15164376                6.16839940               87.54257105                0.72164815               -0.04664053               -0.04672338                0.15548914               -0.00012879                0.04882125                0.01080773
              10.15124196                6.16666645               87.39135418                0.72136844               -0.03372171               -0.03370781                0.11231710               -0.00026312                0.09160082                0.00706692
              11.15096933                6.16493034               87.24033080                0.72119078               -0.02079227               -0.02070991                0.06912092               -0.00034460                0.10932594                0.00425844
              12.15082612                6.16319115               87.08942716                0.72108915               -0.00783895               -0.00772812                0.02590394               -0.00039665                0.11860921                0.00198026
              13.15081255                6.16144913               86.93856816                0.72105763                0.00513288                0.00524967               -0.01733532               -0.00040870                0.11936243               -0.00012443
              14.15092878                6.15970457               86.78767824                0.72109470                0.01811648                0.01823319               -0.06059475               -0.00038034                0.11158260               -0.00236010
              15.15117488                6.15795777               86.63668214                0.72120053                0.03110312                0.03122935               -0.10386722               -0.00031332                0.09535395               -0.00502559
              16.15155084                6.15620896               86.48550583                0.72138377                0.04408254                0.04424222               -0.14713999               -0.00021621                0.07087110               -0.00844926
              17.15205653                6.15445827               86.33407791                0.72164880                0.05704815                0.05726504               -0.19039484               -0.00010674                0.03847451               -0.01297095
              18.15269180                6.15270570               86.18233115                0.86093590                0.06352712                0.07027159               -0.23361201                0.00009557                0.01767236               -0.01886108
               8.15383721                7.16953235               87.69133383                0.86094974               -0.05286521               -0.05949101                0.19793617               -0.00014001                0.01553887                0.01912553
               9.15330856                7.16793335               87.53948421                0.72165025               -0.04641215               -0.04647808                0.15469801               -0.00008732                0.05118799                0.01113555
              10.15290897                7.16633066               87.38826690                0.72136578               -0.03349834               -0.03344195                0.11151029               -0.00022976                0.09605580                0.00701663
              11.15263859                7.16472454               87.23725389                0.72119380               -0.02055843               -0.02044864                0.06829356               -0.00033568                0.11459369                0.00416119
              12.15249780                7.16311517               87.08636659                0.72109460               -0.00758996               -0.00747037                0.02505186               -0.00039196                0.12424283                0.00194218
              13.15248679                7.16150294               86.93552579                0.72106233                0.00539465                0.00551045               -0.01821413               -0.00040020                0.12498618               -0.00006913
              14.15260569                7.15988823               86.78465249                0.72109875                0.01839040                0.01849697               -0.06150062               -0.00036527                0.11685350               -0.00221511
              15.15285460                7.15827140               86.63366796                0.72120130                0.03139037                0.03149226               -0.10479809               -0.00028818                0.09989615               -0.00485887
              16.15323350                7.15665274               86.48249408                0.72138537                0.04437943                0.04450446               -0.14809047               -0.00017580                0.07425751               -0.00847388
              17.15374219                7.15503232               86.33105493                0.72165131                0.05734538                0.05753878               -0.19135667               -0.00006549                0.04029508               -0.01368637
              18.15438041                7.15340982               86.17927954                0.86093633                0.06382181                0.07056001               -0.23457446                0.00012279                0.01861203               -0.02106936
               8.15536997                8.16893846               87.68824346                0.86094953               -0.05262560               -0.05931953                0.19713975               -0.00010090                0.01678075                0.01872982
               9.15484371                8.16746984               87.53635617                0.72164864               -0.04618925               -0.04619584                0.15389909               -0.00004096                0.05470434                0.00921335
              10.15444618                8.16599761               87.38514728                0.72137352               -0.03328028               -0.03316471                0.11069803               -0.00020852                0.10255246                0.00563514
              11.15417810                8.16452137               87.23415674                0.72120059               -0.02031481               -0.02019826                0.06746342               -0.00030783                0.12208193                0.00333725
              12.15403988                8.16304174               87.08329824                0.72110168               -0.00733123               -0.00721804                0.02419927               -0.00034551                0.13211205                0.00156996
              13.15403148                8.16155934               86.93248809                0.72106891                0.00565593                0.00576970               -0.01909162               -0.00034351                0.13284339               -0.00001823
              14.15415300                8.16007451               86.78164385                0.72110824                0.01865653                0.01876182               -0.06240318               -0.00031198                0.12433975               -0.00172670
              15.15440461                8.15858762               86.63068299                0.72121269                0.03167031                0.03175628               -0.10572400               -0.00024319                0.10655392               -0.00389616
              16.15478641                8.15709905               86.47952200                0.72138786                0.04467637                0.04475509               -0.14903447               -0.00013144                0.07941520               -0.00704371
              17.15529814                8.15560905               86.32807684                0.72164949                0.05764184                0.05779510               -0.19230988               -0.00001041                0.04315937               -0.01214867
              18.15593925                8.15411690               86.17626874                0.86093876                0.06411088                0.07088218               -0.23552419                0.00016814                0.02013011               -0.02072328
               8.15677245                9.16834596               87.68509014                0.86094921               -0.05238588               -0.05924281                0.19632376               -0.00010158                0.01854394                0.01378849
               9.15624859                9.16700944               87.53316035                0.72165276               -0.04595904               -0.04584788                0.15308103               -0.00005676                0.06007384                0.00470616
              10.15585327                9.16566736               87.38198166                0.72137894               -0.03301401               -0.03294541                0.10987167               -0.00017424                0.11208281                0.00314087
              11.15558831                9.16432058               87.23103239                0.72120769               -0.02001738               -0.01996362                0.06662298               -0.00022111                0.13232444                0.00186813
              12.15545292                9.16297081               87.08021898                0.72111288               -0.00705797               -0.00696978                0.02334131               -0.00021838                0.14258096                0.00088961
              13.15544715                9.16161833               86.92945520                0.72108572                0.00591252                0.00603219               -0.01996951               -0.00021242                0.14328437                0.00001039
              14.15557117                9.16026347               86.77865602                0.72111813                0.01890238                0.01903608               -0.06330285               -0.00019449                0.13447501               -0.00094218
              15.15582520                9.15890653               86.62773588                0.72122077                0.03191365                0.03203663               -0.10664479               -0.00016059                0.11598901               -0.00217598
              16.15620944                9.15754784               86.47660633                0.72139613                0.04494675                0.04503142               -0.14997289               -0.00008526                0.08733277               -0.00404675
              17.15672413                9.15618822               86.32517185                0.72165309                0.05793096                0.05802514               -0.19325757                0.00001928                0.04785949               -0.00734873
              18.15736806                9.15482746               86.17333113                0.86093789                0.06439298                0.07128360               -0.23646636                0.00018667                0.02265568               -0.01506366
               8.15804098               10.16775361               87.68181076                0.93047481               -0.05198068               -0.05923503                0.19547107                0.00677997                0.02471709                0.01198296
               9.15752117               10.16655288               87.52987225                0.86082876               -0.04547107               -0.04565574                0.15222755                0.00651297                0.07006644                0.00355066
              10.15713156               10.16533871               87.37876199                0.86069380               -0.03254668               -0.03286556                0.10901717                0.00628958                0.12560005                0.00292536
              11.15687024               10.16412209               87.22787536                0.86060945               -0.01968968               -0.01984815                0.06576267                0.00637465                0.14560479                0.00173527
              12.15673776               10.16290234               87.07712622                0.86056316               -0.00678351               -0.00684613                0.02247200                0.00637850                0.15592765                0.00073255
              13.15673457               10.16167998               86.92642696                0.86054758                0.00615756                0.00616503               -0.02085000                0.00638613                0.15658347               -0.00022207
              14.15686091               10.16045523               86.77569163                0.86056569                0.01912299                0.01917649               -0.06419811                0.00639285                0.14762580               -0.00121698
              15.15711703               10.15922835               86.62483354                0.86061548                0.03210502                0.03218224               -0.10755610                0.00640517                0.12882882               -0.00236605
              16.15750301               10.15799968               86.47376207                0.86070062                0.04509356                0.04518398               -0.15090006                0.00641695                0.09954664               -0.00388917
              17.15801890               10.15676955               86.32237744                0.86082992                0.05807355                0.05813311               -0.19419769                0.00662108                0.05739263               -0.00621639
              18.15866449               10.15554257               86.17054130                0.93047073                0.06455872                0.07151071               -0.23740784                0.00694452                0.02992289               -0.01309732
               8.29161605                0.17670375               88.71456128                0.93044873               -0.05024427               -0.05666216                0.18785123               -0.00644964                0.02059695               -0.00505585
               9.29111361                0.17421250               88.56242004                0.86079108               -0.04429456               -0.04420310                0.14799981               -0.00609840                0.04875241               -0.00473331
              10.29073016                0.17172565               88.41075771                0.86067791               -0.03242629               -0.03235642                0.10823544               -0.00593950                0.08745112               -0.00172185
              11.29046509                0.16923635               88.25932643                0.86060433               -0.02057646               -0.02040175                0.06848574               -0.00598774                0.10791135               -0.00091027
              12.29031863                0.16674466               88.10802952                0.86056181               -0.00869740               -0.00846259                0.02873102               -0.00599673                0.11855750               -0.00034211
              13.29029114                0.16425032               87.95678764                0.86055107                0.00321120                0.00347976               -0.01104355               -0.00600245                0.12040720                0.00010479
              14.29038286                0.16175332               87.80552441                0.86056331                0.01514474                0.01542350               -0.05084797               -0.00600014                0.11368180                0.00050503
              15.29059403                0.15925367               87.65416479                0.86060595                0.02709476                0.02736704               -0.09068232               -0.00599511                0.09846132                0.00090099
              16.29092475                0.15675125               87.50263375                0.86068403                0.03905120                0.03932097               -0.13053376               -0.00597293                0.07470201                0.00135148
              17.29137506                0.15424604               87.35085515                0.86079608                0.05098101                0.05121771               -0.17038059               -0.00611616                0.04182706                0.00191057
              18.29194437                0.15173376               87.19874234                0.93044542                0.05693168                0.06361679               -0.21019249               -0.00613559                0.02034865                0.00386157
               8.29404280                1.17613713               88.71156265                0.86088902               -0.05011277               -0.05644611                0.18706710               -0.00016447                0.01648372               -0.00342361
               9.29354168                1.17377047               88.55939977                0.72156846               -0.04419798               -0.04412556                0.14720635               -0.00007056                0.04599321               -0.00419115
              10.29315884                1.17140209               88.40774307                0.72133732               -0.03229872               -0.03221059                0.10744059               -0.00006367                0.08494264               -0.00080268
              11.29289570                1.16903233               88.25629524                0.72119088               -0.02035819               -0.02027563                0.06768308               -0.00006234                0.10415184               -0.00000960
              12.29275168                1.16666004               88.10497918                0.72110924               -0.00844572               -0.00833813                0.02791935               -0.00008747                0.11458847                0.00008018
              13.29272679                1.16428512               87.95371684                0.72108672                0.00347512                0.00360337               -0.01186238               -0.00009923                0.11633153               -0.00012579
              14.29282118                1.16190755               87.80243258                0.72111115                0.01541637                0.01554753               -0.05166907               -0.00009956                0.10956111               -0.00045721
              15.29303511                1.15952734               87.65105179                0.72119688                0.02738284                0.02749363               -0.09149892               -0.00009052                0.09434203               -0.00080559
              16.29336884                1.15714446               87.49949999                0.72134732                0.03937620                0.03944543               -0.13133925               -0.00010362                0.07062721               -0.00103387
              17.29382264                1.15475822               87.34770147                0.72156929                0.05132266                0.05141361               -0.17117141               -0.00008732                0.03842801               -0.00086730
              18.29439529                1.15236993               87.19558201                0.86088175                0.05726542                0.06365975               -0.21098054                0.00010659                0.01757705                0.00068120
               8.29634607                2.17557483               88.70850169                0.86088345               -0.04988354               -0.05608269                0.18632245               -0.00018956                0.01330194               -0.00194536
               9.29584724                2.17332999               88.55631619                0.72155394               -0.04395235               -0.04396356                0.14644512               -0.00015034                0.04557297               -0.00250089
              10.29546703                2.17108144               88.40469252                0.72131369               -0.03206765               -0.03196754                0.10667806               -0.00018146                0.08578642               -0.00033047
              11.29520589                2.16883084               88.25324782                0.72117209               -0.02014658               -0.02003078                0.06690236               -0.00017888                0.10289351                0.00043222
              12.29506410                2.16657790               88.10192308                0.72109408               -0.00821234               -0.00809050                0.02711589               -0.00019665                0.11248168                0.00030542
              13.29504164                2.16432239               87.95064720                0.72106341                0.00372748                0.00385460               -0.01269021               -0.00021368                0.11385993               -0.00024480
              14.29513865                2.16206427               87.79934726                0.72109571                0.01568367                0.01580485               -0.05252095               -0.00021794                0.10694679               -0.00100119
              15.29535531                2.15980354               87.64795038                0.72118625                0.02765797                0.02776211               -0.09237446               -0.00021534                0.09177896               -0.00181232
              16.29569181                2.15754016               87.49638421                0.72132868                0.03962629                0.03973428               -0.13224087               -0.00020789                0.06846105               -0.00248432
              17.29614784                2.15527431               87.34457785                0.72154776                0.05156342                0.05177316               -0.17210246               -0.00016485                0.03727228               -0.00265366
              18.29672307                2.15300696               87.19246449                0.86086724                0.05752349                0.06384321               -0.21194490                0.00002934                0.01710212               -0.00186771
               8.29852868                3.17501547               88.70543858                0.86088142               -0.04966265               -0.05581581                0.18560237               -0.00017589                0.01366816                0.00329757
               9.29803206                3.17289120               88.55325594                0.72155412               -0.04371568               -0.04377887                0.14571075               -0.00016808                0.04583847                0.00243010
              10.29765437                3.17076274               88.40163360                0.72131620               -0.03181974               -0.03177215                0.10592497               -0.00026285                0.08602374                0.00187435
              11.29739566                3.16863172               88.25019168                0.72116978               -0.01990871               -0.01980202                0.06612793               -0.00027401                0.10286829                0.00146002
              12.29725619                3.16649823               88.09886344                0.72108393               -0.00797563               -0.00784648                0.02631535               -0.00028954                0.11192850                0.00072969
              13.29723615                3.16436221               87.94758016                0.72106273                0.00397384                0.00411035               -0.01351891               -0.00030290                0.11298390               -0.00026881
              14.29733567                3.16222365               87.79627061                0.72108907                0.01593838                0.01607437               -0.05337995               -0.00030605                0.10589845               -0.00145725
              15.29755492                3.16008258               87.64486322                0.72117583                0.02791212                0.02805156               -0.09326471               -0.00029462                0.09070729               -0.00276403
              16.29789391                3.15793915               87.49328729                0.72132722                0.03988132                0.04005515               -0.13316394               -0.00025963                0.06757036               -0.00408581
              17.29835254                3.15579368               87.34147431                0.72154907                0.05183355                0.05209137               -0.17305829               -0.00016691                0.03676109               -0.00527401
              18.29893058                3.15364680               87.18935905                0.86086779                0.05780422                0.06413402               -0.21293019                0.00004540                0.01681413               -0.00621461
               8.30059110                4.17445851               88.70238926                0.86088250               -0.04944877               -0.05558612                0.18490098               -0.00017065                0.01384450                0.00891453
               9.30009661                4.17245441               88.55019771                0.72154969               -0.04349241               -0.04357494                0.14499358               -0.00017535                0.04636168                0.00606316
              10.29972125                4.17044600               88.39857389                0.72131305               -0.03158506               -0.03156995                0.10518565               -0.00030550                0.08694436                0.00423842
              11.29946491                4.16843480               88.24713149                0.72116268               -0.01967220               -0.01958140                0.06536244               -0.00034585                0.10379657                0.00270194
              12.29932781                4.16642097               88.09580241                0.72108116               -0.00773759               -0.00760680                0.02552119               -0.00037176                0.11272837                0.00126574
              13.29931016                4.16440460               87.94451653                0.72105539                0.00421720                0.00436500               -0.01434475               -0.00038432                0.11358231               -0.00023992
              14.29941215                4.16238576               87.79320250                0.72108656                0.01618809                0.01634464               -0.05423942               -0.00037807                0.10629916               -0.00190037
              15.29963392                4.16036457               87.64178891                0.72117188                0.02816811                0.02834067               -0.09415917               -0.00034707                0.09093734               -0.00377084
              16.29997552                4.15834126               87.49020543                0.72132505                0.04014637                0.04035845               -0.13409204               -0.00028110                0.06767368               -0.00588325
              17.30043685                4.15631614               87.33838401                0.72154972                0.05211160                0.05239362               -0.17401739               -0.00016651                0.03679275               -0.00825059
              18.30101775                4.15428964               87.18626000                0.86086779                0.05808976                0.06442961               -0.21391453                0.00005121                0.01681941               -0.01086389
               8.30253346                5.17390375               88.69934605                0.86087922               -0.04923990               -0.05536801                0.18420924               -0.00016674                0.01419073                0.01366368
               9.30204106                5.17201970               88.54713745                0.72155261               -0.04327930               -0.04336698                0.14428809               -0.00017515                0.04732559                0.00903005
              10.30166787                5.17013134               88.39550949                0.72130635               -0.03136474               -0.03135688                0.10445707               -0.00032370                0.08874617                0.00608388
              11.30141377                5.16824009               88.24406733                0.72116272               -0.01944581               -0.01935690                0.06460686               -0.00038870                0.10589259                0.00374835
              12.30127896                5.16634609               88.09274049                0.72108267               -0.00750438               -0.00736926                0.02473478               -0.00043051                0.11490253                0.00174283
              13.30126368                5.16444951               87.94145688                0.72105534                0.00445869                0.00461514               -0.01516516               -0.00044425                0.11565871               -0.00018363
              14.30136813                5.16255054               87.79014359                0.72108639                0.01643935                0.01660702               -0.05509434               -0.00042591                0.10813842               -0.00224323
              15.30159247                5.16064940               87.63872793                0.72117187                0.02842971                0.02861495               -0.09504861               -0.00037281                0.09242735               -0.00462257
              16.30193673                5.15874632               87.48713854                0.72132143                0.04041844                0.04064160               -0.13501379               -0.00028376                0.06872270               -0.00749564
              17.30240083                5.15684155               87.33530653                0.72154747                0.05239402                0.05267951               -0.17496529               -0.00015816                0.03733327               -0.01101811
              18.30298461                5.15493539               87.18316670                0.86086910                0.05837720                0.06471048               -0.21488004                0.00005938                0.01708825               -0.01529731
               8.30435587                6.17335115               88.69629998                0.86088016               -0.04903407               -0.05515495                0.18351966               -0.00015747                0.01473399                0.01726916
               9.30386552                6.17158707               88.54406648                0.72154676               -0.04307366               -0.04315685                0.14358937               -0.00015887                0.04888062                0.01090453
              10.30349439                6.16981886               88.39243446                0.72131166               -0.03115707               -0.03113276                0.10373604               -0.00031613                0.09168677                0.00714412
              11.30324238                6.16804766               88.24099569                0.72116370               -0.01923079               -0.01912508                0.06385886               -0.00040448                0.10938801                0.00431384
              12.30310978                6.16627359               88.08967643                0.72108143               -0.00727779               -0.00713179                0.02395544               -0.00046123                0.11864027                0.00201032
              13.30309683                6.16449690               87.93840156                0.72105742                0.00469876                0.00485934               -0.01597845               -0.00047556                0.11935668               -0.00012124
              14.30320375                6.16271790               87.78709552                0.72108804                0.01669328                0.01685815               -0.05594258               -0.00044606                0.11154198               -0.00238479
              15.30343069                6.16093687               87.63568313                0.72117495                0.02869671                0.02887178               -0.09593004               -0.00037339                0.09528985               -0.00507645
              16.30377769                6.15915409               87.48409054                0.72132540                0.04069607                0.04090367               -0.13592310               -0.00026474                0.07080468               -0.00852140
              17.30424461                6.15736973               87.33224651                0.72154818                0.05267886                0.05294661               -0.17589549               -0.00013546                0.03843249               -0.01305524
              18.30483126                6.15558385               87.18008406                0.86087074                0.05866484                0.06497401               -0.21581877                0.00007494                0.01764888               -0.01894593
               8.30605846                7.17280065               88.69323768                0.86088020               -0.04882868               -0.05495647                0.18282640               -0.00013665                0.01555024                0.01921811
               9.30557018                7.17115656               88.54097219                0.72155008               -0.04287474               -0.04293794                0.14289189               -0.00011948                0.05123426                0.01122562
              10.30520097                7.16950868               88.38933955                0.72131388               -0.03096134               -0.03089338                0.10301875               -0.00028487                0.09611742                0.00709063
              11.30495095                7.16785759               88.23791092                0.72117279               -0.01902371               -0.01888833                0.06311541               -0.00039737                0.11462348                0.00421556
              12.30482049                7.16620346               88.08660772                0.72108719               -0.00705441               -0.00689681                0.02318136               -0.00045866                0.12423662                0.00197336
              13.30480986                7.16454670               87.93535075                0.72106365                0.00493725                0.00509848               -0.01678576               -0.00046921                0.12494102               -0.00006198
              14.30491924                7.16288770               87.78406103                0.72108916                0.01694694                0.01710136               -0.05678429               -0.00043266                0.11677321               -0.00223153
              15.30514880                7.16122683               87.63265993                0.72117769                0.02896691                0.02911470               -0.09680354               -0.00034892                0.09979598               -0.00489559
              16.30549858                7.15956439               87.48106953                0.72132742                0.04097862                0.04114542               -0.13682166               -0.00022406                0.07416419               -0.00852465
              17.30596837                7.15790048               87.32921416                0.72155078                0.05296449                0.05319657               -0.17680720               -0.00009366                0.04023927               -0.01373910
              18.30655787                7.15623487               87.17702310                0.86087035                0.05894943                0.06523228               -0.21672926                0.00010290                0.01858261               -0.02110883
               8.30764131                8.17225202               88.69013981                0.86088189               -0.04862019               -0.05480221                0.18212530               -0.00009724                0.01678902                0.01880474
               9.30715510                8.17072832               88.53783663                0.72155113               -0.04268173               -0.04268495                0.14218975               -0.00006940                0.05473738                0.00928892
              10.30678767                8.16920099               88.38621225                0.72131692               -0.03077219               -0.03064347                0.10229942               -0.00025448                0.10258786                0.00569822
              11.30653966                8.16766989               88.23480589                0.72117811               -0.01880902               -0.01866229                0.06237234               -0.00036078                0.12207743                0.00338372
              12.30641149                8.16613565               88.08353123                0.72109303               -0.00682325               -0.00666744                0.02240908               -0.00040405                0.13206550                0.00159755
              13.30640320                8.16459887               87.93230463                0.72106749                0.00517368                0.00533582               -0.01758993               -0.00040452                0.13275452               -0.00001057
              14.30651497                8.16305992               87.78104369                0.72109931                0.01719175                0.01734510               -0.05762138               -0.00037102                0.12421514               -0.00173774
              15.30674703                8.16151917               87.62966600                0.72118308                0.02922939                0.02935772               -0.09767097               -0.00029583                0.10641230               -0.00392211
              16.30709955                8.15997700               87.47808827                0.72133364                0.04126156                0.04137470               -0.13771278               -0.00017329                0.07928835               -0.00707757
              17.30757226                8.15843366               87.32622679                0.72155397                0.05324997                0.05342772               -0.17770907               -0.00003611                0.04308476               -0.01217940
              18.30816455                8.15688849               87.17400306                0.86086955                0.05922904                0.06551772               -0.21762353                0.00014935                0.02009219               -0.02073233
               8.30910393                9.17170461               88.68697881                0.86088152               -0.04841105               -0.05473966                0.18140766               -0.00009337                0.01854956                0.01383492
               9.30861982                9.17030287               88.53463311                0.72155611               -0.04248132               -0.04237191                0.14147205               -0.00007146                0.06009566                0.00475215
              10.30825430                9.16889581               88.38303883                0.72132867               -0.03053720               -0.03044866                0.10156810               -0.00019893                0.11209519                0.00318020
              11.30800907                9.16748434               88.23167356                0.72118473               -0.01854328               -0.01845191                0.06162096               -0.00025223                0.13228931                0.00189696
              12.30788343                9.16607011               88.08044379                0.72110551               -0.00657867               -0.00644207                0.02163296               -0.00025511                0.14249784                0.00090656
              13.30787750                9.16465342               87.92926332                0.72108401                0.00540424                0.00557714               -0.01839452               -0.00025091                0.14315342                0.00001521
              14.30799152                9.16323461               87.77804718                0.72111079                0.01741515                0.01759935               -0.05845600               -0.00023169                0.13430510               -0.00094899
              15.30822580                9.16181399               87.62670996                0.72119373                0.02945487                0.02961885               -0.09853586               -0.00019298                0.11580310               -0.00219225
              16.30858062                9.16039188               87.47516348                0.72133645                0.04151780                0.04163150               -0.13860267               -0.00011100                0.08716787               -0.00406662
              17.30905616                9.15896904               87.32331255                0.72155398                0.05352836                0.05363920               -0.17861264                0.00000198                0.04776154               -0.00736401
              18.30965118                9.15754522               87.17105626                0.86087223                0.05950265                0.06588244               -0.21851722                0.00017293                0.02260575               -0.01505794
               8.31044292               10.17115723               88.68369138                0.93044128               -0.04804525               -0.05473802                0.18065552                0.00626463                0.02472355                0.01200990
               9.30996247               10.16988088               88.53133695                0.86078074               -0.04203527               -0.04219881                0.14071888                0.00600494                0.07008386                0.00357456
              10.30960222               10.16859202               88.37981106                0.86066784               -0.03010747               -0.03037947                0.10080805                0.00579054                0.12560125                0.00294610
              11.30936032               10.16730085               88.22850835                0.86059783               -0.01824508               -0.01834871                0.06084865                0.00586446                0.14555101                0.00174976
              12.30923732               10.16600681               88.07734274                0.86055903               -0.00633208               -0.00632981                0.02084478                0.00586599                0.15581976                0.00074002
              13.30923368               10.16471041               87.92622663                0.86054864                0.00562223                0.00569970               -0.01920263                0.00587302                0.15642100               -0.00022028
              14.30934976               10.16341191               87.77507415                0.86056314                0.01761081                0.01773028               -0.05928779                0.00588066                0.14741747               -0.00122087
              15.30958590               10.16211154               87.62379876                0.86060401                0.02962607                0.02975578               -0.09939550                0.00589553                0.12860102               -0.00237444
              16.30994228               10.16080963               87.47231015                0.86067270                0.04165331                0.04177505               -0.13949016                0.00591144                0.09934128               -0.00389758
              17.31041896               10.15950644               87.32050892                0.86077721                0.05366804                0.05374061               -0.17952310                0.00610588                0.05726433               -0.00621934
              18.31101564               10.15820614               87.16825719                0.93043542                0.05966808                0.06609206               -0.21943017                0.00641570                0.02985303               -0.01308307
               8.44416274                0.17965579               89.71636105                0.93041515               -0.04602729               -0.05190457                0.17207078               -0.00591026                0.02063647               -0.00504019
               9.44370246                0.17718942               89.56383800                0.86074461               -0.04058380               -0.04049009                0.13557377               -0.00558691                0.04885413               -0.00472810
              10.44335106                0.17472708               89.41179479                0.86065068               -0.02972877               -0.02963872                0.09916954               -0.00544112                0.08761779               -0.00171528
              11.44310789                0.17226248               89.25998278                0.86059172               -0.01889497               -0.01868863                0.06278105               -0.00548604                0.10808765               -0.00090510
              12.44297316                0.16979564               89.10830507                0.86055731               -0.00803323               -0.00775163                0.02638577               -0.00549566                0.11871340               -0.00033926
              13.44294722                0.16732625               88.95668215                0.86054644                0.00286356                0.00319004               -0.01003919               -0.00550231                0.12051445                0.00010458
              14.44303043                0.16485427               88.80503752                0.86056062                0.01379708                0.01413379               -0.04650830               -0.00550139                0.11372155                0.00049965
              15.44322316                0.16237969               88.65329613                0.86059608                0.02476115                0.02507878               -0.08302596               -0.00549682                0.09843588                0.00088710
              16.44352565                0.15990244               88.50138312                0.86065442                0.03574181                0.03603345               -0.11957282               -0.00547473                0.07463799                0.00132556
              17.44393800                0.15742260               88.34922262                0.86074736                0.04669565                0.04693356               -0.15610965               -0.00560307                0.04176824                0.00186923
              18.44445957                0.15493636               88.19672838                0.93041324                0.05215671                0.05829079               -0.19257918               -0.00562464                0.02029887                0.00378798
               8.44657000                1.17913674               89.71335492                0.86082249               -0.04590517               -0.05171275                0.17135353               -0.00015324                0.01651595               -0.00336511
               9.44611095                1.17678452               89.56081012                0.72147535               -0.04049414               -0.04042262                0.13484383               -0.00006823                0.04609243               -0.00415620
              10.44576012                1.17443069               89.40877251                0.72128340               -0.02961026               -0.02950737                0.09843834               -0.00006331                0.08510546               -0.00077155
              11.44551874                1.17207559               89.25694387                0.72116603               -0.01869012               -0.01857396                0.06204076               -0.00006300                0.10431782                0.00001002
              12.44538632                1.16971813               89.10524692                0.72110099               -0.00779300               -0.00763720                0.02563233               -0.00008775                0.11473463                0.00008709
              13.44536288                1.16735816               88.95360345                0.72108063                0.00311911                0.00330478               -0.01080344               -0.00010133                0.11643773               -0.00013287
              14.44544870                1.16499561               88.80193777                0.72110362                0.01406124                0.01425061               -0.04727620               -0.00010511                0.10961548               -0.00048307
              15.44564411                1.16263048               88.65017527                0.72117143                0.02503770                0.02519986               -0.08378621               -0.00009925                0.09435011               -0.00085638
              16.44594945                1.16026278               88.49824164                0.72129390                0.03604504                0.03615511               -0.12031329               -0.00011113                0.07061266               -0.00111893
              17.44636501                1.15789194               88.34606142                0.72147534                0.04700540                0.04712495               -0.15682287               -0.00009263                0.03841817               -0.00099644
              18.44688956                1.15551927               88.19356057                0.86081691                0.05245503                0.05835024               -0.19328697                0.00008683                0.01756851                0.00049371
               8.44886412                2.17862154               89.71028693                0.86081769               -0.04569662               -0.05139677                0.17069785               -0.00017715                0.01332782               -0.00183546
               9.44840715                2.17638097               89.55771931                0.72146286               -0.04026994               -0.04028471                0.13416139               -0.00014795                0.04567512               -0.00242557
              10.44805872                2.17413693               89.40571471                0.72126507               -0.02939801               -0.02929149                0.09774937               -0.00018201                0.08595381               -0.00027181
              11.44781919                2.17189100               89.25388899                0.72115172               -0.01849379               -0.01835262                0.06132772               -0.00018167                0.10305425                0.00046923
              12.44768884                2.16964290               89.10218309                0.72108544               -0.00757399               -0.00740983                0.02489023               -0.00020135                0.11262141                0.00031876
              13.44766771                2.16739235               88.95052583                0.72106753                0.00335799                0.00353881               -0.01157449               -0.00022245                0.11396129               -0.00025821
              14.44775600                2.16513928               88.79884419                0.72108759                0.01431487                0.01449482               -0.04807788               -0.00023317                0.10700009               -0.00104906
              15.44795401                2.16288369               88.64706535                0.72116134                0.02529856                0.02545978               -0.08461758               -0.00023595                0.09178845               -0.00190473
              16.44826198                2.16062555               88.49511707                0.72127649                0.03628230                0.03644087               -0.12117773               -0.00022870                0.06844587               -0.00263555
              17.44867966                2.15836510               88.34292866                0.72145499                0.04723318                0.04748626               -0.15773021               -0.00017846                0.03725847               -0.00287655
              18.44920664                2.15610337               88.19043349                0.86080439                0.05269828                0.05856519               -0.19424833                0.00001349                0.01708962               -0.00216713
               8.45104759                3.17810881               89.70721708                0.86081812               -0.04549948               -0.05117479                0.17007673               -0.00016588                0.01369472                0.00343376
               9.45059260                3.17597883               89.55465214                0.72145798               -0.04005723               -0.04013044                0.13351537               -0.00017255                0.04593928                0.00252970
              10.45024645                3.17384486               89.40264864                0.72126316               -0.02917262               -0.02912217                0.09707629               -0.00027161                0.08618753                0.00194514
              11.45000914                3.17170854               89.25082546                0.72114521               -0.01827531               -0.01814794                0.06062573               -0.00028607                0.10302341                0.00150502
              12.44988094                3.16956993               89.09911578                0.72107848               -0.00735469               -0.00718654                0.02415584               -0.00030522                0.11206039                0.00074803
              13.44986205                3.16742893               88.94745080                0.72105770                0.00358779                0.00377793               -0.01234439               -0.00032392                0.11307649               -0.00028130
              14.44995270                3.16528550               88.79575923                0.72107999                0.01455388                0.01475228               -0.04888555               -0.00033350                0.10594242               -0.00150744
              15.45015313                3.16313968               88.64396952                0.72115334                0.02553860                0.02574275               -0.08546588               -0.00032658                0.09070654               -0.00286270
              16.45046347                3.16099160               88.49201110                0.72127662                0.03652462                0.03676193               -0.12207105               -0.00029025                0.06754467               -0.00424358
              17.45088362                3.15884166               88.33981568                0.72145695                0.04749153                0.04781620               -0.15867183               -0.00018779                0.03674001               -0.00549745
              18.45141330                3.15669057               88.18731825                0.86080816                0.05296782                0.05888132               -0.19523646                0.00002693                0.01679952               -0.00650269
               8.45312077                4.17759804               89.70416124                0.86081809               -0.04531162               -0.05098543                0.16947839               -0.00016276                0.01387053                0.00905613
               9.45266765                4.17557836               89.55158718                0.72145898               -0.03985970               -0.03995874                0.13289093               -0.00018831                0.04645797                0.00617163
              10.45232357                4.17355449               89.39958194                0.72126300               -0.02896239               -0.02894700                0.09642104               -0.00032755                0.08709877                0.00431826
              11.45208840                4.17152804               89.24775800                0.72114358               -0.01806112               -0.01795136                0.05993746               -0.00037206                0.10394005                0.00275455
              12.45196235                4.16949917               89.09604716                0.72107545               -0.00713725               -0.00696797                0.02343172               -0.00040284                0.11284591                0.00129018
              13.45194566                4.16746791               88.94437922                0.72105598                0.00381197                0.00401518               -0.01310804               -0.00042084                0.11365837               -0.00024707
              14.45203859                4.16543433               88.79268280                0.72107670                0.01478651                0.01500917               -0.04969098               -0.00041964                0.10632477               -0.00194452
              15.45224139                4.16339854               88.64088650                0.72115152                0.02577971                0.02602346               -0.08631680               -0.00039086                0.09091746               -0.00385964
              16.45255418                4.16136078               88.48892013                0.72127205                0.03677671                0.03706348               -0.12296835               -0.00032085                0.06763181               -0.00602289
              17.45297692                4.15932142               88.33671592                0.72145782                0.04775856                0.04812471               -0.15961313               -0.00019223                0.03676177               -0.00844197
              18.45350935                4.15728099               88.18420944                0.86080627                0.05324329                0.05919056               -0.19621565                0.00003135                0.01680101               -0.01110252
               8.45508369                5.17708910               89.70111161                0.86081968               -0.04513111               -0.05080016                0.16888797               -0.00016059                0.01421427                0.01379350
               9.45463238                5.17517965               89.54852032                0.72145722               -0.03967404               -0.03978057                0.13227960               -0.00019685                0.04741413                0.00913746
              10.45429021                5.17326592               89.39651069                0.72126303               -0.02876803               -0.02876077                0.09578026               -0.00036105                0.08888532                0.00616688
              11.45405702                5.17134951               89.24468668                0.72114194               -0.01785982               -0.01775092                0.05926249               -0.00043192                0.10601547                0.00380605
              12.45393302                5.16943057               89.09297774                0.72107434               -0.00692756               -0.00675194                0.02271890               -0.00047900                0.11499567                0.00177306
              13.45391847                5.16750923               88.94131170                0.72105401                0.00403252                0.00424618               -0.01386168               -0.00049722                0.11570803               -0.00018308
              14.45401367                5.16558569               88.78961563                0.72107623                0.01501918                0.01525550               -0.05048817               -0.00048182                0.10813636               -0.00227575
              15.45421886                5.16366015               88.63781687                0.72115225                0.02602519                0.02628510               -0.08715761               -0.00042788                0.09238058               -0.00469116
              16.45453417                5.16173286               88.48584422                0.72126965                0.03703559                0.03733791               -0.12385206               -0.00033079                0.06865863               -0.00760158
              17.45495957                5.15980416               88.33362912                0.72145510                0.04803087                0.04840567               -0.16053412               -0.00018712                0.03728975               -0.01115819
              18.45549479                5.15787438               88.18110661                0.86080849                0.05352218                0.05946937               -0.19716285                0.00003861                0.01706457               -0.01546207
               8.45693645                6.17658204               89.69805911                0.86081675               -0.04495592               -0.05061144                0.16829656               -0.00015269                0.01475476                0.01737829
               9.45648689                6.17478275               89.54544283                0.72146154               -0.03949821               -0.03959686                0.13167576               -0.00018847                0.04895742                0.01100529
              10.45614649                6.17297927               89.39342890                0.72126155               -0.02858892               -0.02856242                0.09514946               -0.00036780                0.09180260                0.00722567
              11.45591512                6.17117302               89.24160797                0.72114465               -0.01767195               -0.01754338                0.05859896               -0.00046369                0.10948075                0.00437289
              12.45579305                6.16936413               89.08990626                0.72107689               -0.00672608               -0.00653696                0.02201707               -0.00052537                0.11869831                0.00204508
              13.45578059                6.16755283               88.93824860                0.72105597                0.00424967                0.00446947               -0.01460463               -0.00054277                0.11936807               -0.00011314
              14.45587804                6.16573944               88.78655939                0.72108059                0.01525300                0.01548721               -0.05127338               -0.00051357                0.11150109               -0.00240464
              15.45608565                6.16392425               88.63476353                0.72114882                0.02627569                0.02652390               -0.08798442               -0.00043663                0.09520757               -0.00512319
              16.45640356                6.16210754               88.48278737                0.72127688                0.03730032                0.03758263               -0.12471474               -0.00031654                0.07071228               -0.00859021
              17.45683166                6.16028954               88.33056000                0.72145946                0.04830571                0.04865483               -0.16142285               -0.00016614                0.03837261               -0.01313826
              18.45736967                6.15847038               88.17801477                0.86080675                0.05380107                0.05971302               -0.19806451                0.00005393                0.01761772               -0.01902904
               8.45867922                7.17607687               89.69499036                0.86081632               -0.04478359               -0.05043025                0.16770049               -0.00013230                0.01556793                0.01930622
               9.45823138                7.17438771               89.54234205                0.72145929               -0.03933163               -0.03940290                0.13107605               -0.00015373                0.05129563                0.01131626
              10.45789258                7.17269467               89.39032728                0.72126170               -0.02842434               -0.02834869                0.09452599               -0.00034413                0.09620198                0.00716727
              11.45766289                7.17099865               89.23851620                0.72114582               -0.01749406               -0.01733115                0.05794364               -0.00046431                0.11467705                0.00427339
              12.45754270                7.16929983               89.08683021                0.72108163               -0.00652935               -0.00632539                0.02132472               -0.00053091                0.12424962                0.00200968
              13.45753231                7.16759862               88.93519008                0.72106121                0.00446404                0.00468625               -0.01533825               -0.00054381                0.12490292               -0.00004907
              14.45763198                7.16589543               88.78351681                0.72108436                0.01548568                0.01570846               -0.05204863               -0.00050535                0.11668259               -0.00224195
              15.45784202                7.16419062               88.63173189                0.72115574                0.02652837                0.02674482               -0.08879887               -0.00041466                0.09966878               -0.00492494
              16.45816255                7.16248452               88.47975765                0.72127609                0.03756937                0.03780073               -0.12555934               -0.00027693                0.07403676               -0.00856364
              17.45859341                7.16077725               88.32751878                0.72145901                0.04858166                0.04887688               -0.16228374               -0.00012458                0.04015996               -0.01377359
              18.45913418                7.15906864               88.17494496                0.86080814                0.05407764                0.05993597               -0.19892258                0.00008287                0.01854239               -0.02112054
               8.46031212                8.17557343               89.69188597                0.86081778               -0.04461026               -0.05028899                0.16709818               -0.00009249                0.01680078                0.01887280
               9.45986602                8.17399469               89.53919997                0.72145865               -0.03917240               -0.03917770                0.13047648               -0.00010144                0.05477975                0.00936489
              10.45952867                8.17241230               89.38719326                0.72126660               -0.02826738               -0.02812567                0.09390566               -0.00030753                0.10263682                0.00576406
              11.45930067                8.17082640               89.23540419                0.72115577               -0.01731098               -0.01712958                0.05729274               -0.00042167                0.12208526                0.00343487
              12.45918245                8.16923762               89.08374642                0.72108841               -0.00632782               -0.00611975                0.02063761               -0.00047129                0.13202542                0.00163010
              13.45917411                8.16764656               88.93213629                0.72106813                0.00467415                0.00490064               -0.01606571               -0.00047429                0.13265862                0.00000237
              14.45927594                8.16605361               88.78049142                0.72109049                0.01570803                0.01592979               -0.05281826               -0.00043823                0.12406530               -0.00174296
              15.45948828                8.16445914               88.62872957                0.72115623                0.02677256                0.02696491               -0.08960701               -0.00035524                0.10623034               -0.00394080
              16.45981139                8.16286356               88.47676774                0.72127774                0.03783829                0.03800546               -0.12639730               -0.00022000                0.07911804               -0.00709930
              17.46024504                8.16126708               88.32452266                0.72146063                0.04885781                0.04907768               -0.16313325               -0.00006394                0.04298142               -0.01218675
              18.46078854                8.15966910               88.17191627                0.86080968                0.05435032                0.06017675               -0.19975802                0.00013117                0.02003973               -0.02070000
               8.46183485                9.17507109               89.68871830                0.86081870               -0.04443617               -0.05023797                0.16648549               -0.00008340                0.01855623                0.01387634
               9.46139048                9.17360416               89.53598979                0.72146085               -0.03900622               -0.03889965                0.12986869               -0.00008922                0.06011907                0.00480038
              10.46105472                9.17213216               89.38401302                0.72127750               -0.02806741               -0.02795627                0.09327828               -0.00023012                0.11210832                0.00322200
              11.46082914                9.17065606               89.23226481                0.72116176               -0.01708014               -0.01694465                0.05663796               -0.00029069                0.13225108                0.00192910
              12.46071312                9.16917743               89.08065163                0.72109956               -0.00611523               -0.00591819                0.01994885               -0.00029957                0.14240332                0.00092706
              13.46070683                9.16769664               88.92908731                0.72107776                0.00487564                0.00511989               -0.01679236               -0.00029740                0.14299729                0.00002294
              14.46081063                9.16621403               88.77748690                0.72110424                0.01590665                0.01616337               -0.05358564               -0.00027620                0.13409045               -0.00095209
              15.46102496                9.16472992               88.62576516                0.72117093                0.02697926                0.02720571               -0.09041541               -0.00023148                0.11555574               -0.00220376
              16.46135022                9.16324463               88.47383428                0.72128498                0.03808099                0.03824103               -0.12724079               -0.00014098                0.08694108               -0.00407959
              17.46178658                9.16175881               88.32159960                0.72146283                0.04912704                0.04926687               -0.16399371               -0.00001697                0.04762426               -0.00736581
              18.46233276                9.16027218               88.16896078                0.86080831                0.05461732                0.06049736               -0.20059934                0.00016067                0.02253611               -0.01502005
               8.46324432               10.17456867               89.68542387                0.93040837               -0.04411486               -0.05024200                0.16584818                0.00574964                0.02472738                0.01203377
               9.46280317               10.17321670               89.53268663                0.86073540               -0.03860700               -0.03874625                0.12923172                0.00549334                0.07009318                0.00359988
              10.46247218               10.17185317               89.38077815                0.86064018               -0.02767933               -0.02789868                0.09262526                0.00528598                0.12558791                0.00296689
              11.46224958               10.17048751               89.22909233                0.86058773               -0.01681479               -0.01685472                0.05596360                0.00534870                0.14547823                0.00176425
              12.46213588               10.16911926               89.07754312                0.86055479               -0.00590038               -0.00581789                0.01924903                0.00534854                0.15568258                0.00074861
              13.46213157               10.16774896               88.92604290                0.86054593                0.00506242                0.00523182               -0.01752301                0.00535514                0.15621325               -0.00021868
              14.46223713               10.16637688               88.77450587                0.86055615                0.01607369                0.01628469               -0.05435174                0.00536482                0.14714125               -0.00122347
              15.46245305               10.16500326               88.62284563                0.86058952                0.02712772                0.02733360               -0.09122339                0.00538338                0.12828289               -0.00238001
              16.46277968               10.16362838               88.47097226                0.86064914                0.03820507                0.03837508               -0.12809270                0.00540444                0.09904224               -0.00390183
              17.46321715               10.16225241               88.31878698                0.86073493                0.04926637                0.04936064               -0.16488513                0.00558987                0.05707179               -0.00621461
              18.46376501               10.16087905               88.16615269                0.93040536                0.05478623                0.06068668               -0.20149487                0.00588870                0.02974608               -0.01304436
               8.59707487                0.18261520               90.71800269                0.93038518               -0.04179184               -0.04712599                0.15621794               -0.00536588                0.02067507               -0.00501097
               9.59665696                0.18017370               90.56513151                0.86070158               -0.03685658               -0.03676640                0.12310582               -0.00506863                0.04896111               -0.00471819
              10.59633774                0.17773589               90.41274110                0.86062464               -0.02701984               -0.02691567                0.09007898               -0.00493552                0.08780037               -0.00170705
              11.59611656                0.17529607               90.26058206                0.86057633               -0.01721040               -0.01697418                0.05706846               -0.00497622                0.10829240               -0.00089907
              12.59599353                0.17285417               90.10855723                0.86055623               -0.00737952               -0.00704211                0.02405321               -0.00498671                0.11890247               -0.00033566
              13.59596897                0.17040981               89.95658686                0.86054400                0.00248850                0.00289685               -0.00899833               -0.00499544                0.12064277                0.00010644
              14.59604330                0.16796282               89.80459425                0.86055373                0.01240930                0.01284008               -0.04211546               -0.00499733                0.11375254                0.00049583
              15.59621715                0.16551314               89.65250427                0.86058376                0.02238615                0.02278577               -0.07531259               -0.00499525                0.09836299                0.00087192
              16.59649103                0.16306073               89.50024230                0.86063165                0.03240027                0.03274043               -0.10856391               -0.00497482                0.07450143                0.00129254
              17.59686516                0.16060581               89.34773295                0.86070419                0.04238975                0.04264335               -0.14180410               -0.00508821                0.04164970                0.00181251
              18.59733882                0.15814515               89.19489076                0.93038295                0.04736624                0.05295558               -0.17492546               -0.00511233                0.02020762                0.00367550
               8.59946272                1.18214394               90.71498972                0.86076630               -0.04167887               -0.04696247                0.15556637               -0.00014091                0.01655107               -0.00327535
               9.59904593                1.17980604               90.56209664                0.72138959               -0.03677556               -0.03671204                0.12243784               -0.00006047                0.04620250               -0.00410782
              10.59872720                1.17746673               90.40971183                0.72123574               -0.02691368               -0.02680035                0.08941135               -0.00005136                0.08528776               -0.00073502
              11.59850765                1.17512633               90.25753605                0.72114702               -0.01702052               -0.01687160                0.05638936               -0.00004745                0.10450906                0.00003143
              12.59838679                1.17278375               90.10549183                0.72109326               -0.00714813               -0.00693787                0.02335410               -0.00006981                0.11490695                0.00009499
              13.59836469                1.17043878               89.95350077                0.72108021                0.00274376                0.00300314               -0.00971663               -0.00008676                0.11656065               -0.00013825
              14.59844167                1.16809122               89.80148706                0.72109494                0.01267786                0.01295049               -0.04284269               -0.00009841                0.10966609               -0.00050946
              15.59861825                1.16574099               89.64937607                0.72114647                0.02266353                0.02290330               -0.07602971               -0.00010192                0.09432994               -0.00091575
              16.59889494                1.16338813               89.49709372                0.72124087                0.03269101                0.03286300               -0.10925013               -0.00011787                0.07055854               -0.00122664
              17.59927207                1.16103225               89.34456501                0.72139138                0.04267132                0.04283551               -0.14244371               -0.00009987                0.03838287               -0.00117047
              18.59974837                1.15867470               89.19171627                0.86075933                0.04762980                0.05303973               -0.17555422                0.00006483                0.01754823                0.00022411
               8.60174787                2.18167595               90.71191565                0.86075936               -0.04149067               -0.04670543                0.15501415               -0.00016210                0.01335647               -0.00167658
               9.60133296                2.17943946               90.55899942                0.72137665               -0.03657186               -0.03660562                0.12184273               -0.00013589                0.04579053               -0.00232590
              10.60101643                2.17719988               90.40664751                0.72122046               -0.02671854               -0.02661613                0.08879927               -0.00016153                0.08614618               -0.00020117
              11.60079859                2.17495864               90.25447437                0.72113051               -0.01683730               -0.01667605                0.05574367               -0.00015663                0.10324653                0.00051103
              12.60067968                2.17271542               90.10242089                0.72107951               -0.00694115               -0.00673149                0.02267173               -0.00017474                0.11279543                0.00033526
              13.60065977                2.17046988               89.95041571                0.72106582                0.00297210                0.00322082               -0.01043554               -0.00020234                0.11408827               -0.00026885
              14.60073912                2.16822183               89.79838570                0.72107971                0.01292200                0.01318369               -0.04360020               -0.00022719                0.10705757               -0.00109871
              15.60091821                2.16597120               89.64625803                0.72113408                0.02291459                0.02315953               -0.07682795               -0.00024588                0.09177883               -0.00201273
              16.60119742                2.16371799               89.49396066                0.72122870                0.03291935                0.03315441               -0.11009456               -0.00024873                0.06839941               -0.00282617
              17.60157659                2.16146252               89.34142325                0.72137429                0.04288966                0.04321131               -0.14335021               -0.00019607                0.03722064               -0.00317533
              18.60205521                2.15920594               89.18857952                0.86075045                0.04786171                0.05330428               -0.17654598               -0.00000468                0.01706368               -0.00258866
               8.60393246                3.18120984               90.70884011                0.86075983               -0.04131753               -0.04654255                0.15450848               -0.00015232                0.01372714                0.00361739
               9.60351928                3.17907393               90.55592625                0.72137365               -0.03638289               -0.03649004                0.12129510               -0.00016565                0.04605757                0.00265277
              10.60320480                3.17693441               90.40357512                0.72121509               -0.02651490               -0.02647861                0.08821191               -0.00025713                0.08638238                0.00202848
              11.60298899                3.17479280               90.25140419                0.72112501               -0.01663708               -0.01649863                0.05511647               -0.00026898                0.10321790                0.00155628
              12.60287206                3.17264912               90.09934656                0.72107168               -0.00673772               -0.00653006                0.02200287               -0.00028896                0.11223558                0.00077095
              13.60285423                3.17050320               89.94733327                0.72105649                0.00318703                0.00344378               -0.01114857               -0.00031523                0.11320355               -0.00029011
              14.60293580                3.16835489               89.79529290                0.72107277                0.01314710                0.01343173               -0.04436129               -0.00033845                0.10599834               -0.00155864
              15.60311717                3.16620418               89.64315390                0.72113170                0.02314218                0.02344144               -0.07764303               -0.00034671                0.09069157               -0.00297451
              16.60339864                3.16405122               89.49084587                0.72122554                0.03315104                0.03348476               -0.11097242               -0.00031967                0.06748887               -0.00443698
              17.60378019                3.16189647               89.33830088                0.72137581                0.04313978                0.04356688               -0.14430056               -0.00021275                0.03669359               -0.00578923
              18.60426144                3.15974079               89.18545432                0.86075108                0.04812455                0.05366434               -0.17756898                0.00000671                0.01677101               -0.00689577
               8.60601664                4.18074510               90.70577883                0.86075715               -0.04115641               -0.04640442                0.15402651               -0.00015134                0.01390371                0.00923114
               9.60560507                4.17870966               90.55285552                0.72137314               -0.03621145               -0.03635666                0.12077163               -0.00019081                0.04657485                0.00629469
              10.60529241                4.17667031               90.40050231                0.72121780               -0.02632892               -0.02633459                0.08764624               -0.00032886                0.08728995                0.00440554
              11.60507849                4.17462866               90.24833024                0.72112302               -0.01644489               -0.01632854                0.05450775               -0.00037272                0.10412915                0.00281158
              12.60496351                4.17258482               90.09627105                0.72107049               -0.00654026               -0.00633363                0.02134936               -0.00040604                0.11301359                0.00131940
              13.60494769                4.17053875               89.94425436                0.72105314                0.00339297                0.00366375               -0.01185036               -0.00043142                0.11377578               -0.00024907
              14.60503137                4.16849046               89.79220868                0.72107429                0.01336285                0.01367716               -0.04511534               -0.00044138                0.10636751               -0.00198659
              15.60521495                4.16644003               89.64006258                0.72112521                0.02336821                0.02371764               -0.07845534               -0.00042365                0.09088535               -0.00395456
              16.60549873                4.16438768               89.48774606                0.72122593                0.03339119                0.03379095               -0.11184872               -0.00035822                0.06755845               -0.00618462
              17.60588277                4.16233386               89.33519175                0.72136966                0.04339912                0.04389175               -0.14524268               -0.00022035                0.03670406               -0.00867940
              18.60636672                4.16027923               89.18233569                0.86075064                0.04839460                0.05400143               -0.17857101                0.00001042                0.01676930               -0.01141253
               8.60800032                5.18028175               90.70272381                0.86076011               -0.04100538               -0.04625710                0.15354550               -0.00015136                0.01424692                0.01393597
               9.60759026                5.17834679               90.54978304                0.72137581               -0.03605469               -0.03621060                0.12025945               -0.00021080                0.04752474                0.00924736
              10.60727922                5.17640772               90.39742509                0.72121529               -0.02616190               -0.02617634                0.08709575               -0.00038321                0.08906241                0.00625055
              11.60706702                5.17446623               90.24525258                0.72112123               -0.01626862               -0.01615314                0.05391545               -0.00045644                0.10618658                0.00386550
              12.60695385                5.17252245               90.09319487                0.72106917               -0.00635353               -0.00613993                0.02071178               -0.00050746                0.11514263                0.00180778
              13.60693995                5.17057647               89.94117965                0.72105407                0.00359217                0.00387561               -0.01253689               -0.00053190                0.11580081               -0.00017610
              14.60702569                5.16862844               89.78913383                0.72107104                0.01357641                0.01390794               -0.04585461               -0.00052357                0.10815168               -0.00230218
              15.60721148                5.16667854               89.63698478                0.72112765                0.02359776                0.02396809               -0.07925028               -0.00047417                0.09232066               -0.00475744
              16.60749765                5.16472704               89.48466150                0.72122523                0.03363801                0.03405915               -0.11269952               -0.00037465                0.06856005               -0.00771266
              17.60788424                5.16277431               89.33209585                0.72137564                0.04366336                0.04417202               -0.14614538               -0.00021641                0.03721679               -0.01131380
              18.60837092                5.16082082               89.17922344                0.86075092                0.04866737                0.05428469               -0.17951404                0.00001808                0.01702681               -0.01565572
               8.60988352                6.17981996               90.69966591                0.86075886               -0.04086299               -0.04609144                0.15305568               -0.00014521                0.01478377                0.01748062
               9.60947489                6.17798545               90.54669999                0.72137530               -0.03591069               -0.03605185                0.11975279               -0.00021368                0.04905501                0.01109791
              10.60916530                6.17614678               90.39433745                0.72121751               -0.02601275               -0.02600278                0.08655742               -0.00041052                0.09195448                0.00730309
              11.60895463                6.17430560               90.24216767                0.72112572               -0.01610906               -0.01596949                0.05333854               -0.00051175                0.10961946                0.00443301
              12.60884312                6.17246202               90.09011677                0.72107043               -0.00617841               -0.00594760                0.02008990               -0.00057903                0.11880710                0.00208402
              13.60883106                6.17061626               89.93810947                0.72105336                0.00378561                0.00407758               -0.01320756               -0.00060112                0.11941939               -0.00009818
              14.60891883                6.16876862               89.78607005                0.72107405                0.01378990                0.01411968               -0.04657647               -0.00057427                0.11147370               -0.00241497
              15.60910686                6.16691939               89.63392344                0.72113087                0.02383174                0.02418797               -0.08002229               -0.00049536                0.09510741               -0.00515968
              16.60939547                6.16506886               89.48159625                0.72122520                0.03389014                0.03428554               -0.11351669               -0.00036620                0.07058245               -0.00864808
              17.60978466                6.16321730               89.32901805                0.72137081                0.04392966                0.04440210               -0.14699583               -0.00019631                0.03828187               -0.01320741
              18.61027406                6.16136492               89.17612277                0.86075447                0.04893976                0.05450738               -0.18038241                0.00003416                0.01757049               -0.01909716
               8.61166644                7.17935992               90.69659169                0.86076071               -0.04072677               -0.04592109                0.15255642               -0.00012571                0.01559019                0.01937247
               9.61125917                7.17762576               90.54359371                0.72137591               -0.03577875               -0.03587880                0.11925206               -0.00018698                0.05137321                0.01139434
              10.61095086                7.17588766               90.39123007                0.72122024               -0.02588070               -0.02581270                0.08603055               -0.00040131                0.09631646                0.00723884
              11.61074155                7.17414684               90.23906979                0.72112424               -0.01596276               -0.01578091                0.05277518               -0.00052910                0.11476849                0.00433158
              12.61063161                7.17240350               90.08703422                0.72107698               -0.00601148               -0.00575920                0.01948242               -0.00060228                0.12430306                0.00205021
              13.61062133                7.17065802               89.93504399                0.72105871                0.00397367                0.00427125               -0.01386423               -0.00061852                0.12489494               -0.00002923
              14.61071108                7.16891083               89.78302006                0.72107881                0.01400037                0.01431743               -0.04728292               -0.00057875                0.11659531               -0.00224163
              15.61090133                7.16716230               89.63088395                0.72113080                0.02406679                0.02438422               -0.08077532               -0.00048109                0.09951368               -0.00493906
              16.61119242                7.16541275               89.47855835                0.72122912                0.03414639                0.03447622               -0.11430637               -0.00032944                0.07386521               -0.00858122
              17.61158426                7.16366235               89.32596849                0.72137281                0.04419726                0.04459047               -0.14780368               -0.00015451                0.04004686               -0.01377621
              18.61207636                7.16191096               89.17304465                0.86075096                0.04921000                0.05468750               -0.18118500                0.00006459                0.01848476               -0.02108453
               8.61334933                8.17890154               90.69348178                0.86075931               -0.04059220               -0.04578451                0.15205290               -0.00008548                0.01681633                0.01891381
               9.61294340                8.17726787               90.54044616                0.72137746               -0.03565687               -0.03567743                0.11875928               -0.00013553                0.05483214                0.00943074
              10.61263619                8.17563053               90.38809037                0.72122360               -0.02575957               -0.02561465                0.08551421               -0.00036500                0.10270228                0.00582677
              11.61242821                8.17398998               90.23595175                0.72113406               -0.01581464               -0.01560333                0.05222204               -0.00048838                0.12211612                0.00348661
              12.61231990                8.17234683               90.08394399                0.72108280               -0.00584263               -0.00557762                0.01888546               -0.00054493                0.13201025                0.00166654
              13.61231136                8.17070169               89.93198332                0.72106731                0.00415456                0.00446173               -0.01451083               -0.00055031                0.13257547                0.00002155
              14.61240299                8.16905497               89.77998732                0.72108051                0.01419808                0.01451421               -0.04798072               -0.00051096                0.12390149               -0.00173960
              15.61259532                8.16740708               89.62787386                0.72113648                0.02429194                0.02457801               -0.08152070               -0.00041879                0.10600306               -0.00394533
              16.61288883                8.16575839               89.47556032                0.72123437                0.03440192                0.03465099               -0.11508691               -0.00026894                0.07888768               -0.00709852
              17.61328336                8.16410911               89.32296412                0.72137917                0.04446506                0.04475268               -0.14859502               -0.00009218                0.04283535               -0.01215630
              18.61377813                8.16245867               89.17000790                0.86075141                0.04947671                0.05487179               -0.18195150                0.00011468                0.01996533               -0.02060292
               8.61493206                9.17844423               90.69030852                0.86075858               -0.04045897               -0.04573970                0.15155208               -0.00007056                0.01856384                0.01389865
               9.61452747                9.17691221               90.53723048                0.72137869               -0.03553035               -0.03543389                0.11827304               -0.00011023                0.06014188                0.00484488
              10.61422145                9.17537537               90.38490440                0.72123055               -0.02559939               -0.02547109                0.08500094               -0.00026722                0.11211924                0.00326324
              11.61401548                9.17383478               90.23280632                0.72114102               -0.01562260               -0.01544471                0.05167201               -0.00033612                0.13221574                0.00196313
              12.61390900                9.17229195               90.08084277                0.72109339               -0.00566513               -0.00540108                0.01829114               -0.00035109                0.14231322                0.00095018
              13.61390218                9.17074726               89.92892747                0.72108094                0.00432356                0.00465760               -0.01515343               -0.00035007                0.14283111                0.00003433
              14.61399547                9.16920112               89.77697547                0.72109760                0.01436794                0.01472590               -0.04867602               -0.00032645                0.13383682               -0.00095090
              15.61418954                9.16765386               89.62490165                0.72114704                0.02447652                0.02479673               -0.08226926               -0.00027517                0.11523682               -0.00220737
              16.61448500                9.16610577               89.47261866                0.72123806                0.03462986                0.03486182               -0.11588154               -0.00017519                0.08662909               -0.00407753
              17.61488214                9.16455740               89.32003267                0.72137664                0.04472659                0.04491393               -0.14941133               -0.00003821                0.04742843               -0.00734029
              18.61537953                9.16300840               89.16704427                0.86075269                0.04973983                0.05513836               -0.18273509                0.00014998                0.02243541               -0.01492728
               8.61641196               10.17798675               90.68700834                0.93038022               -0.04018961               -0.04574821                0.15104962                0.00523457                0.02472538                0.01204579
               9.61601006               10.17655920               90.53392158                0.86069081               -0.03518404               -0.03530123                0.11777370                0.00497697                0.07008648                0.00362370
              10.61570828               10.17512111               90.38166357                0.86061860               -0.02525734               -0.02542621                0.08447083                0.00477682                0.12554996                0.00298671
              11.61550491               10.17368109               90.22962762                0.86057588               -0.01539408               -0.01536899                0.05110793                0.00482830                0.14538562                0.00177943
              12.61540039               10.17223881               90.07772772                0.86055300               -0.00548617               -0.00531349                0.01768817                0.00482688                0.15552660                0.00075721
              13.61539519               10.17079484               89.92587617                0.86054560                0.00447339                0.00475816               -0.01579856                0.00483489                0.15596999               -0.00021713
              14.61548986               10.16934949               89.77398712                0.86055362                0.01449877                0.01483742               -0.04937119                0.00484745                0.14679520               -0.00122622
              15.61568517               10.16790301               89.62197430                0.86057943                0.02459570                0.02491551               -0.08302438                0.00486946                0.12785696               -0.00238250
              16.61598178               10.16645563               89.46974830                0.86062153                0.03474006                0.03498571               -0.11670284                0.00489618                0.09861690               -0.00389578
              17.61637997               10.16500739               89.31721122                0.86069159                0.04486805                0.04499859               -0.15029507                0.00507362                0.05678493               -0.00619059
              18.61687914               10.16356144               89.16422729                0.93037710                0.04991699                0.05530389               -0.18362596                0.00536504                0.02958070               -0.01296129
               8.75031860                0.18558151               91.71948541                0.93035598               -0.03753226               -0.04232291                0.14027664               -0.00481382                0.02069914               -0.00495645
               9.74994328                0.18316479               91.56630012                0.86066145               -0.03310401               -0.03303345                0.11059138               -0.00454065                0.04905142               -0.00469993
              10.74965652                0.18075147               91.41359637                0.86060396               -0.02428390               -0.02418910                0.08095142               -0.00441955                0.08797542               -0.00169727
              11.74945760                0.17833651               91.26112415                0.86056742               -0.01550561               -0.01526023                0.05133235               -0.00445455                0.10852099               -0.00089409
              12.74934641                0.17591973               91.10878613                0.86055416               -0.00672700               -0.00633590                0.02172605               -0.00446474                0.11914192               -0.00033105
              13.74932306                0.17350056               90.95650218                0.86054476                0.00208269                0.00259751               -0.00791171               -0.00447654                0.12081610                0.00011217
              14.74938806                0.17107857               90.80419521                0.86055505                0.01096562                0.01153913               -0.03764506               -0.00448481                0.11378359                0.00049747
              15.74954237                0.16865354               90.65178988                0.86057175                0.01994697                0.02048676               -0.06751375               -0.00448900                0.09822662                0.00085909
              16.74978700                0.16622545               90.49921184                0.86060381                0.02900801                0.02944343               -0.09748887               -0.00447300                0.07425472                0.00125114
              17.75012253                0.16379473               90.34638654                0.86066377                0.03805539                0.03834978               -0.12746161               -0.00457204                0.04143258                0.00173288
              18.75054811                0.16135885               90.19322987                0.93035759                0.04255766                0.04761426               -0.15723527               -0.00459886                0.02004480                0.00350431
               8.75268718                1.18515828               91.71646624                0.86071170               -0.03742900               -0.04219468                0.13969078               -0.00012693                0.01658438               -0.00313390
               9.75231289                1.18283446               91.56325888                0.72131213               -0.03303576               -0.03299719                0.10998501               -0.00004378                0.04631026               -0.00403790
              10.75202647                1.18050958               91.41056074                0.72119403               -0.02419831               -0.02409262                0.08035032               -0.00001909                0.08547116               -0.00069166
              11.75182893                1.17818391               91.25807166                0.72112694               -0.01533648               -0.01517119                0.05071685               -0.00000324                0.10471898                0.00005304
              12.75171974                1.17585637               91.10571400                0.72109231               -0.00650261               -0.00624265                0.02107837               -0.00001856                0.11511452                0.00010470
              13.75169887                1.17352653               90.95340911                0.72107974                0.00234920                0.00269563               -0.00859609               -0.00004027                0.11671439               -0.00013858
              14.75176672                1.17119396               90.80108092                0.72109460                0.01125852                0.01164440               -0.03835152               -0.00006712                0.10971679               -0.00053028
              15.75192404                1.16885841               90.64865468                0.72113048                0.02024781                0.02060300               -0.06821057               -0.00009097                0.09426902               -0.00097865
              16.75217168                1.16651989               90.49605664                0.72119721                0.02930361                0.02957099               -0.09813995               -0.00012209                0.07044139               -0.00136047
              17.75251012                1.16417823               90.34321255                0.72131095                0.03831656                0.03854976               -0.12803750               -0.00011130                0.03830320               -0.00140536
              18.75293801                1.16183499               90.19004949                0.86070655                0.04278928                0.04773502               -0.15779242                0.00003876                0.01750694               -0.00016236
               8.75496371                2.18473761               91.71338721                0.86070668               -0.03726068               -0.04201503                0.13926603               -0.00014297                0.01338593               -0.00143981
               9.75459110                2.18250485               91.56015616                0.72130058               -0.03285108               -0.03293389                0.10949130               -0.00010754                0.04590865               -0.00219029
              10.75430669                2.18026962               91.40749070                0.72118034               -0.02401797               -0.02394735                0.07982121               -0.00010375                0.08634975               -0.00011674
              11.75411075                2.17803308               91.25500386                0.72111319               -0.01516390               -0.01500543                0.05014007               -0.00008009                0.10347063                0.00055695
              12.75400341                2.17579488               91.10263653                0.72107465               -0.00630419               -0.00605916                0.02045451               -0.00008921                0.11301931                0.00035651
              13.75398466                2.17355447               90.95031712                0.72106270                0.00257146                0.00289733               -0.00926778               -0.00012565                0.11426188               -0.00027076
              14.75405484                2.17131146               90.79797219                0.72107318                0.01149855                0.01186937               -0.03907333               -0.00017750                0.10713117               -0.00114070
              15.75421463                2.16906560               90.64552879                0.72111582                0.02049499                0.02086124               -0.06898805               -0.00023202                0.09174112               -0.00212852
              16.75446474                2.16681687               90.49291518                0.72118396                0.02952863                0.02987839               -0.09898446               -0.00026433                0.06829848               -0.00305996
              17.75480521                2.16456573               90.34006165                0.72129737                0.03853147                0.03895736               -0.12897670               -0.00021981                0.03713991               -0.00357309
              18.75523537                2.16231355               90.18690257                0.86070161                0.04301655                0.04807498               -0.15886692               -0.00002662                0.01701576               -0.00317871
               8.75714986                3.18431798               91.71030725                0.86070924               -0.03711213               -0.04193258                0.13890101               -0.00013313                0.01376165                0.00387078
               9.75677874                3.18217578               91.55707804                0.72130050               -0.03268531               -0.03286897                0.10905542               -0.00013917                0.04618288                0.00280574
              10.75649615                3.18003063               91.40441287                0.72117979               -0.02383371               -0.02384945                0.07932525               -0.00020094                0.08659861                0.00212325
              11.75630207                3.17788380               91.25192779                0.72110630               -0.01497932               -0.01485990                0.04958957               -0.00019721                0.10345904                0.00161209
              12.75619657                3.17573519               91.09955584                0.72106804               -0.00611447               -0.00588178                0.01985114               -0.00021147                0.11247894                0.00079973
              13.75617978                3.17358448               90.94722783                0.72105858                0.00277345                0.00310416               -0.00992571               -0.00024795                0.11339564               -0.00028872
              14.75625204                3.17143135               90.79487200                0.72107271                0.01171085                0.01211060               -0.03979136               -0.00029781                0.10608529               -0.00160066
              15.75641399                3.16927564               90.64241666                0.72111046                0.02071146                0.02114855               -0.06977943               -0.00034052                0.09065856               -0.00309071
              16.75666627                3.16711745               90.48979165                0.72118157                0.02975260                0.03022954               -0.09986548               -0.00034088                0.06738145               -0.00466617
              17.75700905                3.16495738               90.33692967                0.72129653                0.03877871                0.03935665               -0.12996706               -0.00023992                0.03660276               -0.00616578
              18.75744184                3.16279649               90.18376687                0.86069961                0.04327956                0.04850342               -0.15997037               -0.00001458                0.01672062               -0.00743085
               8.75924545                4.18389896               91.70724177                0.86070587               -0.03697831               -0.04186174                0.13855415               -0.00013356                0.01394093                0.00944847
               9.75887567                4.18184747               91.55400261                0.72130132               -0.03254000               -0.03278224                0.10864298               -0.00017378                0.04670319                0.00643048
              10.75859465                4.17979263               91.40133486                0.72117576               -0.02367115               -0.02374185                0.07885408               -0.00029072                0.08751146                0.00449556
              11.75840225                4.17773589               91.24884815                0.72110273               -0.01480754               -0.01471968                0.04906253               -0.00032400                0.10437823                0.00286997
              12.75829850                4.17567724               91.09647415                0.72106667               -0.00593544               -0.00570927                0.01926923               -0.00035513                0.11326540                0.00135378
              13.75828354                4.17361655               90.94414221                0.72105476                0.00296131                0.00330659               -0.01056511               -0.00039052                0.11397300               -0.00024050
              14.75835773                4.17155367               90.79178049                0.72106532                0.01190913                0.01234626               -0.04049516               -0.00042213                0.10645282               -0.00201658
              15.75852172                4.16948857               90.63931739                0.72110801                0.02092269                0.02142465               -0.07055859               -0.00043031                0.09084168               -0.00404633
              16.75877618                4.16742146               90.48668315                0.72118032                0.02998261                0.03054847               -0.10073334               -0.00038409                0.06743361               -0.00636428
              17.75912137                4.16535286               90.33381106                0.72129909                0.03903388                0.03970999               -0.13093122               -0.00024673                0.03659806               -0.00896736
              18.75955686                4.16328362               90.18063802                0.86070225                0.04354866                0.04888499               -0.16102622               -0.00000953                0.01671151               -0.01181431
               8.76125018                5.18348074               91.70418252                0.86070663               -0.03685833               -0.04175980                0.13819341               -0.00013579                0.01428428                0.01408412
               9.76088160                5.18152013               91.55092551                0.72129847               -0.03241307               -0.03267140                0.10823600               -0.00020821                0.04764963                0.00934875
              10.76060192                5.17955579               91.39825260                0.72117521               -0.02353133               -0.02361369                0.07839796               -0.00037388                0.08927687                0.00632635
              11.76041097                5.17758940               91.24576499                0.72110430               -0.01465610               -0.01457082                0.04855582               -0.00044303                0.10642628                0.00392168
              12.76030880                5.17562100               91.09339198                0.72106490               -0.00577198               -0.00553874                0.01870828               -0.00049523                0.11538171                0.00184593
              13.76029553                5.17365061               90.94106096                0.72105106                0.00313865                0.00349894               -0.01118316               -0.00052801                0.11598186               -0.00015877
              14.76037157                5.17167828               90.78869853                0.72106639                0.01210320                0.01256183               -0.04117643               -0.00053340                0.10821575               -0.00231428
              15.76053760                5.16970413               90.63623186                0.72110737                0.02113628                0.02166530               -0.07130924               -0.00049833                0.09225153               -0.00481081
              16.76079430                5.16772842               90.48359023                0.72118233                0.03021804                0.03081356               -0.10155739               -0.00040664                0.06841050               -0.00781897
              17.76114196                5.16575158               90.33070621                0.72129981                0.03929225                0.03999463               -0.13182639               -0.00024167                0.03709429               -0.01147946
              18.76158014                5.16377419               90.17751633                0.86070106                0.04381848                0.04918075               -0.16198245                0.00000006                0.01696140               -0.01587822
               8.76316396                6.18306377               91.70112023                0.86070794               -0.03675049               -0.04161472                0.13780568               -0.00013226                0.01481770                0.01755216
               9.76279645                6.18119404               91.54783789                0.72129784               -0.03230278               -0.03253484                0.10782798               -0.00022727                0.04916765                0.01116397
              10.76251790                6.17932035               91.39516005                0.72117438               -0.02341379               -0.02346328                0.07795431               -0.00043329                0.09214388                0.00736410
              11.76232818                6.17744447               91.24267475                0.72110520               -0.01452572               -0.01441025                0.04806693               -0.00053720                0.10982581                0.00448567
              12.76222739                6.17556647               91.09030806                0.72106681               -0.00562387               -0.00536910                0.01816845               -0.00060843                0.11900709                0.00212479
              13.76221570                6.17368653               90.93798444                0.72105301                0.00330754                0.00367899               -0.01177941               -0.00063633                0.11955712               -0.00007344
              14.76229354                6.17180491               90.78562786                0.72106509                0.01229527                0.01275255               -0.04183261               -0.00061487                0.11149280               -0.00241008
              15.76246161                6.16992188               90.63316309                0.72110960                0.02135294                0.02186484               -0.07202523               -0.00053843                0.09499517               -0.00517476
              16.76272060                6.16803773               90.48051704                0.72117860                0.03045834                0.03101965               -0.10232878               -0.00040540                0.07039732               -0.00868109
              17.76307077                6.16615275               90.32762008                0.72130027                0.03955202                0.04020389               -0.13264154               -0.00022111                0.03813966               -0.01324954
              18.76351164                6.16426723               90.17440713                0.86070076                0.04408660                0.04938182               -0.16282228                0.00001816                0.01749623               -0.01913578
               8.76498699                7.18264845               91.69804149                0.86070572               -0.03665275               -0.04144437                0.13739661               -0.00011477                0.01561769                0.01938322
               9.76462047                7.18086944               91.54472709                0.72130024               -0.03220850               -0.03237548                0.10742462               -0.00021507                0.05146289                0.01143645
              10.76434282                7.17908653               91.39204789                0.72117766               -0.02331750               -0.02329241                0.07752490               -0.00045059                0.09645990                0.00729042
              11.76415412                7.17730120               91.23957170                0.72110846               -0.01441280               -0.01424309                0.04759714               -0.00058576                0.11491658                0.00438211
              12.76405457                7.17551362               91.08721986                0.72107006               -0.00548773               -0.00520343                0.01764836               -0.00066551                0.12443684                0.00209198
              13.76404436                7.17372419               90.93491279                0.72105931                0.00346781                0.00384864               -0.01235551               -0.00068528                0.12496151               -0.00000117
              14.76412392                7.17193333               90.78257115                0.72106896                0.01248207                0.01292482               -0.04246718               -0.00064401                0.11654329               -0.00222648
              15.76429400                7.17014143               90.63011638                0.72111339                0.02156955                0.02203268               -0.07271307               -0.00053906                0.09933628               -0.00492935
              16.76455532                7.16834882               90.47747152                0.72118532                0.03070174                0.03117691               -0.10305821               -0.00037451                0.07362938               -0.00856111
              17.76490804                7.16655566               90.32456271                0.72129674                0.03981187                0.04035061               -0.13339008               -0.00017968                0.03987722               -0.01372145
              18.76535155                7.16476182               90.17132126                0.86070255                0.04435144                0.04950961               -0.16356071                0.00004973                0.01839565               -0.02096804
               8.76671969                8.18223488               91.69492703                0.86070357               -0.03656177               -0.04129745                0.13698593               -0.00007481                0.01683294                0.01889432
               9.76635407                8.18054653               91.54157515                0.72129980               -0.03212809               -0.03219004                0.10703888               -0.00016974                0.05488697                0.00946530
              10.76607713                8.17885451               91.38890355                0.72118156               -0.02323505               -0.02311521                0.07711507               -0.00042379                0.10278023                0.00587383
              11.76588937                8.17715961               91.23644863                0.72111370               -0.01430212               -0.01408784                0.04714633               -0.00055733                0.12218486                0.00353396
              12.76579109                8.17546240               91.08412413                0.72108056               -0.00535430               -0.00504555                0.01714563               -0.00062207                0.13205498                0.00170481
              13.76578229                8.17376350               90.93184607                0.72106594                0.00361683                0.00401417               -0.01291629               -0.00062987                0.13254663                0.00004680
              14.76586342                8.17206341               90.77953181                0.72108093                0.01265249                0.01309454               -0.04308749               -0.00058534                0.12375145               -0.00172438
              15.76603534                8.17036253               90.62709916                0.72111794                0.02177275                0.02219567               -0.07338889               -0.00048148                0.10573340               -0.00392942
              16.76629888                8.16866127               90.47446600                0.72118894                0.03094173                0.03131433               -0.10377305               -0.00031517                0.07857873               -0.00705964
              17.76665417                8.16695977               90.32155076                0.72130154                0.04007087                0.04046256               -0.13411095               -0.00011719                0.04262525               -0.01206031
              18.76710030                8.16525742               90.16827724                0.86070150                0.04461249                0.04962101               -0.16424170                0.00010147                0.01985530               -0.02039852
               8.76836220                9.18182250               91.69174934                0.86070771               -0.03647539               -0.04124668                0.13659684               -0.00005363                0.01856543                0.01387800
               9.76799745                9.18022563               91.53835525                0.72130456               -0.03204650               -0.03197749                0.10668327               -0.00013373                0.06014987                0.00487479
              10.76772127                9.17862422               91.38571304                0.72118517               -0.02311836               -0.02299674                0.07672515               -0.00030955                0.11211557                0.00329754
              11.76753508                9.17701944               91.23329825                0.72112426               -0.01415198               -0.01395588                0.04670866               -0.00038739                0.13219215                0.00199667
              12.76743823                9.17541271               91.08101746                0.72108703               -0.00521616               -0.00489464                0.01665323               -0.00040939                0.14225752                0.00097514
              13.76743076                9.17380447               90.92878424                0.72107812                0.00374784                0.00418581               -0.01346789               -0.00041008                0.14269307                0.00004939
              14.76751319                9.17219522               90.77651338                0.72109436                0.01278761                0.01328235               -0.04370249               -0.00038259                0.13356727               -0.00094369
              15.76768651                9.17058534               90.62411978                0.72112690                0.02192963                0.02238938               -0.07407003               -0.00032235                0.11484250               -0.00219949
              16.76795178                9.16897510               90.47151665                0.72119457                0.03115180                0.03149577               -0.10451283               -0.00021057                0.08620623               -0.00405320
              17.76830954                9.16736491               90.31861137                0.72130157                0.04032451                0.04058709               -0.13487595               -0.00005874                0.04714710               -0.00727314
              18.76875827                9.16575425               90.16530608                0.86069936                0.04487261                0.04981778               -0.16495185                0.00014295                0.02228583               -0.01474953
               8.76991235               10.18140995               91.68844487                0.93035471               -0.03626748               -0.04125542                0.13625277                0.00471825                0.02470190                0.01203069
               9.76954968               10.17990698               91.53504211                0.86065375               -0.03176088               -0.03186558                0.10634753                0.00445410                0.07003604                0.00364121
              10.76927713               10.17839457               91.38246756                0.86059834               -0.02282669               -0.02296536                0.07633476                0.00426172                0.12545976                0.00300189
              11.76909314               10.17688049               91.23011449                0.86056703               -0.01396325               -0.01389515                0.04626559                0.00430287                0.14527264                0.00179432
              12.76899787               10.17536450               91.07789688                0.86055104               -0.00507833               -0.00482041                0.01615707                0.00430017                0.15537803                0.00076478
              13.76899157               10.17384722               90.92572693                0.86054518                0.00385193                0.00427467               -0.01401726                0.00430930                0.15572721               -0.00021608
              14.76907491               10.17232905               90.77351845                0.86055264                0.01287153                0.01338342               -0.04431609                0.00432694                0.14639655               -0.00122967
              15.76924901               10.17081032               90.62118514                0.86057020                0.02200967                0.02249825               -0.07476487                0.00435643                0.12730577               -0.00238254
              16.76951510               10.16929119               90.46863821                0.86059970                0.03124245                0.03160843               -0.10530414                0.00439127                0.09801945               -0.00387986
              17.76987385               10.16777151               90.31578108                0.86065392                0.04046899                0.04066011               -0.13576295                0.00456056                0.05635850               -0.00614169
              18.77032448               10.16625378               90.16248017                0.93035153                0.04506249                0.04995331               -0.16584998                0.00484788                0.02932268               -0.01281351
               8.90385943                0.18855440               92.72080823                0.93033287               -0.03324072               -0.03749357                0.12423370               -0.00425045                0.02067631               -0.00485156
               9.90352702                0.18616219               92.56734334                0.86062349               -0.02931052               -0.02929518                0.09802569               -0.00399925                0.04907290               -0.00466662
              10.90327322                0.18377319               92.41436013                0.86058572               -0.02149052               -0.02146227                0.07176014               -0.00388813                0.08808874               -0.00168749
              11.90309721                0.18138317               92.26160870                0.86056236               -0.01374403               -0.01354939                0.04553710               -0.00391294                0.10876031               -0.00089293
              12.90299834                0.17899181               92.10899175                0.86054898               -0.00605043               -0.00563631                0.01938331               -0.00392058                0.11946343               -0.00032609
              13.90297621                0.17659819               91.95642862                0.86054499                0.00164679                0.00228857               -0.00677346               -0.00393633                0.12108537                0.00012484
              14.90303128                0.17420137               91.80384135                0.86054870                0.00944272                0.01022717               -0.03306298               -0.00395627                0.11384684                0.00051118
              15.90316506                0.17180072               91.65115400                0.86055999                0.01740948                0.01817825               -0.05958215               -0.00397533                0.09801066                0.00085643
              16.90337947                0.16939616               91.49829252                0.86058562                0.02553604                0.02614206               -0.08631266               -0.00397108                0.07383636                0.00120647
              17.90367578                0.16698844               91.34518372                0.86062636                0.03367891                0.03405761               -0.11307867               -0.00405793                0.04105527                0.00162504
              18.90405304                0.16457600               91.19174605                0.93033219                0.03772634                0.04227558               -0.13952475               -0.00408556                0.01976676                0.00324144
               8.90620914                1.18817946               92.71778354                0.86066346               -0.03315025               -0.03741217                0.12371835               -0.00011051                0.01660060               -0.00290562
               9.90587764                1.18586924               92.56429634                0.72124256               -0.02926446               -0.02928464                0.09748538               -0.00001362                0.04638052               -0.00393528
              10.90562385                1.18355857               92.41131884                0.72115407               -0.02144308               -0.02138889                0.07123708                0.00004734                0.08561240               -0.00064367
              11.90544877                1.18124767               92.25855039                0.72110618               -0.01361115               -0.01347616                0.04499671                0.00009173                0.10493157                0.00007005
              12.90535163                1.17893545               92.10591340                0.72108462               -0.00583551               -0.00555507                0.01878754                0.00009335                0.11537333                0.00011508
              13.90533206                1.17662107               91.95332885                0.72108588                0.00194092                0.00237812               -0.00743950                0.00006635                0.11692981               -0.00012753
              14.90539044                1.17430364               91.80072003                0.72108485                0.00979226                0.01032811               -0.03377962                0.00001157                0.10978736               -0.00053351
              15.90552791                1.17198251               91.64801186                0.72110927                0.01777255                0.01829628               -0.06029855               -0.00005389                0.09415588               -0.00103222
              16.90574590                1.16965758               91.49513092                0.72115725                0.02586861                0.02628043               -0.08696494               -0.00012144                0.07022223               -0.00151513
              17.90604528                1.16732902               91.34200426                0.72123653                0.03393669                0.03427484               -0.11361319               -0.00013010                0.03814570               -0.00171718
              18.90642463                1.16499876               91.18856042                0.86066149                0.03793481                0.04244903               -0.14002949                0.00000664                0.01742774               -0.00071807
               8.90847768                2.18780615               92.71470097                0.86066046               -0.03300290               -0.03733850                0.12346241               -0.00011746                0.01340436               -0.00108361
               9.90814765                2.18557649               92.56118925                0.72123326               -0.02909736               -0.02928193                0.09711569               -0.00005313                0.04599764               -0.00200553
              10.90789573                2.18334541               92.40824393                0.72114111               -0.02127392               -0.02129318                0.07079911                0.00001651                0.08652942               -0.00002175
              11.90772217                2.18111365               92.25547717                0.72109735               -0.01344589               -0.01334614                0.04449124                0.00008634                0.10372300                0.00059981
              12.90762681                2.17888071               92.10282998                0.72107312               -0.00564135               -0.00539751                0.01822092                0.00010369                0.11332187                0.00038222
              13.90760934                2.17664575               91.95023036                0.72106591                0.00216311                0.00256294               -0.00806730                0.00005684                0.11452342               -0.00025345
              14.90767007                2.17440793               91.79760424                0.72107252                0.01003485                0.01054691               -0.03447312               -0.00004337                0.10724972               -0.00115544
              15.90781004                2.17216665               91.64487827                0.72109754                0.01802257                0.01856322               -0.06106965               -0.00016869                0.09167342               -0.00223304
              16.90803052                2.16992177               91.49198097                0.72114633                0.02609825                0.02661700               -0.08783540               -0.00026720                0.06810814               -0.00333080
              17.90833200                2.16767394               91.33884372                0.72123281                0.03415874                0.03473643               -0.11463229               -0.00025183                0.03697833               -0.00409407
              18.90871370                2.16542498               91.18540218                0.86065404                0.03816957                0.04289776               -0.14126469               -0.00005450                0.01692277               -0.00400275
               8.91066611                3.18743269               92.71161813                0.86066274               -0.03287948               -0.03736750                0.12327441               -0.00010462                0.01378860                0.00422097
               9.91033731                3.18528360               92.55810736                0.72123065               -0.02895409               -0.02928474                0.09681002               -0.00007969                0.04628778                0.00299191
              10.91008703                3.18313270               92.40516163                0.72114015               -0.02110555               -0.02124613                0.07040198               -0.00007399                0.08681093                0.00222301
              11.90991520                3.18098075               92.25239598                0.72108735               -0.01327155               -0.01323941                0.04401865               -0.00002988                0.10375778                0.00166506
              12.90982160                3.17882750               92.09974358                0.72106817               -0.00546116               -0.00524794                0.01768310               -0.00002349                0.11283566                0.00083443
              13.90980598                3.17667233               91.94713476                0.72105409                0.00235395                0.00275271               -0.00867013               -0.00007291                0.11371159               -0.00026663
              14.90986868                3.17451458               91.79449708                0.72106816                0.01023567                0.01078341               -0.03515000               -0.00016935                0.10624714               -0.00161394
              15.91001069                3.17235377               91.64175831                0.72109041                0.01822924                0.01886235               -0.06184401               -0.00027858                0.09061365               -0.00319158
              16.91023326                3.17018992               91.48884856                0.72114300                0.02631691                0.02700218               -0.08873967               -0.00034067                0.06719039               -0.00492196
              17.91053703                3.16802375               91.33570154                0.72123090                0.03440964                0.03520149               -0.11570173               -0.00026756                0.03642796               -0.00663915
              18.91092145                3.16585671               91.18225491                0.86065507                0.03844212                0.04342476               -0.14250941               -0.00003702                0.01662279               -0.00814732
               8.91277377                4.18705880               92.70854991                0.86066077               -0.03277338               -0.03738595                0.12308699               -0.00010529                0.01397317                0.00971471
               9.91244604                4.18499080               92.55502838                0.72123104               -0.02883408               -0.02925540                0.09652019               -0.00012305                0.04681937                0.00657141
              10.91219709                4.18292049               92.40207939                0.72113844               -0.02096322               -0.02118208                0.07002991               -0.00018442                0.08774717                0.00457791
              11.91202678                4.18084886               92.24931149                0.72108750               -0.01311656               -0.01313381                0.04357454               -0.00018827                0.10471013                0.00292153
              12.91193476                4.17877575               92.09665643                0.72106162               -0.00529865               -0.00510221                0.01717366               -0.00020709                0.11366090                0.00139223
              13.91192080                4.17670080               91.94404306                0.72105079                0.00252417                0.00293661               -0.00924567               -0.00025501                0.11432497               -0.00021247
              14.91198524                4.17462360               91.79139878                0.72106147                0.01041587                0.01101036               -0.03580220               -0.00032358                0.10663861               -0.00201854
              15.91212912                4.17254390               91.63865141                0.72108844                0.01842442                0.01914252               -0.06259291               -0.00038310                0.09080165               -0.00411499
              16.91235373                4.17046181               91.48573139                0.72114366                0.02653701                0.02734245               -0.08961032               -0.00038383                0.06723015               -0.00654719
              17.91265986                4.16837797               91.33257312                0.72122703                0.03466467                0.03559762               -0.11671301               -0.00026686                0.03640869               -0.00930419
              18.91304703                4.16629348               91.17911517                0.86065642                0.03871660                0.04387164               -0.14366055               -0.00002642                0.01660884               -0.01232212
               8.91480001                5.18668497               92.70548768                0.86065966               -0.03268457               -0.03733856                0.12285650               -0.00011006                0.01431854                0.01422214
               9.91447317                5.18469849               92.55194776                0.72123225               -0.02873662               -0.02918265                0.09622263               -0.00017661                0.04776783                0.00942359
              10.91422528                5.18270906               92.39899305                0.72113588               -0.02084954               -0.02108562                0.06966976               -0.00030904                0.08951547                0.00637936
              11.91405618                5.18071808               92.24622369                0.72108783               -0.01298861               -0.01301276                0.04315336               -0.00036263                0.10676205                0.00396437
              12.91396551                5.17872545               92.09356904                0.72105745               -0.00515722               -0.00495621                0.01669063               -0.00041047                0.11578178                0.00188484
              13.91395303                5.17673106               91.94095599                0.72104948                0.00268004                0.00310823               -0.00979277               -0.00045320                0.11633495               -0.00012560
              14.91401911                5.17473478               91.78831030                0.72105936                0.01058910                0.01121046               -0.03642302               -0.00048202                0.10839415               -0.00229952
              15.91416481                5.17273662               91.63555859                0.72109118                0.01862001                0.01937415               -0.06329798               -0.00047731                0.09219423               -0.00483411
              16.91439151                5.17073677               91.48263035                0.72114023                0.02676080                0.02760695               -0.09041144               -0.00041153                0.06818431               -0.00790311
              17.91470003                5.16873570               91.32945932                0.72123036                0.03491989                0.03589214               -0.11761393               -0.00025582                0.03688821               -0.01164163
              18.91508991                5.16673415               91.17598379                0.86065528                0.03898772                0.04418984               -0.14465183               -0.00001199                0.01685097               -0.01612494
               8.91674454                6.18631203               92.70242202                0.86066093               -0.03261235               -0.03720961                0.12256777               -0.00011034                0.01484933                0.01755822
               9.91641842                6.18440715               92.54885655                0.72123105               -0.02866089               -0.02906330                0.09591145               -0.00021992                0.04927456                0.01117565
              10.91617132                6.18249878               92.39589653                0.72114012               -0.02076435               -0.02095474                0.06931927               -0.00041869                0.09235711                0.00738988
              11.91600313                6.18058860               92.24312900                0.72108479               -0.01288799               -0.01287352                0.04275291               -0.00052069                0.11012855                0.00452027
              12.91591356                6.17867663               92.09048014                0.72106123               -0.00503620               -0.00480899                0.01623393               -0.00059458                0.11936892                0.00216313
              13.91590241                6.17676297               91.93787388                0.72105196                0.00282404                0.00326548               -0.01031216               -0.00062916                0.11986718               -0.00003707
              14.91597005                6.17484781               91.78523340                0.72106291                0.01075894                0.01137834               -0.03700998               -0.00061702                0.11162508               -0.00238100
              15.91611759                6.17293138               91.63248294                0.72108947                0.01881891                0.01955086               -0.06395484               -0.00054914                0.09489260               -0.00515548
              16.91634642                6.17101395               91.47954967                0.72114270                0.02698915                0.02778956               -0.09113496               -0.00042010                0.07013363               -0.00866991
              17.91665737                6.16909581               91.32636522                0.72123068                0.03517355                0.03607704               -0.11839205               -0.00023207                0.03791189               -0.01323967
              18.91704989                6.16717728               91.17286633                0.86065439                0.03925249                0.04436710               -0.14546423                0.00000949                0.01737489               -0.01911749
               8.91860758                7.18594078               92.69933963                0.86066059               -0.03255555               -0.03702279                0.12223551               -0.00009626                0.01564025                0.01929011
               9.91828203                7.18411722               92.54574220                0.72123417               -0.02860644               -0.02890631                0.09559925               -0.00023049                0.05154150                0.01141001
              10.91803545                7.18228997               92.39278057                0.72114072               -0.02070554               -0.02079627                0.06898537               -0.00048112                0.09661692                0.00730283
              11.91786791                7.18046061               92.24002174                0.72109216               -0.01280998               -0.01272427                0.04237715               -0.00062467                0.11514776                0.00441491
              12.91777925                7.17862927               92.08738718                0.72106468               -0.00493227               -0.00466466                0.01580287               -0.00071239                0.12471745                0.00213003
              13.91776927                7.17679637               91.93479688                0.72105759                0.00295524                0.00341060               -0.01080520               -0.00073609                0.12518523                0.00003478
              14.91783836                7.17496235               91.78217071                0.72106438                0.01092082                0.01152232               -0.03756767               -0.00069243                0.11658984               -0.00219209
              15.91798769                7.17312764               91.62942969                0.72109485                0.01901587                0.01968559               -0.06457219               -0.00057881                0.09915666               -0.00488473
              16.91821867                7.17129256               91.47649718                0.72114491                0.02721911                0.02790590               -0.09179610               -0.00040105                0.07330678               -0.00848424
              17.91853207                7.16945724               91.32330069                0.72123205                0.03542494                0.03617142               -0.11906902               -0.00019086                0.03961842               -0.01357983
              18.91892717                7.16762149               91.16977344                0.86065590                0.03951057                0.04443006               -0.14612101                0.00004364                0.01825798               -0.02072972
               8.92038973                8.18557158               92.69622150                0.86066198               -0.03251121               -0.03684164                0.12189845               -0.00005782                0.01683935                0.01875836
               9.92006462                8.18382902               92.54258693                0.72123504               -0.02857076               -0.02872360                0.09531461               -0.00019935                0.05491798                0.00943786
              10.91981832                8.18208285               92.38963267                0.72114418               -0.02066452               -0.02063327                0.06868265               -0.00047919                0.10284879                0.00588984
              11.91965133                8.18033412               92.23689467                0.72109743               -0.01273848               -0.01258789                0.04203011               -0.00062614                0.12231057                0.00356890
              12.91956355                8.17858333               92.08428690                0.72107314               -0.00483617               -0.00452915                0.01539742               -0.00070145                0.13222064                0.00174127
              13.91955461                8.17683118               91.93172499                0.72106835                0.00306902                0.00355064               -0.01127543               -0.00071142                0.13265014                0.00007658
              14.91962493                8.17507825               91.77912557                0.72107261                0.01105949                0.01166248               -0.03810443               -0.00065834                0.12367568               -0.00169653
              15.91977580                8.17332509               91.62640608                0.72110129                0.01919348                0.01981225               -0.06516923               -0.00053728                0.10543781               -0.00388559
              16.92000880                8.17157207               91.47348486                0.72114900                0.02744143                0.02799687               -0.09243403               -0.00034958                0.07816354               -0.00696777
              17.92032463                8.16981924               91.32028190                0.72123271                0.03567365                0.03621901               -0.11970332               -0.00013103                0.04231548               -0.01186828
              18.92072227                8.16806588               91.16672307                0.86065712                0.03976458                0.04444925               -0.14669107                0.00009631                0.01968825               -0.02003575
               8.92209154                9.18520395               92.69304046                0.86065977               -0.03247754               -0.03676377                0.12161001               -0.00003070                0.01854860                0.01376941
               9.92176676                9.18354275               92.53936415                0.72123720               -0.02853835               -0.02853529                0.09509517               -0.00015930                0.06011084                0.00487106
              10.92152077                9.18187730               92.38643890                0.72115025               -0.02059264               -0.02053767                0.06842177               -0.00035683                0.11206384                0.00331681
              11.92135491                9.18020885               92.23374049                0.72110778               -0.01263057               -0.01248156                0.04170899               -0.00044482                0.13218975                0.00202584
              12.92126816                9.17853869               92.08117583                0.72108414               -0.00473951               -0.00440398                0.01501219               -0.00047508                0.14229178                0.00100102
              13.92126012                9.17686739               91.92865811                0.72108013                0.00315589                0.00369728               -0.01172783               -0.00047660                0.14265784                0.00006624
              14.92133128                9.17519560               91.77610142                0.72108627                0.01115006                0.01182491               -0.03862849               -0.00044232                0.13333927               -0.00093188
              15.92148312                9.17352388               91.62342025                0.72111407                0.01931274                0.01997701               -0.06576975               -0.00036865                0.11438219               -0.00217841
              16.92171753                9.17185250               91.47052840                0.72115784                0.02762604                0.02814189               -0.09310495               -0.00024176                0.08563597               -0.00399724
              17.92203564                9.17018162               91.31733515                0.72123871                0.03591483                0.03629498               -0.12039962               -0.00007433                0.04673996               -0.00714072
              18.92243583                9.16851047               91.16374523                0.86065515                0.04001870                0.04455532               -0.14729746                0.00014144                0.02206283               -0.01443799
               8.92371152               10.18483630               92.68973340                0.93033186               -0.03234338               -0.03676461                0.12145082                0.00419902                0.02462964                0.01195518
               9.92338808               10.18325831               92.53604853                0.86061731               -0.02832152               -0.02844360                0.09495353                0.00392179                0.06988923                0.00364204
              10.92314509               10.18167210               92.38319026                0.86057895               -0.02035177               -0.02052032                0.06818501                0.00373998                0.12526246                0.00300927
              11.92298105               10.18008449               92.23055294                0.86055946               -0.01247877               -0.01243621                0.04139335                0.00377141                0.14513950                0.00180781
              12.92289551               10.17849525               92.07805086                0.86054982               -0.00464401               -0.00434372                0.01463105                0.00376701                0.15529212                0.00077189
              13.92288817               10.17690513               91.92559582                0.86054569                0.00320374                0.00377397               -0.01216842                0.00377957                0.15556212               -0.00021898
              14.92295959               10.17531475               91.77310079                0.86054963                0.01116794                0.01191509               -0.03914156                0.00380608                0.14600219               -0.00123858
              15.92311153               10.17372463               91.62047900                0.86055875                0.01933209                0.02007479               -0.06638499                0.00384832                0.12662681               -0.00238316
              16.92334623               10.17213491               91.46764221                0.86058133                0.02768211                0.02824087               -0.09385347                0.00389493                0.09718887               -0.00384976
              17.92366517               10.17054514               91.31449596                0.86061911                0.03605854                0.03635197               -0.12129198                0.00405624                0.05572465               -0.00605183
              18.92406740               10.16895698               91.16091029                0.93032776                0.04022300                0.04465093               -0.14820527                0.00434103                0.02892252               -0.01255738
               9.05766190                0.19153385               93.72197008                0.93031098               -0.02890670               -0.03264283                0.10809427               -0.00367244                0.02054419               -0.00465300
              10.05737284                0.18916544               93.56826063                0.86059302               -0.02544857               -0.02556017                0.08540479               -0.00344086                0.04892414               -0.00461150
              11.05715293                0.18680030               93.41503157                0.86056622               -0.01858277               -0.01873985                0.06245393               -0.00333435                0.08803727               -0.00168479
              12.05700118                0.18443528               93.26203489                0.86055239               -0.01185863               -0.01184431                0.03961682               -0.00333751                0.10898443               -0.00090415
              13.05691576                0.18206991               93.10917380                0.86054818               -0.00530033               -0.00494679                0.01698020               -0.00333522                0.11991486               -0.00032490
              14.05689517                0.17970260               92.95636671                0.86054688                0.00119314                0.00196428               -0.00558523               -0.00335677                0.12153075                0.00014955
              15.05693962                0.17733144               92.80353396                0.86054888                0.00781194                0.00889638               -0.02832386               -0.00339838                0.11400246                0.00055026
              16.05705141                0.17495496               92.65059824                0.86055157                0.01471925                0.01585410               -0.05144590               -0.00344757                0.09770958                0.00087897
              17.05723401                0.17257278               92.49748559                0.86056533                0.02193472                0.02283542               -0.07497568               -0.00346944                0.07316418                0.00116700
              18.05749011                0.17018615               92.34412496                0.86059516                0.02923881                0.02977412               -0.09864852               -0.00355019                0.04041683                0.00148146
              19.05781878                0.16779494               92.19043938                0.93031090                0.03286759                0.03695615               -0.12183311               -0.00357541                0.01929336                0.00283806
               9.05999358                1.19120742               93.71894061                0.86062119               -0.02883801               -0.03262500                0.10766182               -0.00009046                0.01657151               -0.00253592
              10.05970520                1.18890984               93.56520858                0.72117804               -0.02544563               -0.02558609                0.08494491                0.00003681                0.04634565               -0.00378866
              11.05948467                1.18661290               93.41198548                0.72112225               -0.01861038               -0.01869514                0.06203671                0.00017048                0.08562849               -0.00060251
              12.05933300                1.18431683               93.25897159                0.72109465               -0.01179631               -0.01178950                0.03917748                0.00027650                0.10511227                0.00006855
              13.05924875                1.18202045               93.10608975                0.72108133               -0.00510764               -0.00487883                0.01644463                0.00031578                0.11570176                0.00012139
              14.05923084                1.17972224               92.95326032                0.72107624                0.00153572                0.00204435               -0.00625114                0.00028265                0.11725243               -0.00009457
              15.05927946                1.17742040               92.80040532                0.72108248                0.00827112                0.00899303               -0.02909620                0.00017799                0.10991130               -0.00049497
              16.05939627                1.17511350               92.64744871                0.72108888                0.01521279                0.01597653               -0.05224640                0.00003445                0.09398151               -0.00104935
              17.05958372                1.17280114               92.49431734                0.72112345                0.02236310                0.02299169               -0.07569539               -0.00010791                0.06984819               -0.00167625
              18.05984353                1.17048389               92.34094028                0.72117901                0.02952646                0.03002106               -0.09918768               -0.00015944                0.03785565               -0.00212189
              19.06017425                1.16816450               92.18724890                0.86061961                0.03307165                0.03720341               -0.12232526               -0.00003406                0.01728005               -0.00151164
               9.06225525                2.19088135               93.71585646                0.86061985               -0.02871559               -0.03269816                0.10764056               -0.00008278                0.01338774               -0.00054632
              10.06196810                2.18865372               93.56209848                0.72117476               -0.02529511               -0.02566823                0.08473231                0.00004211                0.04599553               -0.00175980
              11.06174935                2.18642639               93.40890668                0.72110993               -0.01844669               -0.01866311                0.06169814                0.00024223                0.08661806                0.00006857
              12.06159916                2.18419949               93.25589368                0.72108248               -0.01163419               -0.01170282                0.03874387                0.00041073                0.10399269                0.00062112
              13.06151667                2.18197234               93.10300095                0.72106570               -0.00491459               -0.00475137                0.01593494                0.00048791                0.11374817                0.00040706
              14.06150087                2.17974349               92.95015577                0.72106318                0.00176306                0.00220987               -0.00683577                0.00043156                0.11494589               -0.00020010
              15.06155193                2.17751130               92.79728273                0.72106875                0.00852498                0.00920624               -0.02976558                0.00024846                0.10747021               -0.00110753
              16.06167137                2.17527449               92.64430740                0.72108146                0.01547638                0.01625834               -0.05302408               -0.00000846                0.09158308               -0.00228325
              17.06186145                2.17303262               92.49115847                0.72111060                0.02260937                0.02337270               -0.07662289               -0.00023917                0.06778302               -0.00361308
              18.06212356                2.17078657               92.33776901                0.72117165                0.02977191                0.03056467               -0.10035156               -0.00029427                0.03667827               -0.00475529
              19.06245689                2.16853900               92.18407727                0.86061397                0.03333358                0.03780305               -0.12383630               -0.00009159                0.01674964               -0.00513777
               9.06444718                3.19055346               93.71277274                0.86061854               -0.02861811               -0.03288194                0.10768365               -0.00006191                0.01378589                0.00470389
              10.06416100                3.18839648               93.55901424                0.72117431               -0.02517162               -0.02576130                0.08457876                0.00003307                0.04631732                0.00320887
              11.06394375                3.18623964               93.40582091                0.72111017               -0.01828677               -0.01868155                0.06140505                0.00017179                0.08696988                0.00231024
              12.06379527                3.18408278               93.25280816                0.72107657               -0.01146239               -0.01164424                0.03834872                0.00030140                0.10412985                0.00169781
              13.06371450                3.18192542               93.09990950                0.72106263               -0.00473769               -0.00463553                0.01546247                0.00035742                0.11338316                0.00087082
              14.06370051                3.17976644               92.94705442                0.72105384                0.00194628                0.00237941               -0.00737986                0.00029638                0.11425566               -0.00020855
              15.06375343                3.17760453               92.79416900                0.72106251                0.00871347                0.00943893               -0.03039794                0.00012271                0.10656970               -0.00156616
              16.06387478                3.17543867               92.64117978                0.72107491                0.01567096                0.01657518               -0.05378164               -0.00010833                0.09058569               -0.00323553
              17.06406685                3.17326859               92.48801686                0.72111089                0.02282363                0.02380559               -0.07756653               -0.00029344                0.06687887               -0.00517280
              18.06433125                3.17109519               92.33461563                0.72117311                0.03003514                0.03112082               -0.10154677               -0.00029082                0.03611378               -0.00720954
              19.06466755                3.16892056               92.18091668                0.86061457                0.03362959                0.03846415               -0.12530504               -0.00005977                0.01644483               -0.00909212
               9.06656797                4.19022371               93.70970351                0.86061973               -0.02853943               -0.03301887                0.10768707               -0.00006060                0.01398124                0.01003370
              10.06628258                4.18813850               93.55593301                0.72117278               -0.02507444               -0.02580198                0.08442289               -0.00001817                0.04687501                0.00669999
              11.06606648                4.18605276               93.40273546                0.72110553               -0.01815867               -0.01866979                0.06113369                0.00003248                0.08796121                0.00463051
              12.06591941                4.18396660               93.24971964                0.72107551               -0.01131669               -0.01157984                0.03798599                0.00009124                0.10516047                0.00294876
              13.06584015                4.18187963               93.09681762                0.72105706               -0.00458586               -0.00452149                0.01502586                0.00010572                0.11430159                0.00143056
              14.06582769                4.17979108               92.94395730                0.72105033                0.00210028                0.00254199               -0.00788770                0.00004553                0.11496119               -0.00015370
              15.06588216                4.17770008               92.79106445                0.72105832                0.00887265                0.00965692               -0.03099212               -0.00008325                0.10703327               -0.00196503
              16.06600514                4.17560599               92.63806553                0.72107468                0.01584542                0.01686234               -0.05449573               -0.00023522                0.09081112               -0.00412502
              17.06619907                4.17350873               92.48489095                0.72110868                0.02303154                0.02417455               -0.07844536               -0.00032991                0.06691984               -0.00669985
              18.06646577                4.17140899               92.33147680                0.72117100                0.03029442                0.03157316               -0.10263007               -0.00027084                0.03607939               -0.00967495
              19.06680495                4.16930829               92.17776481                0.86061530                0.03391809                0.03899852               -0.12660291               -0.00003665                0.01642257               -0.01295196
               9.06861640                5.18989308               93.70663965                0.86062005               -0.02848135               -0.03303621                0.10759477               -0.00006867                0.01433038                0.01432334
              10.06833159                5.18788044               93.55284996                0.72117208               -0.02500532               -0.02576927                0.08423571               -0.00009931                0.04783301                0.00944179
              11.06811629                5.18586624               93.39964600                0.72110208               -0.01806803               -0.01860645                0.06086798               -0.00015744                0.08974910                0.00638354
              12.06797023                5.18385118               93.24662806                0.72107327               -0.01120750               -0.01148848                0.03764807               -0.00017573                0.10724062                0.00397675
              13.06789214                5.18183499               93.09372579                0.72105744               -0.00446272               -0.00440220                0.01462114               -0.00020793                0.11645597                0.00191868
              14.06788097                5.17981728               92.94086511                0.72105368                0.00223520                0.00269111               -0.00836113               -0.00026127                0.11700119               -0.00006989
              15.06793685                5.17779767               92.78797007                0.72105883                0.00902289                0.00983976               -0.03154557               -0.00032718                0.10880633               -0.00223879
              16.06806143                5.17577591               92.63496590                0.72107406                0.01602022                0.01708415               -0.05514981               -0.00037703                0.09220337               -0.00479904
              17.06825725                5.17375208               92.48178200                0.72110841                0.02324244                0.02443887               -0.07922196               -0.00036680                0.06785795               -0.00793356
              18.06852628                5.17172665               92.32835393                0.72117407                0.03054849                0.03188048               -0.10354472               -0.00024838                0.03654226               -0.01177360
              19.06886822                5.16970053               92.17462329                0.86061512                0.03419437                0.03934759               -0.12764978               -0.00001346                0.01665617               -0.01637919
               9.07059188                6.18956299               93.70357158                0.86062079               -0.02844511               -0.03291525                0.10739450               -0.00007480                0.01485712                0.01744544
              10.07030743                6.18762311               93.54975612                0.72117189               -0.02496460               -0.02565926                0.08401546               -0.00017919                0.04932696                0.01109417
              11.07009259                6.18568063               93.39654643                0.72110652               -0.01801463               -0.01848948                0.06060602               -0.00034726                0.09256376                0.00735331
              12.06994714                6.18373683               93.24352980                0.72107276               -0.01113501               -0.01136767                0.03733365               -0.00044087                0.11057318                0.00452062
              13.06986989                6.18179158               93.09063274                0.72105371               -0.00436776               -0.00427644                0.01424659               -0.00051506                0.12000530                0.00219183
              14.06985979                6.17984490               92.93777820                0.72105243                0.00235446                0.00282460               -0.00880158               -0.00055720                0.12049166                0.00001240
              15.06991698                6.17789687               92.78488766                0.72105687                0.00917005                0.00998222               -0.03205923               -0.00055805                0.11199184               -0.00231762
              16.07004319                6.17594768               92.63188399                0.72107555                0.01620050                0.01723379               -0.05574124               -0.00050646                0.09485527               -0.00508290
              17.07024099                6.17399751               92.47869434                0.72110637                0.02345851                0.02459294               -0.07989186               -0.00039369                0.06976716               -0.00858844
              18.07051236                6.17204660               92.32525224                0.72117022                0.03079671                0.03203625               -0.10428242               -0.00021956                0.03754265               -0.01314431
              19.07085693                6.17009524               92.17149784                0.86061620                0.03445686                0.03949801               -0.12843260                0.00001360                0.01716810               -0.01900347
               9.07249466                7.18923477               93.70048620                0.86061982               -0.02843000               -0.03268856                0.10711374               -0.00006625                0.01563605                0.01901866
              10.07221036                7.18736725               93.54663908                0.72117355               -0.02495147               -0.02548871                0.08378305               -0.00022478                0.05155732                0.01126974
              11.07199563                7.18549645               93.39342760                0.72110635               -0.01799485               -0.01833314                0.06036180               -0.00048252                0.09674899                0.00725130
              12.07185046                7.18362383               93.24041924                0.72107643               -0.01109244               -0.01123020                0.03704867               -0.00063887                0.11549826                0.00441580
              13.07177378                7.18174946               93.08753592                0.72105785               -0.00429609               -0.00415063                0.01390373               -0.00073831                0.12524989                0.00215738
              14.07176454                7.17987377               92.93469669                0.72105781                0.00245662                0.00294499               -0.00921022               -0.00076602                0.12570240                0.00007568
              15.07182291                7.17799731               92.78181980                0.72106337                0.00930665                0.01009484               -0.03253616               -0.00071597                0.11685061               -0.00213630
              16.07195067                7.17612059               92.62882494                0.72107779                0.01637723                0.01732920               -0.05628105               -0.00058768                0.09902450               -0.00479684
              17.07215045                7.17424394               92.47563560                0.72111258                0.02367416                0.02465946               -0.08047548               -0.00039385                0.07287049               -0.00833079
              18.07242415                7.17236737               92.32218133                0.72117229                0.03103797                0.03206678               -0.10487393               -0.00017654                0.03921416               -0.01331417
              19.07277121                7.17049049               92.16839884                0.86061739                0.03470610                0.03948361               -0.12898810                0.00005198                0.01803295               -0.02031262
               9.07432560                8.18890921               93.69736500                0.86061977               -0.02843414               -0.03243937                0.10681627               -0.00003098                0.01681341                0.01842382
              10.07404126                8.18711334               93.54348144                0.72117424               -0.02496186               -0.02528964                0.08358566               -0.00021888                0.05487008                0.00930654
              11.07382637                8.18531397               93.39027720                0.72111028               -0.01799554               -0.01817410                0.06016111               -0.00052646                0.10285945                0.00585593
              12.07368135                8.18351223               93.23728923                0.72108002               -0.01105932               -0.01110660                0.03680264               -0.00069584                0.12251819                0.00358265
              13.07360518                8.18170857               93.08443207                0.72107278               -0.00423688               -0.00403458                0.01359537               -0.00078814                0.13260155                0.00177060
              14.07359661                8.17990380               92.93162056                0.72106914                0.00253330                0.00305970               -0.00958728               -0.00080031                0.13301181                0.00010652
              15.07365585                8.17809877               92.77876972                0.72106653                0.00940948                0.01020248               -0.03298246               -0.00073066                0.12378149               -0.00165996
              16.07378480                8.17629426               92.62579577                0.72108576                0.01652405                0.01741339               -0.05678989               -0.00057901                0.10516030               -0.00381300
              17.07398633                8.17449069               92.47261732                0.72111158                0.02387363                0.02469334               -0.08102056               -0.00035895                0.07761241               -0.00680782
              18.07426228                8.17268793               92.31915669                0.72117720                0.03127043                0.03203320               -0.10539524               -0.00012102                0.04185072               -0.01154216
              19.07461174                8.17088491               92.16534342                0.86061501                0.03494593                0.03938863               -0.12940511                0.00010535                0.01942847               -0.01944340
               9.07608579                9.18858599               93.69418154                0.86061849               -0.02845708               -0.03230219                0.10659981                0.00000096                0.01848647                0.01350922
              10.07580122                9.18686146               93.54025716                0.72117769               -0.02497944               -0.02511398                0.08350004               -0.00018422                0.05995774                0.00481212
              11.07558620                9.18513297               93.38708148                0.72111986               -0.01796404               -0.01809669                0.06002730               -0.00040768                0.11189724                0.00331218
              12.07544194                9.18340170               93.23413243                0.72109532               -0.01098793               -0.01102339                0.03659579               -0.00051089                0.13222104                0.00204833
              13.07536645                9.18166877               93.08131770                0.72108053               -0.00418056               -0.00393394                0.01331791               -0.00055438                0.14250470                0.00102583
              14.07535833                9.17993497               92.92854968                0.72107920                0.00256950                0.00318121               -0.00993301               -0.00055706                0.14284876                0.00008156
              15.07541784                9.17820136               92.77574081                0.72108312                0.00944181                0.01033778               -0.03340113               -0.00050912                0.13325733               -0.00092033
              16.07554717                9.17646886               92.62280438                0.72108938                0.01658821                0.01754537               -0.05729025               -0.00041184                0.11389587               -0.00214631
              17.07574960                9.17473781               92.46965455                0.72112323                0.02401745                0.02479378               -0.08159884               -0.00026142                0.08488071               -0.00390172
              18.07602752                9.17300804               92.31620338                0.72117314                0.03148840                0.03204620               -0.10599290               -0.00007754                0.04614556               -0.00691715
              19.07637937                9.17127826               92.16236013                0.86061517                0.03518523                0.03938006               -0.12985900                0.00014874                0.02172603               -0.01392894
               9.07777468               10.18826317               93.69087388                0.93031058               -0.02840805               -0.03228165                0.10664650                0.00367716                0.02445113                0.01176950
              10.07749060               10.18661106               93.53694118                0.86059070               -0.02483505               -0.02504032                0.08358007                0.00338092                0.06954001                0.00361931
              11.07727798               10.18495204               93.38383126                0.86056382               -0.01776326               -0.01809312                0.05994583                0.00321261                0.12485696                0.00300786
              12.07713533               10.18329176               93.23094236                0.86055226               -0.01085779               -0.01099345                0.03640271                0.00323197                0.14498905                0.00182299
              13.07706082               10.18162989               93.07818950                0.86054556               -0.00412256               -0.00388772                0.01305319                0.00322070                0.15536588                0.00077932
              14.07705288               10.17996742               92.92548357                0.86054698                0.00254767                0.00324552               -0.01024892                0.00323695                0.15561351               -0.00022974
              15.07711178               10.17830553               92.77273562                0.86054424                0.00936199                0.01041659               -0.03378336                0.00328123                0.14572483               -0.00126118
              16.07724012               10.17664517               92.61985744                0.86055367                0.01650706                0.01763106               -0.05778785                0.00334770                0.12585229               -0.00239369
              17.07744192               10.17498657               92.46676114                0.86056180                0.02400749                0.02487630               -0.08227252                0.00341630                0.09605782               -0.00380715
              18.07772027               10.17332886               92.31335524                0.86058977                0.03161745                0.03208199               -0.10687779                0.00357276                0.05478414               -0.00590677
              19.07807427               10.17167251               92.15951607                0.93030792                0.03539940                0.03942510               -0.13076914                0.00385519                0.02830390               -0.01213371
               9.21168921                0.19452027               94.72297011                0.93029257               -0.02451920               -0.02779094                0.09191007               -0.00308124                0.02018453               -0.00429003
              10.21144402                0.19217405               94.56905143                0.86056719               -0.02147511               -0.02184359                0.07272563               -0.00286467                0.04842630               -0.00453167
              11.21125971                0.18983167               94.41560921                0.86054928               -0.01546722               -0.01602573                0.05294556               -0.00274796                0.08765010               -0.00170976
              12.21113467                0.18749168               94.26240104                0.86054736               -0.00974461               -0.01014330                0.03346588               -0.00270553                0.10913846               -0.00094914
              13.21106482                0.18515340               94.10933136                0.86054868               -0.00440068               -0.00426771                0.01444248               -0.00267579                0.12054049               -0.00033641
              14.21104666                0.18281395               93.95631692                0.86054639                0.00074914                0.00161707               -0.00436446               -0.00270028                0.12224891                0.00019285
              15.21107980                0.18046964               93.80327487                0.86054594                0.00604784                0.00753301               -0.02338201               -0.00278000                0.11433861                0.00063559
              16.21116762                0.17811737               93.65012508                0.86054723                0.01181125                0.01349897               -0.04300952               -0.00289074                0.09733443                0.00095768
              17.21131602                0.17575601               93.49679301                0.86055180                0.01813551                0.01951679               -0.06338509               -0.00297148                0.07213569                0.00115877
              18.21153033                0.17338743               93.34321075                0.86056808                0.02470278                0.02551080               -0.08415835               -0.00306353                0.03937357                0.00130423
              19.21181008                0.17101373               93.18930939                0.93029437                0.02797518                0.03169043               -0.10424608               -0.00307755                0.01850670                0.00222323
               9.21400462                1.19424237               94.71993678                0.86058629               -0.02449447               -0.02785860                0.09158983               -0.00006599                0.01644550               -0.00194448
              10.21375968                1.19195562               94.56599524                0.72112599               -0.02156044               -0.02192044                0.07237849                0.00011806                0.04608834               -0.00359298
              11.21357341                1.18967141               94.41255957                0.72109196               -0.01564631               -0.01601562                0.05268771                0.00039050                0.08538034               -0.00059907
              12.21344675                1.18739025               94.25933394                0.72107998               -0.00982432               -0.01010921                0.03317594                0.00061976                0.10519355                0.00001734
              13.21337693                1.18511073               94.10624229                0.72107817               -0.00426050               -0.00421495                0.01398852                0.00073688                0.11610030                0.00011235
              14.21336154                1.18283012               93.95320382                0.72107996                0.00116819                0.00168494               -0.00504726                0.00070296                0.11772152               -0.00002552
              15.21340029                1.18054497               93.80013810                0.72107912                0.00669925                0.00762322               -0.02426950                0.00051434                0.11012753               -0.00037685
              16.21349553                1.17825236               93.64696693                0.72107999                0.01254946                0.01362730               -0.04398895                0.00022725                0.09373871               -0.00097784
              17.21365128                1.17595117               93.49361701                0.72108968                0.01876539                0.01969906               -0.06428221               -0.00006352                0.06924924               -0.00180189
              18.21387083                1.17364254               93.34002051                0.72112759                0.02508633                0.02580288               -0.08479312               -0.00020532                0.03735541               -0.00262246
              19.21415301                1.17133063               93.18611392                0.86058224                0.02821725                0.03203595               -0.10481094               -0.00008646                0.01702235               -0.00263378
               9.21626139                2.19396310               94.71685378                0.86058309               -0.02440527               -0.02813230                0.09190455               -0.00003603                0.01329228                0.00025642
              10.21601734                2.19173564               94.56288389                0.72112005               -0.02142535               -0.02211886                0.07236310                0.00020284                0.04579791               -0.00145526
              11.21583288                2.18951135               94.40947790                0.72108196               -0.01547924               -0.01606423                0.05245023                0.00064758                0.08651216                0.00011276
              12.21570775                2.18728950               94.25625205                0.72106720               -0.00965986               -0.01007518                0.03281188                0.00101076                0.10426508                0.00058145
              13.21563969                2.18506910               94.10314868                0.72106229               -0.00406374               -0.00412424                0.01353780                0.00121074                0.11435357                0.00041799
              14.21562648                2.18284765               93.95009364                0.72106207                0.00140813                0.00182575               -0.00558453                0.00115249                0.11561994               -0.00008818
              15.21566785                2.18062210               93.79700893                0.72106484                0.00697388                0.00782825               -0.02491159                0.00083462                0.10788001               -0.00094062
              16.21576596                2.17838991               93.64381779                0.72106871                0.01283634                0.01392855               -0.04477660                0.00034555                0.09150302               -0.00220261
              17.21592458                2.17614999               93.49044851                0.72108385                0.01904056                0.02014090               -0.06529315               -0.00013639                0.06727126               -0.00384109
              18.21614677                2.17390348               93.33683668                0.72111640                0.02537930                0.02646140               -0.08618377               -0.00034460                0.03615382               -0.00555284
              19.21643216                2.17165444               93.18292546                0.86057954                0.02853948                0.03283518               -0.10676718               -0.00014141                0.01643950               -0.00668094
               9.21845882                3.19367972               94.71377181                0.86058266               -0.02433371               -0.02852675                0.09225123                0.00000193                0.01371158                0.00536144
              10.21821548                3.19151324               94.55979893                0.72112569               -0.02131569               -0.02232838                0.07237967                0.00023264                0.04618190                0.00343371
              11.21803251                3.18935012               94.40638973                0.72107630               -0.01531341               -0.01616688                0.05225982                0.00061557                0.08700942                0.00234468
              12.21790922                3.18718875               94.25316296                0.72106197               -0.00947566               -0.01007834                0.03248910                0.00090962                0.10461191                0.00167746
              13.21784299                3.18502824               94.10005283                0.72105759               -0.00388117               -0.00405156                0.01313127                0.00106710                0.11423497                0.00089839
              14.21783159                3.18286663               93.94698716                0.72105535                0.00158616                0.00196978               -0.00606304                0.00100065                0.11517825               -0.00009448
              15.21787472                3.18070153               93.79388912                0.72105329                0.00714792                0.00805609               -0.02548661                0.00070595                0.10719616               -0.00140700
              16.21797455                3.17853093               93.64068268                0.72106532                0.01301314                0.01426782               -0.04550657                0.00026756                0.09065421               -0.00315159
              17.21813498                3.17635399               93.48729723                0.72107697                0.01924674                0.02063419               -0.06628110               -0.00014400                0.06642183               -0.00535037
              18.21835948                3.17417176               93.33367060                0.72111786                0.02566393                0.02713439               -0.08755264               -0.00029216                0.03558025               -0.00784708
              19.21864826                3.17198733               93.17974881                0.86058050                0.02887733                0.03366910               -0.10856828               -0.00007802                0.01612864               -0.01030496
               9.22059439                4.19339257               94.71070365                0.86058400               -0.02428038               -0.02881756                0.09248101                0.00000912                0.01392606                0.01039873
              10.22035159                4.19128908               94.55671684                0.72112137               -0.02123523               -0.02245098                0.07236183                0.00017199                0.04679214                0.00677946
              11.22016969                4.18918802               94.40330206                0.72107628               -0.01518792               -0.01621792                0.05208404                0.00042605                0.08811286                0.00461458
              12.22004783                4.18708793               94.25007121                0.72105827               -0.00932722               -0.01006480                0.03220290                0.00060207                0.10580060                0.00292278
              13.21998314                4.18498807               94.09695695                0.72105393               -0.00373148               -0.00397665                0.01276700                0.00068460                0.11534055                0.00145865
              14.21997320                4.18288704               93.94388531                0.72104664                0.00172665                0.00210631               -0.00649674                0.00061655                0.11607312               -0.00005034
              15.22001767                4.18078322               93.79077894                0.72105355                0.00728239                0.00826326               -0.02601032                0.00039759                0.10782075               -0.00181701
              16.22011885                4.17867527               93.63756149                0.72105816                0.01315928                0.01456268               -0.04617084                0.00009256                0.09098453               -0.00401815
              17.22028086                4.17656267               93.48416249                0.72107759                0.01943683                0.02103574               -0.06716125               -0.00017184                0.06650152               -0.00675876
              18.22050758                4.17444617               93.33052052                0.72112044                0.02593002                0.02765143               -0.08872294               -0.00023720                0.03554306               -0.01003113
              19.22079946                4.17232783               93.17658311                0.86058230                0.02918776                0.03430996               -0.11006372               -0.00003195                0.01610179               -0.01369286
               9.22266599                5.19310337               94.70763958                0.86058394               -0.02425120               -0.02890888                0.09253006               -0.00000393                0.01428242                0.01433934
              10.22242348                5.19106422               94.55363247                0.72112103               -0.02119091               -0.02245802                0.07228176                0.00004589                0.04777152                0.00935854
              11.22224217                5.18902577               94.40021041                0.72107102               -0.01511382               -0.01618848                0.05190645                0.00012309                0.08994460                0.00630174
              12.22212120                5.18698745               94.24697666                0.72105671               -0.00922970               -0.01000531                0.03194263                0.00017005                0.10794358                0.00393213
              13.22205758                5.18494871               94.09386146                0.72105017               -0.00362142               -0.00388695                0.01243838                0.00017207                0.11757146                0.00193622
              14.22204877                5.18290876               93.94078876                0.72104918                0.00184332                0.00222969               -0.00689295                0.00011067                0.11819011                0.00001492
              15.22209444                5.18086680               93.78767939                0.72105689                0.00740909                0.00842553               -0.02648761               -0.00000812                0.10965395               -0.00210639
              16.22219695                5.17882218               93.63445560                0.72106021                0.01330986                0.01477099               -0.04676108               -0.00014614                0.09240757               -0.00466428
              17.22236064                5.17677471               93.48104591                0.72107821                0.01963167                0.02129586               -0.06790253               -0.00023650                0.06744076               -0.00785889
              18.22258959                5.17472479               93.32738843                0.72111695                0.02618360                0.02796796               -0.08964838               -0.00020188                0.03599413               -0.01182437
              19.22288431                5.17267353               93.17343080                0.86058073                0.02947252                0.03469171               -0.11117920                0.00000366                0.01632758               -0.01660011
               9.22467261                6.19281439               94.70456991                0.86058383               -0.02425022               -0.02878146                0.09239714               -0.00001982                0.01480222                0.01713667
              10.22443011                6.19083992               94.55053686                0.72112288               -0.02118474               -0.02234639                0.07214311               -0.00009240                0.04924605                0.01086985
              11.22424891                6.18886425               94.39710865                0.72107301               -0.01509104               -0.01607703                0.05172525               -0.00019958                0.09272179                0.00721930
              12.22412829                6.18688783               94.24387568                0.72105840               -0.00918206               -0.00989778                0.03170704               -0.00027772                0.11123210                0.00446328
              13.22406527                6.18491033               94.09076507                0.72105473               -0.00354825               -0.00378096                0.01214216               -0.00034799                0.12107520                0.00219876
              14.22405732                6.18293164               93.93769785                0.72105503                0.00194089                0.00233813               -0.00725418               -0.00039644                0.12163349                0.00007478
              15.22410409                6.18095173               93.78459222                0.72105407                0.00753460                0.00853834               -0.02692226               -0.00041346                0.11278922               -0.00220860
              16.22420801                6.17897069               93.63136812                0.72105976                0.01347141                0.01488694               -0.04727869               -0.00038635                0.09500731               -0.00493307
              17.22437352                6.17698859               93.47795183                0.72108163                0.01983534                0.02141293               -0.06850872               -0.00030523                0.06930228               -0.00840162
              18.22460472                6.17500553               93.32427957                0.72111966                0.02642663                0.02808564               -0.09033617               -0.00017015                0.03696458               -0.01291931
              19.22490205                6.17302166               93.17029767                0.86057843                0.02973318                0.03480638               -0.11192191                0.00003790                0.01682269               -0.01873921
               9.22661454                7.19252774               94.70148190                0.86058346               -0.02427696               -0.02848377                0.09213025               -0.00001995                0.01556227                0.01847377
              10.22637177                7.19061729               94.54741786                0.72111997               -0.02121382               -0.02214207                0.07197547               -0.00019015                0.05142121                0.01096380
              11.22619027                7.18870422               94.39398780                0.72107843               -0.01511076               -0.01590772                0.05155999               -0.00044928                0.09679621                0.00710610
              12.22606956                7.18678950               94.24076271                0.72106332               -0.00917299               -0.00976193                0.03150441               -0.00062998                0.11602008                0.00436749
              13.22600681                7.18487309               94.08766526                0.72105674               -0.00350583               -0.00366845                0.01188197               -0.00075003                0.12617220                0.00216324
              14.22599944                7.18295552               93.93461267                0.72105898                0.00201573                0.00243404               -0.00757956               -0.00078236                0.12669526                0.00011554
              15.22604712                7.18103756               93.78151999                0.72105727                0.00764648                0.00861533               -0.02731576               -0.00071723                0.11750491               -0.00206002
              16.22615237                7.17911992               93.62830407                0.72106514                0.01362857                0.01493485               -0.04773440               -0.00056032                0.09905018               -0.00465900
              17.22631969                7.17720297               93.47488767                0.72108073                0.02003705                0.02141894               -0.06900512               -0.00034028                0.07231248               -0.00808170
              18.22655311                7.17528650               93.32120321                0.72111902                0.02665599                0.02804082               -0.09082794               -0.00012410                0.03858923               -0.01288588
              19.22685281                7.17336966               93.16719367                0.86058367                0.02997000                0.03470270               -0.11234988                0.00008256                0.01766211               -0.01965254
               9.22849311                8.19224472               94.69835782                0.86058699               -0.02432868               -0.02812468                0.09182238                0.00001031                0.01670883                0.01778304
              10.22824982                8.19039707               94.54425865                0.72112421               -0.02126908               -0.02190150                0.07184432               -0.00022093                0.05464367                0.00902366
              11.22806772                8.18854609               94.39083589                0.72108537               -0.01514982               -0.01573712                0.05144815               -0.00056520                0.10273042                0.00575317
              12.22794682                8.18669259               94.23763073                0.72107057               -0.00917392               -0.00964052                0.03134905               -0.00077886                0.12283533                0.00356684
              13.22788425                8.18483696               94.08455881                0.72106880               -0.00348124               -0.00356553                0.01166371               -0.00090387                0.13331475                0.00178566
              14.22787720                8.18298032               93.93153325                0.72106692                0.00205520                0.00252460               -0.00786431               -0.00091882                0.13379730                0.00012735
              15.22792535                8.18112404               93.77846593                0.72106734                0.00771037                0.00868661               -0.02766598               -0.00081646                0.12423086               -0.00162413
              16.22803141                8.17926939               93.62527029                0.72106793                0.01373896                0.01496854               -0.04814397               -0.00060716                0.10499521               -0.00371920
              17.22820013                8.17741697               93.47186445                0.72108648                0.02020695                0.02138427               -0.06944050               -0.00032901                0.07690841               -0.00657466
              18.22843554                8.17556635               93.31817400                0.72112262                0.02686316                0.02791144               -0.09120829               -0.00006985                0.04115395               -0.01104755
              19.22873739                8.17371571               93.16413497                0.86058203                0.03018479                0.03447924               -0.11257005                0.00013816                0.01901910               -0.01854529
               9.23031003                9.19196525               94.69517246                0.86058569               -0.02440534               -0.02788567                0.09162065                0.00004396                0.01832958                0.01300193
              10.23006598                9.19017926               94.54103415                0.72112278               -0.02132923               -0.02172063                0.07187559               -0.00020409                0.05957674                0.00467137
              11.22988345                9.18838948               94.38763945                0.72108970               -0.01514353               -0.01567047                0.05142736               -0.00046278                0.11150938                0.00327847
              12.22976311                9.18659669               94.23447241                0.72107939               -0.00912237               -0.00957531                0.03124262               -0.00059693                0.13229714                0.00206463
              13.22970100                9.18480178               94.08144219                0.72107850               -0.00345599               -0.00348652                0.01148630               -0.00066482                0.14300606                0.00104728
              14.22969399                9.18300602               93.92845945                0.72108266                0.00203618                0.00262213               -0.00809973               -0.00066781                0.14342964                0.00008822
              15.22974172                9.18121130               93.77543339                0.72107998                0.00766562                0.00879333               -0.02796187               -0.00059340                0.13347963               -0.00092032
              16.22984730                9.17941929               93.62227445                0.72108151                0.01372134                0.01506267               -0.04851648               -0.00044979                0.11346891               -0.00211566
              17.23001615                9.17763065               93.46889643                0.72108904                0.02028338                0.02143104               -0.06989114               -0.00025503                0.08391459               -0.00377067
              18.23025297                9.17584473               93.31521529                0.72112406                0.02703461                0.02784691               -0.09166068               -0.00005163                0.04528385               -0.00658047
              19.23055684                9.17405925               93.16114805                0.86057941                0.03038740                0.03433612               -0.11279769                0.00017233                0.02121666               -0.01315171
               9.23206595               10.19168700               94.69186633                0.93029229               -0.02444523               -0.02782437                0.09187295                0.00315809                0.02406649                0.01138700
              10.23182150               10.18996266               94.53772013                0.86056200               -0.02124545               -0.02166005                0.07218700                0.00283627                0.06881632                0.00356595
              11.23164104               10.18823268               94.38438918                0.86054874               -0.01494562               -0.01568003                0.05147713                0.00268079                0.12409532                0.00300522
              12.23152259               10.18650108               94.23128099                0.86054364               -0.00897121               -0.00956036                0.03114527                0.00267567                0.14483179                0.00185043
              13.23146162               10.18476723               94.07831192                0.86054556               -0.00341330               -0.00345441                0.01132704                0.00264594                0.15573346                0.00079018
              14.23145432               10.18303276               93.92539084                0.86054547                0.00192931                0.00267450               -0.00827577                0.00266714                0.15607792               -0.00025457
              15.23150021               10.18129991               93.77242513                0.86054572                0.00743662                0.00886106               -0.02817018                0.00274228                0.14575003               -0.00131377
              16.23160305               10.17957064               93.61932324                0.86054381                0.01346899                0.01513487               -0.04883137                0.00285951                0.12507175               -0.00243644
              17.23176959               10.17784559               93.46599676                0.86054827                0.02014317                0.02149373               -0.07042110                0.00297595                0.09456873               -0.00377050
              18.23200592               10.17612329               93.31235840                0.86056404                0.02711150                0.02785529               -0.09248919                0.00313744                0.05340228               -0.00569882
              19.23231182               10.17440244               93.15829491                0.93028977                0.03058977                0.03431923               -0.11366458                0.00341247                0.02734104               -0.01147313
               9.36590295                0.19751472               95.72380828                0.93027890               -0.02006801               -0.02298591                0.07582690               -0.00249133                0.01940850               -0.00364874
              10.36570227                0.19518719               95.56971514                0.86054430               -0.01733096               -0.01816675                0.05997875               -0.00227691                0.04731445               -0.00444541
              11.36555633                0.19286537               95.41609048                0.86053694               -0.01202349               -0.01331415                0.04311183               -0.00210934                0.08668954               -0.00181069
              12.36546180                0.19055050               95.26270421                0.86053968               -0.00728187               -0.00843285                0.02696259               -0.00196748                0.10911321               -0.00106349
              13.36541069                0.18824132               95.10946265                0.86054498               -0.00325794               -0.00359423                0.01168512               -0.00187536                0.12130546               -0.00037487
              14.36539664                0.18593264               94.95627942                0.86054657                0.00037692                0.00123647               -0.00316017               -0.00189885                0.12325497                0.00026212
              15.36541823                0.18361769               94.80306631                0.86054357                0.00416622                0.00611222               -0.01823430               -0.00204362                0.11491567                0.00079803
              16.36547996                0.18129042               94.64973805                0.86053657                0.00864101                0.01108209               -0.03419233               -0.00227065                0.09693202                0.00114625
              17.36559105                0.17894795               94.49621789                0.86053585                0.01406157                0.01616488               -0.05141421               -0.00247792                0.07067604                0.00123878
              18.36576120                0.17659272               94.34244179                0.86054180                0.02002941                0.02127898               -0.06957104               -0.00262624                0.03775274                0.00111477
              19.36599164                0.17423035               94.18835446                0.93027716                0.02304432                0.02654084               -0.08693103               -0.00261351                0.01724039                0.00129622
               9.36820556                1.19728486               95.72077241                0.86055615               -0.02013862               -0.02316355                0.07568318               -0.00003684                0.01614636               -0.00101507
              10.36800418                1.19500552               95.56665615                0.72108189               -0.01759888               -0.01831331                0.05980469                0.00025192                0.04544422               -0.00336670
              11.36785358                1.19273222               95.41303924                0.72106677               -0.01250133               -0.01334365                0.04309926                0.00078733                0.08467711               -0.00069807
              12.36775415                1.19046617               95.25963511                0.72107283               -0.00763592               -0.00841988                0.02689256                0.00125176                0.10504728               -0.00013242
              13.36770087                1.18820537               95.10636952                0.72107636               -0.00323417               -0.00355789                0.01134872                0.00151468                0.11648001                0.00007050
              14.36768947                1.18594501               94.95315938                0.72107666                0.00090208                0.00128722               -0.00386696                0.00149084                0.11828164                0.00009542
              15.36771891                1.18367881               94.79991993                0.72108107                0.00513320                0.00618914               -0.01929735                0.00116926                0.11042251               -0.00012684
              16.36779213                1.18140124               94.64656893                0.72106247                0.00981063                0.01121350               -0.03547179                0.00063325                0.09342507               -0.00073175
              17.36791512                1.17910960               94.49303169                0.72106281                0.01508017                0.01638154               -0.05265837                0.00006013                0.06836815               -0.00180385
              18.36809373                1.17680551               94.33924442                0.72108183                0.02063785                0.02163518               -0.07047305               -0.00026737                0.03655122               -0.00319276
              19.36832788                1.17449576               94.18515268                0.86055337                0.02341439                0.02700731               -0.08774540               -0.00015040                0.01659955               -0.00419328
               9.37046088                2.19705145               95.71769455                0.86055474               -0.02009396               -0.02370217                0.07648402                0.00002787                0.01305026                0.00143746
              10.37025994                2.19482093               95.56354574                0.72107730               -0.01747239               -0.01866614                0.06001688                0.00047953                0.04527181               -0.00113138
              11.37011143                2.19259849               95.40995568                0.72106146               -0.01231283               -0.01349316                0.04294780                0.00137535                0.08610750                0.00003138
              12.37001368                2.19038210               95.25654992                0.72105559               -0.00746431               -0.00845015                0.02659517                0.00209595                0.10452176                0.00041972
              13.36996215                2.18817016               95.10327170                0.72106311               -0.00303321               -0.00351307                0.01096438                0.00252093                0.11515283                0.00039373
              14.36995302                2.18595839               94.95004408                0.72106791                0.00116192                0.00139394               -0.00434618                0.00248194                0.11658966                0.00010517
              15.36998539                2.18374147               94.79678450                0.72106514                0.00544128                0.00637820               -0.01989799                0.00196148                0.10856758               -0.00058088
              16.37006185                2.18151469               94.64341187                0.72105528                0.01012977                0.01153453               -0.03625267                0.00108654                0.09152465               -0.00187076
              17.37018798                2.17927558               94.48985261                0.72105657                0.01539210                0.01690062               -0.05375633                0.00014894                0.06657261               -0.00388415
              18.37036969                2.17702542               94.33604533                0.72107646                0.02100795                0.02244480               -0.07217737               -0.00037677                0.03530803               -0.00642735
              19.37060814                2.17477049               94.18194193                0.86055185                0.02384519                0.02805261               -0.09038422               -0.00020141                0.01591306               -0.00873434
               9.37266716                3.19681081               95.71461776                0.86055224               -0.02004418               -0.02437658                0.07722397                0.00010062                0.01350999                0.00623284
              10.37246672                3.19463220               95.56046183                0.72107726               -0.01736216               -0.01901895                0.06020381                0.00058091                0.04579058                0.00360360
              11.37231992                3.19246236               95.40686611                0.72105198               -0.01211586               -0.01370609                0.04284817                0.00139501                0.08690416                0.00225726
              12.37222440                3.19029716               95.25345794                0.72105102               -0.00724609               -0.00853707                0.02633842                0.00197997                0.10527906                0.00155438
              13.37217500                3.18813511               95.10017212                0.72105678               -0.00283055               -0.00349945                0.01062671                0.00232211                0.11550253                0.00089936
              14.37216779                3.18597289               94.94693316                0.72105510                0.00134202                0.00150408               -0.00475003                0.00227025                0.11662381                0.00009385
              15.37220184                3.18380638               94.79365927                0.72105520                0.00559818                0.00659986               -0.02039645                0.00180235                0.10831992               -0.00107551
              16.37227975                3.18163193               94.64026965                0.72105047                0.01027622                0.01190114               -0.03692687                0.00103365                0.09100857               -0.00283672
              17.37240736                3.17944761               94.48669124                0.72105073                0.01557630                0.01746463               -0.05476673                0.00022806                0.06589033               -0.00533044
              18.37259128                3.17725441               94.33286458                0.72107281                0.02131739                0.02325568               -0.07374794               -0.00022378                0.03476458               -0.00846158
              19.37283371                3.17505681               94.17874531                0.86055285                0.02424280                0.02909729               -0.09264398               -0.00007574                0.01560665               -0.01180259
               9.37482012                4.19656391               95.71155313                0.86055281               -0.02001076               -0.02486021                0.07771088                0.00011800                0.01375936                0.01077733
              10.37462001                4.19444055               95.55738025                0.72107529               -0.01728753               -0.01923057                0.06031353                0.00049602                0.04650468                0.00674006
              11.37447437                4.19232437               95.40377714                0.72105290               -0.01197403               -0.01383379                0.04275552                0.00109472                0.08822096                0.00446590
              12.37438053                4.19021136               95.25036370                0.72105038               -0.00707509               -0.00859021                0.02612042                0.00147216                0.10675543                0.00279990
              13.37433287                4.18810017               95.09707296                0.72105093               -0.00266847               -0.00347609                0.01033350                0.00167904                0.11694360                0.00145844
              14.37432716                4.18598847               94.94382736                0.72105266                0.00147609                0.00160771               -0.00510341                0.00161778                0.11786495                0.00010941
              15.37436239                4.18387347               94.79054424                0.72105170                0.00570617                0.00679435               -0.02083414                0.00127491                0.10925807               -0.00152952
              16.37444129                4.18175271               94.63714212                0.72104467                0.01038368                0.01220372               -0.03751573                0.00073513                0.09157395               -0.00371225
              17.37457006                4.17962487               94.48354772                0.72104842                0.01573627                0.01789730               -0.05561969                0.00018507                0.06609728               -0.00661643
              18.37475601                4.17749054               94.32970234                0.72107330                0.02158788                0.02383535               -0.07499657               -0.00012185                0.03476575               -0.01026950
              19.37500182                4.17535244               94.17556354                0.86055172                0.02458094                0.02985759               -0.09438248                0.00000659                0.01559154               -0.01449238
               9.37691626                5.19631361               95.70849025                0.86055202               -0.02000744               -0.02502604                0.07788916                0.00009339                0.01412393                0.01418625
              10.37671618                5.19424759               95.55429560                0.72107681               -0.01726281               -0.01927138                0.06032891                0.00028373                0.04751558                0.00910578
              11.37657100                5.19218569               95.40068413                0.72105431               -0.01190684               -0.01383733                0.04265167                0.00058062                0.09012123                0.00607636
              12.37647805                5.19012536               95.24726691                0.72105056               -0.00697678               -0.00856564                0.02592699                0.00073683                0.10899968                0.00379024
              13.37643147                5.18806559               95.09397456                0.72105277               -0.00255996               -0.00342038                0.01007546                0.00080185                0.11930149                0.00191793
              14.37642685                5.18600504               94.94072725                0.72105308                0.00158135                0.00170082               -0.00541986                0.00074107                0.12011606                0.00013269
              15.37646309                5.18394226               94.78744032                0.72105253                0.00581044                0.00693151               -0.02122565                0.00055362                0.11120898               -0.00187234
              16.37654306                5.18187600               94.63403068                0.72104890                0.01050705                0.01239165               -0.03802259                0.00028598                0.09307598               -0.00437113
              17.37667323                5.17980555               94.48042395                0.72105226                0.01591087                0.01814214               -0.05630113                0.00003141                0.06706752               -0.00759657
              18.37686127                5.17773111               94.32656097                0.72107389                0.02184012                0.02414489               -0.07591057               -0.00008978                0.03521563               -0.01169912
              19.37711004                5.17565396               94.17239971                0.86055339                0.02487625                0.03025701               -0.09555567                0.00005241                0.01580953               -0.01669569
               9.37895403                6.19606339               95.70541952                0.86055424               -0.02004173               -0.02486366                0.07778717                0.00005877                0.01462539                0.01652140
              10.37875361                6.19405512               95.55119898                0.72107698               -0.01729091               -0.01914245                0.06025898                0.00004618                0.04894558                0.01044011
              11.37860821                6.19204762               95.39758094                0.72105103               -0.01191247               -0.01371757                0.04253709                0.00003123                0.09282375                0.00693893
              12.37851536                6.19004004               95.24416394                0.72104775               -0.00694929               -0.00846158                0.02575671               -0.00002509                0.11220890                0.00431277
              13.37846923                6.18803176               95.09087558                0.72105304               -0.00250250               -0.00332999                0.00984912               -0.00008837                0.12272820                0.00216402
              14.37846531                6.18602248               94.93763312                0.72105795                0.00166368                0.00178227               -0.00570393               -0.00014009                0.12348493                0.00014645
              15.37850250                6.18401210               94.78434922                0.72105271                0.00592006                0.00700694               -0.02157568               -0.00017111                0.11426909               -0.00203886
              16.37858371                6.18200054               94.63093842                0.72104789                0.01065406                0.01246178               -0.03845490               -0.00017254                0.09559930               -0.00467329
              17.37871558                6.17998771               94.47732417                0.72105415                0.01610477                0.01820674               -0.05682781               -0.00013884                0.06885796               -0.00805839
              18.37890581                6.17797344               94.32344552                0.72107596                0.02207975                0.02420579               -0.07652838               -0.00007357                0.03613693               -0.01249606
              19.37915718                6.17595758               94.16925940                0.86055147                0.02513660                0.03030936               -0.09622689                0.00008881                0.01627479               -0.01823053
               9.38093398                7.19581634               95.70232880                0.86055276               -0.02011070               -0.02445364                0.07748523                0.00004542                0.01535194                0.01753496
              10.38073288                7.19386474               95.54807859                0.72107472               -0.01736415               -0.01887997                0.06013978               -0.00012732                0.05102353                0.01043567
              11.38058670                7.19191133               95.39445880                0.72105302               -0.01197346               -0.01351164                0.04243340               -0.00039628                0.09671298                0.00682999
              12.38049341                7.18995613               95.24104933                0.72105242               -0.00697209               -0.00830888                0.02561958               -0.00062818                0.11677762                0.00424358
              13.38044726                7.18799899               95.08777356                0.72105524               -0.00248493               -0.00322065                0.00965923               -0.00078572                0.12759505                0.00212980
              14.38044371                7.18604069               94.93454510                0.72106160                0.00171769                0.00185395               -0.00595133               -0.00082304                0.12831791                0.00014518
              15.38048161                7.18408240               94.78127348                0.72105728                0.00601417                0.00703925               -0.02188326               -0.00072605                0.11876607               -0.00196466
              16.38056399                7.18212524               94.62787025                0.72105206                0.01079758                0.01244768               -0.03882030               -0.00051221                0.09944852               -0.00446426
              17.38069756                7.18016969               94.47425550                0.72105625                0.01629716                0.01813667               -0.05722863               -0.00024038                0.07172263               -0.00771954
              18.38088994                7.17821523               94.32036477                0.72107799                0.02229797                0.02407309               -0.07690859               -0.00002538                0.03768495               -0.01225925
              19.38114352                7.17626015               94.16615184                0.86055410                0.02535883                0.03010238               -0.09649906                0.00014245                0.01707557               -0.01868064
               9.38285813                8.19557432               95.69920144                0.86055285               -0.02020621               -0.02394089                0.07710462                0.00007041                0.01645472                0.01670738
              10.38265607                8.19367752               95.54491833                0.72107575               -0.01746168               -0.01856693                0.06004967               -0.00020203                0.05410981                0.00854308
              11.38250890                8.19177739               95.39130616                0.72105648               -0.01204637               -0.01330422                0.04238732               -0.00061101                0.10237921                0.00556424
              12.38241514                8.18987387               95.23791621                0.72105719               -0.00699715               -0.00817024                0.02553253               -0.00091557                0.12328598                0.00351047
              13.38236895                8.18796735               95.08466535                0.72106752               -0.00248498               -0.00311962                0.00951446               -0.00110204                0.13443216                0.00177504
              14.38236544                8.18605956               94.93146328                0.72106878                0.00172352                0.00192239               -0.00614991               -0.00112266                0.13512327                0.00012678
              15.38240343                8.18415288               94.77821640                0.72106300                0.00603699                0.00706759               -0.02213460               -0.00096225                0.12520190               -0.00160370
              16.38248618                8.18224950               94.62483289                0.72105838                0.01086781                0.01241744               -0.03912026               -0.00064587                0.10512470               -0.00361910
              17.38262078                8.18035045               94.47122851                0.72105720                0.01643304                0.01801963               -0.05754207               -0.00025593                0.07611551               -0.00627778
              18.38281484                8.17845490               94.31733253                0.72107803                0.02247033                0.02383986               -0.07713108                0.00004066                0.04015312               -0.01036932
              19.38307019                8.17655963               94.16309202                0.86055481                0.02553451                0.02975686               -0.09648828                0.00020611                0.01838463               -0.01727968
               9.38472900                9.19533752               95.69601395                0.86055320               -0.02032300               -0.02355786                0.07683326                0.00010174                0.01800866                0.01213336
              10.38452577                9.19349340               95.54169467                0.72108184               -0.01754313               -0.01835545                0.06016370               -0.00021316                0.05882215                0.00442945
              11.38437813                9.19164525               95.38811002                0.72106589               -0.01203136               -0.01323558                0.04244666               -0.00052745                0.11077954                0.00322022
              12.38428514                9.18979272               95.23475728                0.72107001               -0.00693058               -0.00811295                0.02549319               -0.00072848                0.13241277                0.00207868
              13.38423952                9.18793660               95.08154743                0.72107629               -0.00247091               -0.00305573                0.00941536               -0.00084551                0.14385134                0.00106227
              14.38423572                9.18607913               94.92838769                0.72107575                0.00164568                0.00199927               -0.00627810               -0.00085264                0.14450854                0.00007630
              15.38427243                9.18422375               94.77518157                0.72107672                0.00588962                0.00714510               -0.02229134               -0.00072957                0.13417738               -0.00094838
              16.38435351                9.18237359               94.62183405                0.72106390                0.01073047                0.01246768               -0.03933176               -0.00049669                0.11327335               -0.00210869
              17.38448704                9.18053008               94.46825672                0.72106511                0.01640272                0.01800193               -0.05782136               -0.00021062                0.08279068               -0.00362410
              18.38468157                9.17869203               94.31437017                0.72107702                0.02255704                0.02368838               -0.07738067                0.00002668                0.04408557               -0.00612534
              19.38493818                9.17685528               94.16010418                0.86055469                0.02566181                0.02948552               -0.09640524                0.00022020                0.02046840               -0.01203602
               9.38654840               10.19510316               95.69271134                0.93027648               -0.02043253               -0.02343557                0.07724903                0.00266522                0.02332884                0.01068941
              10.38634408               10.19331041               95.53838492                0.86054035               -0.01746872               -0.01829918                0.06067420                0.00230686                0.06749007                0.00349628
              11.38619903               10.19151268               95.38486081                0.86053532               -0.01174265               -0.01325698                0.04255807                0.00214928                0.12280761                0.00303111
              12.38610922               10.18971161               95.23156526                0.86054149               -0.00666957               -0.00811162                0.02543105                0.00208620                0.14467164                0.00191331
              13.38606564               10.18790623               95.07841605                0.86054326               -0.00239937               -0.00303646                0.00933065                0.00200849                0.15649112                0.00081149
              14.38606124               10.18609955               94.92531805                0.86054707                0.00143721                0.00204159               -0.00630502                0.00202916                0.15711866               -0.00030298
              15.38609438               10.18429579               94.77217222                0.86054386                0.00543420                0.00720336               -0.02227231                0.00215955                0.14630319               -0.00142119
              16.38616992               10.18249885               94.61888081                0.86053938                0.01018748                0.01252628               -0.03937048                0.00237565                0.12449013               -0.00255080
              17.38629813               10.18071048               94.46535271                0.86053654                0.01601267                0.01804035               -0.05808446                0.00259928                0.09276046               -0.00378228
              18.38649017               10.17892867               94.31150545                0.86054213                0.02249733                0.02366383               -0.07803528                0.00280329                0.05145844               -0.00544538
              19.38674808               10.17714934               94.15724278                0.93027579                0.02579028                0.02940535               -0.09711587                0.00305642                0.02590122               -0.01047695
               9.52026365                0.20051905               96.72448665                0.93026458               -0.01555445               -0.01832510                0.06015055               -0.00195222                0.01796334               -0.00257430
              10.52010811                0.19820312               96.57025101                0.86052342               -0.01296088               -0.01454373                0.04712707               -0.00169332                0.04529719               -0.00442011
              11.52000444                0.19589794               96.41647144                0.86052253               -0.00816687               -0.01056924                0.03285237               -0.00136926                0.08491526               -0.00207756
              12.51994477                0.19360861               96.26294029                0.86053533               -0.00443627               -0.00667226                0.02007802               -0.00102530                0.10866297               -0.00129549
              13.51991571                0.19133215               96.10956506                0.86054436               -0.00183408               -0.00290745                0.00868181               -0.00081236                0.12184230               -0.00045781
              14.51990809                0.18905928               95.95625371                0.86054880                0.00018883                0.00080933               -0.00207228               -0.00082237                0.12417183                0.00036046
              15.51991949                0.18677836               95.80291018                0.86054590                0.00232978                0.00458877               -0.01302708               -0.00106655                0.11554436                0.00106915
              16.51995469                0.18447853               95.64944123                0.86053551                0.00531542                0.00853680               -0.02506250               -0.00150139                0.09655111                0.00151856
              17.52002580                0.18215317               95.49576472                0.86052470                0.00970634                0.01272038               -0.03896497               -0.00196827                0.06886020                0.00152015
              18.52014881                0.17980447               95.34181933                0.86052248                0.01518846                0.01706739               -0.05478750               -0.00229246                0.03546386                0.00099265
              19.52032957                0.17744321               95.18757077                0.93026428                0.01807521                0.02160843               -0.07016120               -0.00223419                0.01532757               -0.00004432
               9.52256006                1.20033580               96.72145044                0.86053056               -0.01583234               -0.01862742                0.06031497                0.00000699                0.01559166                0.00041754
              10.52240173                1.19805769               96.56719134                0.72104329               -0.01360275               -0.01478936                0.04722488                0.00049892                0.04426640               -0.00318833
              11.52228800                1.19579224               96.41342156                0.72104686               -0.00921603               -0.01064146                0.03318636                0.00153085                0.08332594               -0.00100051
              12.52221741                1.19354189               96.25987179                0.72106142               -0.00528723               -0.00667738                0.02029799                0.00241143                0.10441207               -0.00042864
              13.52218226                1.19130308               96.10646927                0.72107588               -0.00203246               -0.00288886                0.00850839                0.00291758                0.11644529               -0.00001730
              14.52217676                1.18906737               95.95312649                0.72108466                0.00084690                0.00083462               -0.00278492                0.00292794                0.11851170                0.00027454
              15.52219919                1.18682425               95.79975215                0.72107557                0.00377527                0.00463933               -0.01429254                0.00242289                0.11053098                0.00029682
              16.52225227                1.18456390               95.64625749                0.72105899                0.00719761                0.00866232               -0.02674700                0.00148874                0.09299563               -0.00020418
              17.52234315                1.18228038               95.49256385                0.72104573                0.01143020                0.01297948               -0.04077371                0.00040033                0.06723718               -0.00152195
              18.52248087                1.17997514               95.33861105                0.72104184                0.01626698                0.01751553               -0.05625769               -0.00031465                0.03541465               -0.00372759
              19.52266849                1.17765929               95.18435901                0.86053139                0.01876137                0.02219577               -0.07157224               -0.00020198                0.01597355               -0.00630637
               9.52482001                2.20014650               96.71838346                0.86053077               -0.01583730               -0.01949999                0.06181533                0.00012484                0.01259435                0.00313992
              10.52466164                2.19790734               96.56408423                0.72104317               -0.01345810               -0.01534428                0.04763962                0.00099111                0.04437238               -0.00090913
              11.52455085                2.19568511               96.41033685                0.72103322               -0.00897368               -0.01092185                0.03309252                0.00271051                0.08542454               -0.00028911
              12.52448217                2.19347506               96.25678396                0.72104831               -0.00511341               -0.00679171                0.02008443                0.00403195                0.10473018                0.00007807
              13.52444858                2.19127438               96.10336796                0.72106175               -0.00183446               -0.00290542                0.00821437                0.00482346                0.11595314                0.00031582
              14.52444548                2.18907597               95.95000672                0.72106795                0.00114152                0.00089312               -0.00319577                0.00484676                0.11763925                0.00038813
              15.52447141                2.18687115               95.79661097                0.72105821                0.00414288                0.00480128               -0.01484234                0.00406254                0.10949852                0.00002845
              16.52452834                2.18465178               95.64309273                0.72104536                0.00755741                0.00900225               -0.02748463                0.00260497                0.09184974               -0.00114514
              17.52462256                2.18241276               95.48937338                0.72103382                0.01176353                0.01359482               -0.04190534                0.00088517                0.06590399               -0.00352270
              18.52476361                2.18015478               95.33539314                0.72103956                0.01673336                0.01851896               -0.05831786               -0.00029073                0.03416694               -0.00720485
              19.52495723                2.17788712               95.18111777                0.86052895                0.01936230                0.02351921               -0.07522168               -0.00024373                0.01510803               -0.01138865
               9.52704088                3.19994580               96.71531629                0.86052939               -0.01579305               -0.02054357                0.06303897                0.00026656                0.01315214                0.00733223
              10.52688295                3.19775080               96.56100301                0.72103786               -0.01331965               -0.01586129                0.04795797                0.00120174                0.04519912                0.00358958
              11.52677448                3.19557381               96.40724669                0.72103185               -0.00870818               -0.01128959                0.03306855                0.00275271                0.08683332                0.00195301
              12.52670878                3.19340605               96.25368972                0.72104531               -0.00483311               -0.00700509                0.01989949                0.00380577                0.10625722                0.00127654
              13.52667782                3.19124497               96.10026536                0.72105740               -0.00159292               -0.00297833                0.00795438                0.00444735                0.11714755                0.00085254
              14.52667692                3.18908523               95.94689216                0.72105846                0.00134060                0.00095884               -0.00351955                0.00445217                0.11853810                0.00035861
              15.52670463                3.18692028               95.79348119                0.72105610                0.00429152                0.00502155               -0.01525491                0.00376915                0.11009030               -0.00052805
              16.52676275                3.18474395               95.63994414                0.72104025                0.00766082                0.00941045               -0.02806886                0.00252542                0.09205228               -0.00217549
              17.52685785                3.18255227               95.48620189                0.72102859                0.01189716                0.01424323               -0.04287741                0.00107953                0.06568333               -0.00492085
              18.52700070                3.18034552               95.33219564                0.72104214                0.01705380                0.01948103               -0.06006365                0.00004390                0.03380337               -0.00885502
              19.52719893                3.17812967               95.17789593                0.86052984                0.01982280                0.02482317               -0.07807172               -0.00000086                0.01486986               -0.01354439
               9.52921534                4.19973563               96.71225787                0.86052968               -0.01576708               -0.02125488                0.06377991                0.00029280                0.01346330                0.01107201
              10.52905766                4.19759011               96.55792311                0.72104058               -0.01323418               -0.01615983                0.04816611                0.00103249                0.04610708                0.00646309
              11.52895065                4.19545932               96.40415717                0.72103070               -0.00852727               -0.01151536                0.03304003                0.00218259                0.08851927                0.00409522
              12.52888712                4.19333496               96.25059362                0.72103877               -0.00461491               -0.00715199                0.01974023                0.00287378                0.10820393                0.00252533
              13.52885835                4.19121481               96.09716362                0.72105310               -0.00139522               -0.00302634                0.00772959                0.00328130                0.11912517                0.00140268
              14.52885922                4.18909514               95.94378324                0.72105769                0.00148640                0.00102141               -0.00379205                0.00325870                0.12033987                0.00032286
              15.52888808                4.18697158               95.79036226                0.72105361                0.00438159                0.00520516               -0.01559752                0.00277002                0.11156658               -0.00106912
              16.52894685                4.18483999               95.63681118                0.72104080                0.00772476                0.00972553               -0.02855451                0.00190669                0.09307065               -0.00311612
              17.52904258                4.18269763               95.48305009                0.72103158                0.01201172                0.01470301               -0.04365276                0.00091340                0.06619444               -0.00611395
              18.52918708                4.18054440               95.32902059                0.72104012                0.01731638                0.02010583               -0.06133633                0.00017021                0.03394303               -0.01019460
              19.52938890                4.17838358               95.17469546                0.86052779                0.02018232                0.02570390               -0.08005253                0.00012304                0.01490712               -0.01519412
               9.53133777                5.19952070               96.70919736                0.86053078               -0.01578577               -0.02146822                0.06403817                0.00023390                0.01382588                0.01370976
              10.53117991                5.19742760               96.55483905                0.72104026               -0.01322407               -0.01621913                0.04825570                0.00063707                0.04714158                0.00857924
              11.53107328                5.19534350               96.40106344                0.72102823               -0.00845715               -0.01154802                0.03298879                0.00125921                0.09049249                0.00562383
              12.53101076                5.19326301               96.24749520                0.72103910               -0.00450096               -0.00716511                0.01959805                0.00158202                0.11056768                0.00349423
              13.53098326                5.19118444               96.09406297                0.72104881               -0.00127188               -0.00300985                0.00753278                0.00174774                0.12163791                0.00183277
              14.53098533                5.18910566               95.94068037                0.72105471                0.00159627                0.00107878               -0.00403186                0.00170547                0.12276107                0.00027775
              15.53101519                5.18702438               95.78725487                0.72105254                0.00447573                0.00531099               -0.01589656                0.00144436                0.11367969               -0.00151071
              16.53107484                5.18493846               95.63369515                0.72103869                0.00782581                0.00988348               -0.02895855                0.00100783                0.09469825               -0.00384866
              17.53117171                5.18284633               95.47991989                0.72102848                0.01216508                0.01491259               -0.04423663                0.00050925                0.06723000               -0.00702291
              18.53131814                5.18074764               95.32587022                0.72103803                0.01756545                0.02037039               -0.06218556                0.00012793                0.03440362               -0.01122802
              19.53152302                5.17864375               95.17151969                0.86052995                0.02048721                0.02606669               -0.08121389                0.00015488                0.01511368               -0.01646254
               9.53340620                6.19930626               96.70612565                0.86052885               -0.01585974               -0.02120905                0.06391167                0.00015895                0.01428260                0.01543951
              10.53324761                6.19726573               96.55174204                0.72103973               -0.01328887               -0.01604750                0.04823603                0.00022173                0.04846404                0.00971789
              11.53314043                6.19522835               96.39795939                0.72103124               -0.00848943               -0.01139514                0.03291703                0.00032145                0.09302751                0.00643793
              12.53307782                6.19319166               96.24439081                0.72104001               -0.00448807               -0.00704561                0.01947169                0.00029205                0.11360551                0.00401447
              13.53305066                6.19115461               96.09096206                0.72105268               -0.00122141               -0.00292614                0.00736178                0.00023692                0.12489881                0.00205618
              14.53305339                6.18911672               95.93758377                0.72105480                0.00167538                0.00113039               -0.00424423                0.00018696                0.12597222                0.00021969
              15.53308417                6.18707780               95.78416070                0.72105275                0.00458306                0.00533532               -0.01615888                0.00015190                0.11658829               -0.00178944
              16.53314505                6.18503766               95.63059902                0.72103550                0.00797044                0.00988513               -0.02929178                0.00012805                0.09707557               -0.00425325
              17.53324358                6.18299588               95.47681528                0.72102789                0.01235850                0.01489487               -0.04465981                0.00010332                0.06888703               -0.00747548
              18.53339222                6.18095181               95.32274900                0.72103556                0.01780958                0.02033357               -0.06269633                0.00006823                0.03522864               -0.01175788
              19.53359977                6.17890492               95.16837314                0.86052975                0.02075525                0.02598408               -0.08174879                0.00016943                0.01552100               -0.01731269
               9.53542201                7.19909652               96.70303161                0.86052963               -0.01597633               -0.02062735                0.06352175                0.00012477                0.01494535                0.01606261
              10.53526225                7.19710665               96.54862066                0.72104229               -0.01341160               -0.01569365                0.04814686               -0.00006160                0.05035802                0.00962298
              11.53515378                7.19511560               96.39483647                0.72103356               -0.00859506               -0.01111031                0.03284507               -0.00037740                0.09658946                0.00636614
              12.53509035                7.19312210               96.24127510                0.72104828               -0.00454191               -0.00684036                0.01937049               -0.00070681                0.11780240                0.00399871
              13.53506294                7.19112592               96.08785844                0.72105810               -0.00122353               -0.00280075                0.00722159               -0.00093395                0.12938053                0.00202845
              14.53506588                7.18912827               95.93449365                0.72106385                0.00171738                0.00117724               -0.00442236               -0.00098069                0.13042485                0.00015466
              15.53509729                7.18713108               95.78108233                0.72105549                0.00467230                0.00530381               -0.01637842               -0.00082546                0.12072138               -0.00184193
              16.53515932                7.18513616               95.62752766                0.72104322                0.00811663                0.00977715               -0.02955739               -0.00050573                0.10059757               -0.00418897
              17.53525962                7.18314423               95.47374310                0.72103280                0.01255713                0.01471538               -0.04495482               -0.00013121                0.07149452               -0.00721028
              18.53541047                7.18115431               95.31966504                0.72103915                0.01802787                0.02008799               -0.06295590                0.00010424                0.03662707               -0.01139013
              19.53562018                7.17916343               95.16526369                0.86052712                0.02097137                0.02564325               -0.08183822                0.00022914                0.01624685               -0.01731594
               9.53738843                8.19889372               96.69989991                0.86052992               -0.01611308               -0.01992519                0.06301287                0.00015183                0.01597884                0.01507848
              10.53722730                8.19695186               96.54545964                0.72104138               -0.01354981               -0.01526945                0.04807317               -0.00017350                0.05322167                0.00783027
              11.53711743                8.19500615               96.39168364                0.72103827               -0.00869686               -0.01081769                0.03282336               -0.00071781                0.10182644                0.00526133
              12.53705336                8.19305485               96.23814138                0.72105159               -0.00458043               -0.00664478                0.01930942               -0.00119700                0.12382914                0.00338632
              13.53702582                8.19109860               96.08474910                0.72106646               -0.00123739               -0.00267969                0.00712104               -0.00149562                0.13574259                0.00171774
              14.53702861                8.18914026               95.93141025                0.72107015                0.00169748                0.00122513               -0.00454669               -0.00152925                0.13676934                0.00009278
              15.53705977                8.18718388               95.77802323                0.72106486                0.00465903                0.00527153               -0.01652690               -0.00127254                0.12670809               -0.00160514
              16.53712179                8.18523320               95.62448788                0.72104941                0.00815180                0.00965199               -0.02973660               -0.00077000                0.10585626               -0.00352019
              17.53722281                8.18329019               95.47071361                0.72103602                0.01266549                0.01448684               -0.04513981               -0.00017033                0.07556554               -0.00593341
              18.53737510                8.18135357               95.31663138                0.72104059                0.01816491                0.01974955               -0.06302894                0.00021782                0.03893831               -0.00952707
              19.53758610                8.17941778               95.16220520                0.86052916                0.02110045                0.02521657               -0.08160544                0.00032178                0.01748827               -0.01564539
               9.53930877                9.19869801               96.69670912                0.86052816               -0.01624239               -0.01938541                0.06257798                0.00017297                0.01745715                0.01079565
              10.53914635                9.19680127               96.54223742                0.72104390               -0.01361717               -0.01498824                0.04822361               -0.00021147                0.05762077                0.00408548
              11.53903643                9.19489924               96.38848838                0.72103920               -0.00861933               -0.01072050                0.03289990               -0.00063191                0.10967094                0.00314406
              12.53897396                9.19298921               96.23498227                0.72105997               -0.00444046               -0.00657364                0.01927511               -0.00097455                0.13247642                0.00208519
              13.53894762                9.19107233               96.08163050                0.72107606               -0.00119732               -0.00261850                0.00705956               -0.00118018                0.14478947                0.00106153
              14.53895001                9.18915277               95.92833389                0.72108060                0.00156427                0.00128539               -0.00458023               -0.00119476                0.14582764                0.00003549
              15.53897890                9.18723652               95.77498757                0.72107753                0.00438000                0.00531598               -0.01653129               -0.00099176                0.13532805               -0.00101856
              16.53903761                9.18532920               95.62148781                0.72105764                0.00784732                0.00964504               -0.02975349               -0.00059903                0.11358229               -0.00215026
              17.53913585                9.18343397               95.46774000                0.72103933                0.01248053                0.01438892               -0.04520577               -0.00012757                0.08181649               -0.00350443
              18.53928723                9.18154930               95.31366768                0.72104319                0.01811660                0.01951167               -0.06304034                0.00018614                0.04263923               -0.00559473
              19.53949818                9.17966777               95.15921995                0.86052863                0.02109574                0.02489594               -0.08116226                0.00030112                0.01946552               -0.01058135
               9.54118538               10.19850601               96.69341131                0.93026352               -0.01635458               -0.01920066                0.06304365                0.00226944                0.02207315                0.00956077
              10.54102184               10.19665209               96.53893362                0.86052081               -0.01342664               -0.01491749                0.04882189                0.00183551                0.06539937                0.00345888
              11.54091685               10.19479174               96.38524034                0.86052191               -0.00805268               -0.01075043                0.03294849                0.00160667                0.12092644                0.00314580
              12.54086078               10.19292338               96.23178961                0.86053246               -0.00390974               -0.00658272                0.01914900                0.00140666                0.14444912                0.00204278
              13.54083866               10.19104623               96.07849854                0.86054070               -0.00101290               -0.00260995                0.00699351                0.00123327                0.15744210                0.00085242
              14.54084053               10.18916597               95.92526474                0.86054780                0.00124256                0.00132030               -0.00446255                0.00124952                0.15854320               -0.00038481
              15.54086351               10.18729020               95.77197968                0.86054523                0.00359168                0.00536796               -0.01623568                0.00146665                0.14743231               -0.00161517
              16.54091236               10.18542610               95.61853583                0.86053121                0.00683239                0.00969025               -0.02940822                0.00186288                0.12445331               -0.00279626
              17.54100015               10.18357796               95.46483508                0.86052406                0.01163327                0.01439974               -0.04503350                0.00231530                0.09098616               -0.00393522
              18.54114502               10.18174380               95.31079770                0.86052080                0.01775210                0.01945003               -0.06329885                0.00266685                0.04902325               -0.00522508
              19.54135520               10.17991570               95.15635259                0.93026319                0.02101717                0.02479371               -0.08150142                0.00289159                0.02389288               -0.00912139
               9.67473350                0.20353565               97.72501129                0.93025938               -0.01100763               -0.01392552                0.04535841               -0.00154114                0.01572039               -0.00088503
              10.67462342                0.20121813               97.57065769                0.86050992               -0.00840716               -0.01095965                0.03410263               -0.00110676                0.04231963               -0.00465044
              11.67456535                0.19892358               97.41674753                0.86051514               -0.00409895               -0.00767796                0.02233314               -0.00039746                0.08219619               -0.00262624
              12.67454144                0.19666159               97.26310577                0.86053126               -0.00156185               -0.00476593                0.01314218                0.00033228                0.10707467               -0.00166963
              13.67453412                0.19442375               97.10963628                0.86054469               -0.00032442               -0.00216227                0.00560698                0.00073184                0.12080836               -0.00059700
              14.67453495                0.19219431               96.95623798                0.86054906                0.00037404                0.00031844               -0.00126070                0.00075516                0.12349793                0.00047658
              15.67454160                0.18995513               96.80280577                0.86054394                0.00107477                0.00288343               -0.00823393                0.00039053                0.11515494                0.00145406
              16.67455645                0.18768827               96.64923680                0.86053249                0.00242809                0.00573847               -0.01617391               -0.00036102                0.09596949                0.00214267
              17.67459016                0.18538011               96.49543859                0.86051545                0.00539893                0.00903909               -0.02626049               -0.00134178                0.06713388                0.00217624
              18.67466443                0.18302914               96.34134604                0.86050790                0.01025764                0.01280136               -0.03961625               -0.00211249                0.03286325                0.00118128
              19.67479531                0.18065298               96.18695123                0.93025581                0.01308852                0.01696433               -0.05428112               -0.00200401                0.01288704               -0.00185739
               9.67703560                1.20339639               97.72197871                0.86051531               -0.01172154               -0.01436256                0.04611734                0.00010124                0.01484458                0.00254086
              10.67691839                1.20110854               97.56760065                0.72101913               -0.00979752               -0.01135319                0.03458518                0.00104942                0.04264541               -0.00323225
              11.67683965                1.19884680               97.41370296                0.72102458               -0.00618519               -0.00780027                0.02306023                0.00301188                0.08126207               -0.00156911
              12.67679468                1.19661393               97.26004107                0.72105515               -0.00322875               -0.00479321                0.01369843                0.00455284                0.10264576               -0.00083224
              13.67677508                1.19440212               97.10653969                0.72107533               -0.00089351               -0.00216850                0.00564086                0.00539456                0.11477143               -0.00012822
              14.67677681                1.19219749               96.95310368                0.72108116                0.00117221                0.00030830               -0.00192267                0.00548464                0.11702241                0.00047985
              15.67679852                1.18998397               96.79963408                0.72107202                0.00317696                0.00289375               -0.00964697                0.00479555                0.10942169                0.00084805
              16.67684035                1.18774566               96.64603399                0.72105214                0.00538938                0.00584322               -0.01826479                0.00332524                0.09215251                0.00064836
              17.67690631                1.18547050               96.49221622                0.72102748                0.00832557                0.00934844               -0.02877659                0.00134959                0.06617136               -0.00073531
              18.67700686                1.18315715               96.33811927                0.72101323                0.01225593                0.01337973               -0.04209152               -0.00018287                0.03422906               -0.00397213
              19.67715143                1.18082263               96.18372123                0.86051238                0.01445640                0.01764088               -0.05694247               -0.00016656                0.01534561               -0.00901653
               9.67931124                2.20324840               97.71893086                0.86051283               -0.01172367               -0.01566716                0.04856859                0.00032488                0.01205600                0.00550773
              10.67919400                2.20099107               97.56449853                0.72101632               -0.00955193               -0.01217135                0.03505661                0.00205450                0.04351596               -0.00103591
              11.67912020                2.19876758               97.41061753                0.72102211               -0.00584112               -0.00828518                0.02306624                0.00524377                0.08493674               -0.00092936
              12.67907718                2.19656573               97.25695161                0.72104248               -0.00308759               -0.00504509                0.01367530                0.00744952                0.10470431               -0.00041464
              13.67905845                2.19438038               97.10343599                0.72106176               -0.00071868               -0.00228083                0.00548790                0.00875909                0.11595346                0.00019589
              14.67906280                2.19220047               96.94998017                0.72106898                0.00154486                0.00030226               -0.00227483                0.00892737                0.11782614                0.00071708
              15.67908934                2.19001301               96.79648765                0.72106140                0.00368095                0.00302792               -0.01019220                0.00789035                0.11014561                0.00083479
              16.67913642                2.18780514               96.64286218                0.72104209                0.00581559                0.00621587               -0.01897239                0.00569053                0.09277582                0.00003592
              17.67920565                2.18556707               96.48901450                0.72101908                0.00861078                0.01009937               -0.02981166                0.00274073                0.06619445               -0.00246768
              18.67930864                2.18329673               96.33487898                0.72101371                0.01276878                0.01463499               -0.04437218                0.00025895                0.03331274               -0.00749596
              19.67946103                2.18100580               96.18043750                0.86051048                0.01523924                0.01928040               -0.06200954               -0.00013785                0.01431079               -0.01470273
               9.68155676                3.20308305               97.71587854                0.86051216               -0.01164596               -0.01720584                0.05029082                0.00058934                0.01287675                0.00855958
              10.68144030                3.20086511               97.56142099                0.72101177               -0.00934429               -0.01286507                0.03543492                0.00234505                0.04504176                0.00318215
              11.68136987                3.19868110               97.40752748                0.72101930               -0.00547119               -0.00890272                0.02311900                0.00509827                0.08752841                0.00134333
              12.68133087                3.19651303               97.25385593                0.72104032               -0.00271804               -0.00546666                0.01358754                0.00681976                0.10761239                0.00083488
              13.68131551                3.19435651               97.10033121                0.72105696               -0.00040718               -0.00248794                0.00532277                0.00789080                0.11860575                0.00074372
              14.68132273                3.19220354               96.94686277                0.72106835                0.00180771                0.00031238               -0.00253112                0.00802690                0.12022991                0.00065771
              15.68135166                3.19004452               96.79335417                0.72105376                0.00386823                0.00326972               -0.01054700                0.00714397                0.11227438                0.00019429
              16.68140009                3.18786997               96.63970827                0.72103626                0.00589307                0.00671230               -0.01946697                0.00532001                0.09444332               -0.00112314
              17.68146953                3.18567248               96.48583369                0.72101600                0.00866100                0.01087614               -0.03066818                0.00293798                0.06711791               -0.00389502
              18.68157331                3.18344985               96.33166331                0.72101344                0.01305038                0.01576681               -0.04617291                0.00083095                0.03360195               -0.00866870
              19.68173053                3.18120823               96.17718388                0.86051319                0.01572188                0.02094999               -0.06555481                0.00029835                0.01439286               -0.01533353
               9.68375891                4.20290428               97.71282873                0.86051368               -0.01160538               -0.01815135                0.05118177                0.00058055                0.01326323                0.01102718
              10.68364285                4.20073377               97.55834357                0.72101330               -0.00923303               -0.01324312                0.03570830                0.00189379                0.04623238                0.00577481
              11.68357424                4.19858952               97.40443794                0.72101999               -0.00523435               -0.00925788                0.02313002                0.00387296                0.08974239                0.00339830
              12.68353816                4.19645639               97.25075851                0.72103539               -0.00242457               -0.00574860                0.01348021                0.00500476                0.11019809                0.00205234
              13.68352575                4.19433062               97.09722755                0.72105262               -0.00014201               -0.00263479                0.00516179                0.00569365                0.12129288                0.00125860
              14.68353532                4.19220672               96.94375152                0.72105874                0.00200159                0.00032645               -0.00273623                0.00576092                0.12278187                0.00055214
              15.68356579                4.19007840               96.79023229                0.72105263                0.00397695                0.00345388               -0.01081054                0.00514527                0.11451412               -0.00045865
              16.68361486                4.18793938               96.63657103                0.72103764                0.00593757                0.00706074               -0.01984691                0.00390542                0.09617188               -0.00218418
              17.68368454                4.18578460               96.48267467                0.72101612                0.00873209                0.01137126               -0.03132139                0.00229610                0.06818537               -0.00506748
              18.68378951                4.18361207               96.32847562                0.72101338                0.01328472                0.01641444               -0.04736972                0.00082201                0.03404429               -0.00947433
              19.68395023                4.18142480               96.17396249                0.86051205                0.01607256                0.02193981               -0.06762968                0.00041536                0.01454197               -0.01539765
               9.68590939                5.20272002               97.70977101                0.86051296               -0.01164633               -0.01831721                0.05141577                0.00042252                0.01357726                0.01263413
              10.68579293                5.20060025               97.55526071                0.72101192               -0.00923442               -0.01329486                0.03584183                0.00111094                0.04721267                0.00761319
              11.68572471                5.19849594               97.40134390                0.72101675               -0.00515288               -0.00930845                0.02310684                0.00217770                0.09169305                0.00482734
              12.68568987                5.19639806               97.24765887                0.72103668               -0.00228260               -0.00579819                0.01337212                0.00272583                0.11258398                0.00297642
              13.68567905                5.19430381               97.09412521                0.72105063                0.00001457               -0.00266019                0.00501311                0.00302497                0.12385871                0.00163846
              14.68569016                5.19221007               96.94064661                0.72105903                0.00214268                0.00034389               -0.00291324                0.00302880                0.12528112                0.00042287
              15.68572191                5.19011360               96.78712239                0.72105225                0.00409208                0.00352294               -0.01102722                0.00271776                0.11671893               -0.00102201
              16.68577201                5.18801119               96.63345151                0.72103314                0.00604263                0.00717893               -0.02014368                0.00210461                0.09788056               -0.00303832
              17.68584276                5.18589991               96.47953922                0.72101403                0.00887716                0.01151985               -0.03177007                0.00128745                0.06925372               -0.00597561
              18.68594955                5.18377814               96.32531725                0.72101471                0.01353083                0.01656960               -0.04805923                0.00050709                0.03447416               -0.01012628
              19.68611338                5.18164703               96.17077543                0.86051055                0.01638268                0.02212591               -0.06860131                0.00034413                0.01469384               -0.01549651
               9.68800691                6.20253794               97.70669776                0.86051204               -0.01177571               -0.01783479                0.05119494                0.00026319                0.01394579                0.01366477
              10.68788915                6.20046787               97.55216370                0.72101605               -0.00934598               -0.01303242                0.03583537                0.00038279                0.04831297                0.00855742
              11.68781999                6.19840335               97.39823928                0.72101909               -0.00521702               -0.00907637                0.02304096                0.00059476                0.09388808                0.00559471
              12.68778481                6.19634043               97.24455338                0.72103635               -0.00228732               -0.00562589                0.01326184                0.00058362                0.11527069                0.00348738
              13.68777424                6.19427741               97.09102282                0.72105531                0.00006492               -0.00256461                0.00487815                0.00052206                0.12676631                0.00182930
              14.68778611                6.19221360               96.93754823                0.72106269                0.00223870                0.00036169               -0.00306515                0.00048015                0.12814898                0.00028051
              15.68781902                6.19014886               96.78402604                0.72105404                0.00422693                0.00347146               -0.01120406                0.00047394                0.11930629               -0.00143839
              16.68787065                6.18808296               96.63035258                0.72103397                0.00621580                0.00707037               -0.02036496                0.00046485                0.09996653               -0.00359857
              17.68794333                6.18601499               96.47643097                0.72101660                0.00909378                0.01136213               -0.03205570                0.00039105                0.07065694               -0.00650810
              18.68805252                6.18394346               96.32219159                0.72101211                0.01379991                0.01634563               -0.04839804                0.00023292                0.03511873               -0.01048501
              19.68821933                6.18186732               96.16762443                0.86051212                0.01668073                0.02173671               -0.06889110                0.00027427                0.01499614               -0.01568562
               9.69005479                7.20236333               97.70359924                0.86051130               -0.01196209               -0.01697806                0.05067917                0.00019442                0.01449770                0.01389408
              10.68993517                7.20033960               97.54904153                0.72101369               -0.00953735               -0.01252572                0.03574526               -0.00006424                0.04988236                0.00842362
              11.68986404                7.19831441               97.39511570                0.72101552               -0.00538422               -0.00863215                0.02295138               -0.00051797                0.09689563                0.00560048
              12.68982749                7.19628554               97.24143674                0.72103779               -0.00238596               -0.00530029                0.01315423               -0.00102213                0.11885187                0.00354733
              13.68981632                7.19425252               97.08791799                0.72105505                0.00004181               -0.00238838                0.00476075               -0.00137741                0.13060517                0.00181378
              14.68982832                7.19221730               96.93445665                0.72106704                0.00228494                0.00037873               -0.00318462               -0.00144534                0.13196082                0.00013976
              15.68986202                7.19018303               96.78094591                0.72105467                0.00434237                0.00333396               -0.01133067               -0.00118829                0.12282711               -0.00165526
              16.68991517                7.18815260               96.62727910                0.72103844                0.00640284                0.00679909               -0.02051252               -0.00067992                0.10293631               -0.00375792
              17.68999008                7.18612715               96.47335640                0.72101769                0.00933565                0.01099420               -0.03221962               -0.00011411                0.07281670               -0.00644687
              18.69010188                7.18410505               96.31910565                0.72101713                0.01405328                0.01591249               -0.04851421                0.00020549                0.03624265               -0.01016016
              19.69027115                7.18208177               96.16451508                0.86051456                0.01692637                0.02115733               -0.06876999                0.00032020                0.01558841               -0.01541486
               9.69205826                8.20219838               97.70046170                0.86051203               -0.01214752               -0.01606450                0.05000896                0.00023506                0.01540051                0.01279886
              10.69193678                8.20021736               97.54587979                0.72101462               -0.00972826               -0.01192313                0.03565820               -0.00019570                0.05235303                0.00684342
              11.69186369                8.19823071               97.39196263                0.72102095               -0.00552581               -0.00814929                0.02288306               -0.00101376                0.10143021                0.00476068
              12.69182626                8.19623442               97.23830240                0.72104388               -0.00243786               -0.00496724                0.01305490               -0.00180018                0.12409985                0.00312164
              13.69181493                8.19422965               97.08480777                0.72106923                0.00002134               -0.00220646                0.00466480               -0.00229417                0.13618246                0.00157423
              14.69182669                8.19222117               96.93137234                0.72107262                0.00225105                0.00040237               -0.00324883               -0.00236127                0.13753355                0.00002460
              15.69185996                8.19021554               96.77788586                0.72106144                0.00431193                0.00319515               -0.01136766               -0.00195891                0.12806236               -0.00159528
              16.69191293                8.18821894               96.62423816                0.72104271                0.00643194                0.00650173               -0.02055097               -0.00115520                0.10749626               -0.00337268
              17.69198859                8.18623488               96.47032571                0.72101963                0.00945449                0.01056886               -0.03226595               -0.00019034                0.07632696               -0.00550190
              18.69210202                8.18426171               96.31607195                0.72101626                0.01418584                0.01543800               -0.04846709                0.00040546                0.03823285               -0.00853740
              19.69227231                8.18229047               96.16145991                0.86051078                0.01702908                0.02072506               -0.06836853                0.00046626                0.01668151               -0.01369060
               9.69402153                9.20204204               97.69726551                0.86051298               -0.01226105               -0.01541870                0.04938302                0.00025951                0.01679064                0.00897678
              10.69389892                9.20010114               97.54265914                0.72101628               -0.00974144               -0.01150766                0.03577670               -0.00021782                0.05629220                0.00364252
              11.69382670                9.19815143               97.38876802                0.72102522               -0.00531873               -0.00795162                0.02285939               -0.00085363                0.10843649                0.00301158
              12.69379255                9.19618619               97.23514278                0.72105462               -0.00215061               -0.00483174                0.01292481               -0.00146479                0.13202157                0.00204481
              13.69378369                9.19420839               97.08168862                0.72107242                0.00013288               -0.00212181                0.00458094               -0.00182187                0.14464333                0.00102046
              14.69379520                9.19222535               96.92829608                0.72108372                0.00206924                0.00044874               -0.00320851               -0.00185967                0.14606153               -0.00003466
              15.69382508                9.19024693               96.77485095                0.72107481                0.00387612                0.00318590               -0.01120641               -0.00153664                0.13612806               -0.00111504
              16.69387273                9.18828263               96.62123898                0.72105363                0.00592147                0.00639715               -0.02033738               -0.00088719                0.11460044               -0.00222297
              17.69394351                9.18633853               96.46735261                0.72102471                0.00908384                0.01033760               -0.03208268               -0.00007122                0.08196225               -0.00342064
              18.69405440                9.18441381               96.31310936                0.72101383                0.01397286                0.01512097               -0.04825944                0.00044204                0.04162812               -0.00507704
              19.69422296                9.18249627               96.15848093                0.86051119                0.01685586                0.02055790               -0.06770745                0.00043715                0.01858543               -0.00899485
               9.69594525               10.20189000               97.69397222                0.93025733               -0.01222164               -0.01520360                0.04969828                0.00209195                0.02039041                0.00796310
              10.69582303               10.19998720               97.53936135                0.86050867               -0.00918444               -0.01139330                0.03627965                0.00149507                0.06283847                0.00357871
              11.69576156               10.19807168               97.38551978                0.86051598               -0.00415130               -0.00797503                0.02266818                0.00101505                0.11870758                0.00342652
              12.69574001               10.19613779               97.23194824                0.86053016               -0.00111091               -0.00484061                0.01259919                0.00052270                0.14371977                0.00226908
              13.69573934               10.19418721               97.07855592                0.86054141                0.00054731               -0.00211798                0.00445857                0.00018325                0.15743017                0.00092538
              14.69575095               10.19223015               96.92522880                0.86054908                0.00162977                0.00048008               -0.00297555                0.00017732                0.15904402               -0.00050495
              15.69577194               10.19027926               96.77184750                0.86054223                0.00263188                0.00323227               -0.01061544                0.00052321                0.14837244               -0.00192576
              16.69580359               10.18834689               96.61829265                0.86053034                0.00420239                0.00642552               -0.01952263                0.00120516                0.12523975               -0.00323417
              17.69585599               10.18644163               96.46445204                0.86051614                0.00747652                0.01031012               -0.03132026                0.00211040                0.09034340               -0.00434571
              18.69595312               10.18456413               96.31023948                0.86051013                0.01300800                0.01503173               -0.04785269                0.00287158                0.04691112               -0.00530680
              19.69611615               10.18270162               96.15561275                0.93025610                0.01630242                0.02053569               -0.06734273                0.00306775                0.02179964               -0.00754143
               9.82928527                0.20656652               98.72539382                0.93024994               -0.00670067               -0.00994667                0.03163240               -0.00145510                0.01318136                0.00111720
              10.82921827                0.20422418               98.57093306                0.86049995               -0.00424979               -0.00719880                0.02110721               -0.00038749                0.03925928               -0.00533366
              11.82920028                0.20193454               98.41691810                0.86050947               -0.00103786               -0.00436807                0.01265326                0.00127627                0.07833940               -0.00340734
              12.82919751                0.19970462               98.26320313                0.86052594               -0.00003042               -0.00252151                0.00724635                0.00255203                0.10208115               -0.00211302
              13.82919967                0.19751340               98.10967720                0.86054104                0.00055235               -0.00125916                0.00297054                0.00317917                0.11463508               -0.00077662
              14.82920856                0.19533740               97.95622850                0.86054410                0.00120481               -0.00026206               -0.00091122                0.00329748                0.11731757                0.00056632
              15.82922377                0.19315083               97.80274550                0.86054078                0.00163522                0.00085091               -0.00476115                0.00283614                0.11042652                0.00185953
              16.82924126                0.19092701               97.64911776                0.86052746                0.00177294                0.00244827               -0.00903239                0.00172247                0.09352573                0.00294677
              17.82925923                0.18864144               97.49523951                0.86051128                0.00260857                0.00483191               -0.01475025               -0.00006152                0.06617618                0.00333829
              18.82929343                0.18628165               97.34102701                0.86049968                0.00588535                0.00811222               -0.02420372               -0.00206862                0.03162998                0.00204752
              19.82937693                0.18386606               97.18648515                0.93024935                0.00834986                0.01266396               -0.03904465               -0.00210540                0.01113429               -0.00337347
               9.83161306                1.20646705               98.72237279                0.86049908               -0.00826743               -0.01048484                0.03351554                0.00053976                0.01435417                0.00568351
              10.83153038                1.20415220               98.56788304                0.72099400               -0.00701164               -0.00789526                0.02197346                0.00254103                0.04162628               -0.00387498
              11.83147282                1.20189086               98.41388276                0.72101613               -0.00483911               -0.00462670                0.01390874                0.00617179                0.07838500               -0.00213269
              12.83143360                1.19967940               98.26014576                0.72104686               -0.00288764               -0.00263532                0.00821554                0.00851168                0.09773513               -0.00106942
              13.83141507                1.19750081               98.10658208                0.72106836               -0.00053915               -0.00133131                0.00325577                0.00974005                0.10823829               -0.00019525
              14.83142282                1.19533478               97.95308803                0.72107660                0.00211254               -0.00030890               -0.00144544                0.01001568                0.11026518                0.00061129
              15.83145732                1.19315933               97.79955921                0.72106827                0.00451820                0.00084652               -0.00620367                0.00926317                0.10406527                0.00128381
              16.83151318                1.19095149               97.64589220                0.72105056                0.00619838                0.00256044               -0.01141481                0.00730780                0.08932483                0.00155442
              17.83158129                1.18868975               97.49198831                0.72101627                0.00736277                0.00522514               -0.01791940                0.00408516                0.06568740                0.00065981
              18.83166044                1.18636277               97.33776922                0.72099862                0.00950892                0.00895866               -0.02782889                0.00081865                0.03452248               -0.00328835
              19.83177147                1.18399270               97.18322016                0.86049948                0.01110311                0.01321820               -0.04393273                0.00046627                0.01548274               -0.01259890
               9.83392578                2.20635682               98.71935484                0.86049923               -0.00804971               -0.01239669                0.03709279                0.00096826                0.01230773                0.00864176
              10.83384528                2.20406628               98.56478536                0.72099427               -0.00646359               -0.00913953                0.02220393                0.00448197                0.04488845               -0.00199057
              11.83379651                2.20184200               98.41079818                0.72101212               -0.00437438               -0.00552973                0.01432681                0.01014608                0.08581995               -0.00165202
              12.83375780                2.19965191               98.25705746                0.72103725               -0.00287057               -0.00317729                0.00856454                0.01342329                0.10372009               -0.00080569
              13.83373910                2.19748677               98.10347772                0.72105511               -0.00037269               -0.00162617                0.00328946                0.01536650                0.11334174                0.00009353
              14.83375034                2.19533122               97.94996122                0.72106489                0.00266098               -0.00038730               -0.00178443                0.01583659                0.11508024                0.00095050
              15.83379232                2.19316776               97.79640712                0.72105457                0.00533285                0.00100913               -0.00688121                0.01471496                0.10898524                0.00153698
              16.83385700                2.19097822               97.64271328                0.72103854                0.00686665                0.00305715               -0.01229768                0.01185517                0.09435675                0.00137123
              17.83392965                2.18874594               97.48877715                0.72101169                0.00749338                0.00622267               -0.01886642                0.00732403                0.06982986               -0.00060016
              18.83400687                2.18646082               97.33450569                0.72099695                0.00983771                0.01063686               -0.02975963                0.00232937                0.03602136               -0.00648408
              19.83412640                2.18413042               97.17987758                0.86050167                0.01195375                0.01526592               -0.05099156                0.00066857                0.01517522               -0.01871329
               9.83621351                3.20621912               98.71632210                0.86049943               -0.00786671               -0.01465603                0.03899988                0.00128533                0.01362147                0.00945041
              10.83613484                3.20396940               98.56171171                0.72099579               -0.00616966               -0.01001957                0.02260974                0.00444786                0.04767376                0.00210299
              11.83609011                3.20178026               98.40770907                0.72101169               -0.00387705               -0.00655720                0.01441904                0.00902537                0.09046316                0.00047563
              12.83605730                3.19961586               98.25396147                0.72103144               -0.00235102               -0.00394210                0.00862564                0.01158490                0.10884137                0.00032180
              13.83604309                3.19746828               98.10037182                0.72105106                0.00006324               -0.00203951                0.00322554                0.01316374                0.11829574                0.00057634
              14.83605856                3.19532703               97.94684154                0.72105935                0.00307656               -0.00044361               -0.00201306                0.01355035                0.11986827                0.00086144
              15.83610463                3.19317952               97.79327025                0.72105211                0.00567697                0.00132148               -0.00725990                0.01260727                0.11361043                0.00085979
              16.83617210                3.19101263               97.63955480                0.72103320                0.00702710                0.00374230               -0.01279969                0.01028017                0.09857727                0.00010377
              17.83624517                3.18881421               97.48558853                0.72100974                0.00752201                0.00724024               -0.01962247                0.00674580                0.07308358               -0.00217717
              18.83632254                3.18657551               97.33127218                0.72099587                0.01002363                0.01200738               -0.03148972                0.00285428                0.03796119               -0.00724161
              19.83644564                3.18429801               97.17658483                0.86049833                0.01230959                0.01768306               -0.05491572                0.00123093                0.01618178               -0.01634060
               9.83845091                4.20606370               98.71328151                0.86049990               -0.00778155               -0.01573822                0.03977960                0.00103874                0.01392788                0.01007740
              10.83837310                4.20386589               98.55863728                0.72099348               -0.00601731               -0.01048326                0.02295515                0.00317939                0.04893151                0.00440092
              11.83833056                4.20171086               98.40461977                0.72100843               -0.00358111               -0.00707738                0.01447233                0.00630274                0.09291094                0.00231074
              12.83830147                4.19957307               98.25086323                0.72103706               -0.00196836               -0.00440917                0.00858209                0.00794791                0.11169056                0.00138566
              13.83829120                4.19744598               98.09726686                0.72105161                0.00043198               -0.00231683                0.00312174                0.00894403                0.12127856                0.00099441
              14.83831011                4.19532235               97.94372852                0.72105915                0.00338311               -0.00048125               -0.00219049                0.00917061                0.12276785                0.00069575
              15.83835886                4.19319419               97.79014604                0.72105470                0.00588995                0.00153378               -0.00751170                0.00853805                0.11626583                0.00014934
              16.83842791                4.19105306               97.63641424                0.72102783                0.00714164                0.00417503               -0.01314280                0.00700385                0.10075802               -0.00103867
              17.83850169                4.18889074               97.48242366                0.72101317                0.00761174                0.00781546               -0.02016969                0.00468879                0.07453500               -0.00339499
              18.83858015                4.18670097               97.32807320                0.72099635                0.01021567                0.01268174               -0.03247037                0.00211047                0.03852226               -0.00759985
              19.83870601                4.18448408               97.17334286                0.86049924                0.01258595                0.01869337               -0.05660111                0.00105633                0.01626477               -0.01416183
               9.84062991                5.20590435               98.71022567                0.86049866               -0.00786393               -0.01561842                0.03983477                0.00065471                0.01412262                0.01054030
              10.84055127                5.20375974               98.55555589                0.72099271               -0.00604604               -0.01049111                0.02307697                0.00168056                0.04969145                0.00591464
              11.84050899                5.20163871               98.40152558                0.72100908               -0.00350666               -0.00712021                0.01445630                0.00329391                0.09458233                0.00356722
              12.84048114                5.19952767               98.24776264                0.72103087               -0.00181455               -0.00447661                0.00850231                0.00407232                0.11378981                0.00218700
              13.84047270                5.19742194               98.09416323                0.72104870                0.00063175               -0.00237804                0.00300633                0.00448356                0.12355455                0.00128809
              14.84049377                5.19531740               97.94062210                0.72105739                0.00359873               -0.00050261               -0.00233491                0.00456430                0.12500464                0.00050309
              15.84054467                5.19321019               97.78703433                0.72104795                0.00609262                0.00156626               -0.00768909                0.00429079                0.11826318               -0.00047565
              16.84061562                5.19109613               97.63329227                0.72103042                0.00731832                0.00425177               -0.01336878                0.00359311                0.10232064               -0.00196037
              17.84069104                5.18897052               97.47928449                0.72100801                0.00778962                0.00788964               -0.02048050                0.00245140                0.07548731               -0.00431748
              18.84077142                5.18682914               97.32490903                0.72099170                0.01047505                0.01263714               -0.03290107                0.00111762                0.03882631               -0.00796265
              19.84090054                5.18467188               97.17014766                0.86049943                0.01291229                0.01837401               -0.05711244                0.00067469                0.01630215               -0.01312682
               9.84275323                6.20575133               98.70714955                0.86050131               -0.00808859               -0.01469483                0.03945922                0.00034765                0.01436488                0.01090185
              10.84267234                6.20365606               98.55245875                0.72099598               -0.00623603               -0.01003529                0.02301784                0.00046458                0.05044272                0.00667497
              11.84262851                6.20156845               98.39842021                0.72100861               -0.00363282               -0.00672307                0.01435503                0.00074806                0.09620946                0.00424376
              12.84259969                6.19948354               98.24465605                0.72103447               -0.00186870               -0.00418213                0.00838264                0.00069620                0.11585624                0.00264176
              13.84259114                6.19739842               98.09105962                0.72104843                0.00067310               -0.00223495                0.00288657                0.00056005                0.12581049                0.00143024
              14.84261315                6.19531229               97.93752247                0.72106105                0.00374058               -0.00052269               -0.00244661                0.00052473                0.12722959                0.00030270
              15.84266595                6.19322551               97.78393662                0.72105363                0.00631497                0.00139802               -0.00779572                0.00062567                0.12026044               -0.00097389
              16.84273945                6.19113810               97.63019172                0.72103232                0.00758827                0.00396441               -0.01347972                0.00074816                0.10390107               -0.00262933
              17.84281771                6.18904854               97.47617416                0.72100547                0.00808427                0.00750145               -0.02060289                0.00069908                0.07648862               -0.00494810
              18.84290114                6.18695371               97.32178104                0.72099125                0.01081525                0.01208033               -0.03299870                0.00041266                0.03921438               -0.00828346
              19.84303402                6.18485156               97.16699531                0.86050100                0.01328828                0.01738878               -0.05704899                0.00041316                0.01646612               -0.01286118
               9.84482739                7.20561046               98.70404519                0.86050094               -0.00839575               -0.01339549                0.03881257                0.00020875                0.01475376                0.01082488
              10.84474344                7.20355903               98.54933556                0.72099347               -0.00654588               -0.00924777                0.02286356               -0.00025610                0.05152679                0.00659738
              11.84469648                7.20150425               98.39529550                0.72101113               -0.00391713               -0.00597080                0.01418453               -0.00100420                0.09839053                0.00433325
              12.84466509                7.19944403               98.24153819                0.72103250               -0.00206689               -0.00361443                0.00822443               -0.00182392                0.11850558                0.00276193
              13.84465514                7.19737725               98.08795366                0.72105029                0.00060396               -0.00194830                0.00276460               -0.00243450                0.12865630                0.00142648
              14.84467717                7.19530695               97.93442995                0.72106026                0.00381212               -0.00054844               -0.00251923               -0.00255280                0.13004491                0.00010805
              15.84473138                7.19323815               97.78085571                0.72105247                0.00651940                0.00107124               -0.00782286               -0.00211394                0.12283802               -0.00132333
              16.84480756                7.19117542               97.62711741                0.72103479                0.00790122                0.00338842               -0.01348050               -0.00125960                0.10603569               -0.00300667
              17.84488941                7.18912055               97.47309871                0.72100906                0.00845411                0.00677017               -0.02058636               -0.00034137                0.07797921               -0.00516665
              18.84497664                7.18707075               97.31869475                0.72099082                0.01118464                0.01127013               -0.03291672                0.00017692                0.03992565               -0.00820806
              19.84511310                7.18501966               97.16388829                0.86050008                0.01364552                0.01632769               -0.05668975                0.00038082                0.01686350               -0.01260707
               9.84686025                8.20548342               98.70090009                0.86049812               -0.00868240               -0.01217099                0.03801584                0.00026528                0.01544718                0.00979370
              10.84677343                8.20347111               98.54617280                0.72099547               -0.00684097               -0.00832386                0.02270153               -0.00040705                0.05336806                0.00540624
              11.84672343                8.20144904               98.39214130                0.72101317               -0.00416045               -0.00509620                0.01396744               -0.00174105                0.10181940                0.00383961
              12.84669022                8.19941125               98.23840247                0.72103715               -0.00219527               -0.00298854                0.00802152               -0.00304413                0.12249163                0.00255957
              13.84667952                8.19735945               98.08484239                0.72105721                0.00054850               -0.00163284                0.00263505               -0.00389385                0.13290502                0.00127789
              14.84670119                8.19530133               97.93134527                0.72106656                0.00378373               -0.00056648               -0.00253381               -0.00403869                0.13428693               -0.00005013
              15.84675520                8.19324694               97.77779588                0.72105895                0.00653393                0.00072116               -0.00773217               -0.00341389                0.12679003               -0.00145200
              16.84683187                8.19120587               97.62407686                0.72103677                0.00801804                0.00274160               -0.01333572               -0.00212990                0.10942512               -0.00297405
              17.84691556                8.18918394               97.47006829                0.72101332                0.00868492                0.00593392               -0.02043508               -0.00057197                0.08053883               -0.00472753
              18.84700556                8.18717911               97.31566204                0.72099764                0.01141275                0.01047417               -0.03272825                0.00044971                0.04133980               -0.00715609
              19.84714381                8.18517811               97.16083783                0.86050008                0.01382515                0.01576862               -0.05617941                0.00058230                0.01770320               -0.01132422
               9.84885733                9.20536704               98.69769678                0.86049692               -0.00876460               -0.01157805                0.03722549                0.00028528                0.01656301                0.00671596
              10.84876968                9.20339256               98.54295296                0.72099668               -0.00679037               -0.00759359                0.02266049               -0.00035443                0.05648579                0.00297577
              11.84872152                9.20140233               98.38894557                0.72101606               -0.00379412               -0.00461392                0.01368589               -0.00138074                0.10749363                0.00266383
              12.84869380                9.19938426               98.23524077                0.72104467               -0.00171666               -0.00267053                0.00768289               -0.00244577                0.12908806                0.00183872
              13.84868718                9.19734459               98.08172212                0.72107091                0.00075604               -0.00146571                0.00246989               -0.00307299                0.14011241                0.00088142
              14.84870892                9.19529562               97.92826972                0.72107711                0.00356897               -0.00054438               -0.00244357               -0.00316897                0.14159909               -0.00010964
              15.84875856                9.19325258               97.77476344                0.72106657                0.00595213                0.00058156               -0.00739716               -0.00267314                0.13364872               -0.00113590
              16.84882796                9.19123025               97.62108106                0.72104532                0.00730778                0.00241095               -0.01285608               -0.00163025                0.11533739               -0.00218965
              17.84890472                9.18923922               97.46709835                0.72101587                0.00817511                0.00541201               -0.01998682               -0.00026947                0.08509161               -0.00323841
              18.84899146                9.18728023               97.31270249                0.72099553                0.01110103                0.00991565               -0.03233600                0.00063916                0.04401393               -0.00448736
              19.84912674                9.18533503               97.15786580                0.86049857                0.01352776                0.01615650               -0.05551452                0.00052151                0.01926649               -0.00751055
               9.85081491               10.20525186               98.69440527                0.93024981               -0.00838695               -0.01151751                0.03729566                0.00249651                0.01909711                0.00660035
              10.85073104               10.20331924               98.53965921                0.86050028               -0.00554004               -0.00733191                0.02287844                0.00138147                0.06153208                0.00375279
              11.85070411               10.20135676               98.38569370                0.86051341               -0.00160019               -0.00455683                0.01295618                0.00018949                0.11654961                0.00389708
              12.85069904               10.19935784               98.23204159                0.86052859                0.00012947               -0.00264220                0.00699545               -0.00080667                0.14051832                0.00259445
              13.85070670               10.19733014               98.07858771                0.86054111                0.00153895               -0.00144497                0.00221208               -0.00141819                0.15306619                0.00100737
              14.85072982               10.19529044               97.92520523                0.86054507                0.00302013               -0.00051838               -0.00214990               -0.00148845                0.15487824               -0.00064698
              15.85076710               10.19325857               97.77176737                0.86053993                0.00413964                0.00059903               -0.00654213               -0.00096359                0.14611906               -0.00230852
              16.85081261               10.19125408               97.61814538                0.86052972                0.00465444                0.00238312               -0.01154459                0.00014580                0.12586618               -0.00388036
              17.85086019               10.18929218               97.46420867                0.86050888                0.00549651                0.00529549               -0.01853097                0.00171446                0.09277135               -0.00508059
              18.85092254               10.18737743               97.30984064                0.86049817                0.00922270                0.00971953               -0.03123284                0.00356124                0.04834728               -0.00580888
              19.85104465               10.18550124               97.15500574                0.93025002                0.01221052                0.01662159               -0.05448656                0.00417267                0.02173507               -0.00730541
               9.98391864                0.20960005               99.72564394                0.93024502               -0.00343170               -0.00510082                0.01800317               -0.00050106                0.01526160                0.00273215
              10.98388432                0.20721150               99.57107983                0.86049585               -0.00282836               -0.00327653                0.01090609                0.00196502                0.03748728               -0.00611851
              11.98386207                0.20492612               99.41700059                0.86051193               -0.00301743               -0.00020439                0.00705276                0.00438546                0.06789547               -0.00420640
              12.98382397                0.20273408               99.26325069                0.86052203               -0.00303077                0.00041328                0.00432514                0.00622560                0.08429504               -0.00250339
              13.98380145                0.20059845               99.10969569                0.86052855               -0.00054861               -0.00007489                0.00161392                0.00723580                0.09239530               -0.00098428
              14.98381300                0.19848657               98.95621975                0.86053324                0.00297087               -0.00095745               -0.00111719                0.00752153                0.09427128                0.00059855
              15.98386087                0.19636490               98.80271055                0.86052596                0.00599783               -0.00168773               -0.00371200                0.00706690                0.09030400                0.00216878
              16.98393295                0.19419833               98.64905615                0.86052089                0.00717813               -0.00171093               -0.00604473                0.00569781                0.07988349                0.00365381
              17.98400443                0.19194927               98.49514358                0.86051296                0.00592186               -0.00032154               -0.00837471                0.00322705                0.06132538                0.00485402
              18.98405139                0.18958566               98.34086197                0.86049771                0.00486401                0.00270325               -0.01225235               -0.00028159                0.03383367                0.00392567
              19.98410171                0.18711549               98.18617034                0.93024705                0.00503216                0.00627251               -0.02289986               -0.00126900                0.01626577               -0.00424942
               9.98630218                1.20954905               99.72264902                0.86049314               -0.00612415               -0.00640685                0.02047424                0.00185419                0.01839093                0.00839812
              10.98624094                1.20717874               99.56804012                0.72099495               -0.00787720               -0.00444561                0.01229546                0.00695690                0.04409857               -0.00427020
              11.98614463                1.20492408               99.41398114                0.72101269               -0.00954361               -0.00089461                0.00931408                0.01309530                0.07333024               -0.00133931
              12.98605006                1.20273821               99.26020538                0.72103562               -0.00735328               -0.00000935                0.00578714                0.01608423                0.08535249               -0.00070527
              13.98599757                1.20059770               99.10660481                0.72104704               -0.00225397               -0.00029672                0.00219165                0.01794230                0.09143802               -0.00010860
              14.98600498                1.19847699               98.95307477                0.72105135                0.00390464               -0.00102963               -0.00151410                0.01861700                0.09262844                0.00050754
              15.98607566                1.19634803               98.79951001                0.72105190                0.00963823               -0.00160952               -0.00516446                0.01801695                0.08911331                0.00110189
              16.98619775                1.19418122               98.64580569                0.72103539                0.01336870               -0.00141848               -0.00864859                0.01593020                0.08050382                0.00155363
              17.98634303                1.19194605               98.49185783                0.72101361                0.01338586                0.00027913               -0.01213508                0.01184447                0.06545702                0.00140374
              18.98646547                1.18961270               98.33756269                0.72099173                0.01080813                0.00392103               -0.01645386                0.00547016                0.04122555               -0.00111940
              19.98655920                1.18717822               98.18284258                0.86049285                0.00937313                0.00756861               -0.02873712                0.00250419                0.02445810               -0.01530143
               9.98869634                2.20947192               99.71967271                0.86049085               -0.00479119               -0.01018296                0.02405042                0.00245707                0.01853634                0.00997271
              10.98864843                2.20712259               99.56494261                0.72099463               -0.00659207               -0.00617420                0.01216996                0.01010892                0.05383226               -0.00322117
              11.98856450                2.20490823               99.41090407                0.72102043               -0.00881958               -0.00275308                0.01042549                0.01980193                0.09095782               -0.00143127
              12.98847203                2.20273389               99.25712290                0.72103172               -0.00714886               -0.00122577                0.00654658                0.02395851                0.10212746               -0.00065205
              13.98842152                2.20059251               99.10350178                0.72103968               -0.00185133               -0.00093981                0.00240916                0.02679368                0.10770833                0.00006264
              14.98843501                2.19846598               98.94994448                0.72104533                0.00477333               -0.00117608               -0.00190228                0.02784420                0.10882286                0.00080225
              15.98851699                2.19633271               98.79635002                0.72104149                0.01092602               -0.00126143               -0.00614189                0.02694654                0.10552008                0.00145465
              16.98865353                2.19416996               98.64261622                0.72103408                0.01464280               -0.00050608               -0.01008628                0.02388742                0.09724710                0.00176038
              17.98880984                2.19195485               98.48863717                0.72101283                0.01375528                0.00181860               -0.01374468                0.01824536                0.08145948                0.00102232
              18.98892863                2.18966408               98.33428378                0.72099176                0.01054587                0.00624095               -0.01822539                0.00913899                0.05283664               -0.00298292
              19.98902076                2.18726686               98.17941767                0.86049279                0.00921253                0.01189624               -0.03625421                0.00376147                0.03189104               -0.01902044
               9.99104997                3.20934539               99.71665854                0.86049280               -0.00431704               -0.01348303                0.02575966                0.00246572                0.01988148                0.00774393
              10.99100680                3.20705525               99.56187319                0.72099281               -0.00603032               -0.00724909                0.01271758                0.00792078                0.05638305                0.00042296
              11.99092937                3.20486902               99.40781586                0.72101517               -0.00809261               -0.00444998                0.01075105                0.01502320                0.09484012               -0.00029130
              12.99084495                3.20271370               99.25402844                0.72103289               -0.00640038               -0.00254765                0.00679098                0.01813725                0.10652153               -0.00000577
              13.99080136                3.20057890               99.10039572                0.72104402               -0.00116425               -0.00167085                0.00241708                0.02021445                0.11198148                0.00034861
              14.99082167                3.19845347               98.94682251                0.72104190                0.00546252               -0.00129512               -0.00218047                0.02101905                0.11302928                0.00071868
              15.99091061                3.19632280               98.79320897                0.72104171                0.01158451               -0.00077031               -0.00669071                0.02030082                0.10967992                0.00095382
              16.99105336                3.19417110               98.63945227                0.72102850                0.01516014                0.00055906               -0.01083919                0.01792534                0.10115738                0.00077344
              17.99121381                3.19198243               98.48544124                0.72101270                0.01414399                0.00329437               -0.01467417                0.01364277                0.08448724               -0.00040538
              18.99133624                3.18973752               98.33103351                0.72099092                0.01075290                0.00795687               -0.01973061                0.00729142                0.05442464               -0.00398389
              19.99142887                3.18741614               98.17608557                0.86049327                0.00926351                0.01559377               -0.03941637                0.00363408                0.03254701               -0.01288781
               9.99332592                4.20920226               99.71362432                0.86049309               -0.00427068               -0.01413010                0.02612968                0.00160758                0.01997691                0.00695236
              10.99328321                4.20697761               99.55880268                0.72099412               -0.00597031               -0.00790907                0.01312093                0.00485112                0.05725732                0.00217802
              11.99320651                4.20481923               99.40472739                0.72101467               -0.00791597               -0.00510835                0.01092546                0.00927834                0.09661516                0.00101631
              12.99312489                4.20268294               99.25093015                0.72102899               -0.00602397               -0.00323621                0.00686236                0.01114657                0.10855542                0.00063407
              13.99308604                4.20055909               99.09728999                0.72103916               -0.00067013               -0.00210444                0.00235474                0.01232267                0.11412624                0.00058044
              14.99311149                4.19844007               98.94370771                0.72103976                0.00596720               -0.00136477               -0.00239669                0.01278532                0.11513868                0.00056588
              15.99320538                4.19631731               98.79008206                0.72103870                0.01204565               -0.00046419               -0.00705119                0.01237273                0.11165881                0.00041414
              16.99335241                4.19418114               98.63630817                0.72102676                0.01554488                0.00117031               -0.01131673                0.01091696                0.10283211               -0.00011730
              17.99351628                4.19202074               98.48227127                0.72101051                0.01441722                0.00403155               -0.01525745                0.00820074                0.08565277               -0.00143818
              18.99364075                4.18982322               98.32782621                0.72099231                0.01099579                0.00867628               -0.02049669                0.00423328                0.05479672               -0.00416617
              19.99373619                4.18757874               98.17283046                0.86049237                0.00954430                0.01579524               -0.04020198                0.00221647                0.03244187               -0.00960224
               9.99553142                5.20906279               99.71056771                0.86049351               -0.00445686               -0.01328987                0.02592479                0.00092348                0.02007291                0.00664178
              10.99548685                5.20689707               99.55572225                0.72099512               -0.00609110               -0.00779562                0.01317352                0.00240970                0.05768150                0.00318938
              11.99540960                5.20476685               99.40163303                0.72101347               -0.00794185               -0.00504596                0.01092537                0.00461331                0.09761274                0.00185315
              12.99532802                5.20264897               99.24782892                0.72103144               -0.00594597               -0.00326132                0.00681459                0.00538002                0.10984348                0.00114216
              13.99529068                5.20053681               99.09418534                0.72104114               -0.00044287               -0.00217497                0.00225424                0.00576006                0.11552267                0.00073697
              14.99531916                5.19842618               98.94059992                0.72104085                0.00631594               -0.00141366               -0.00255640                0.00594544                0.11652133                0.00040004
              15.99541700                5.19631351               98.78696861                0.72103456                0.01245506               -0.00046530               -0.00726334                0.00589599                0.11290626               -0.00005414
              16.99556826                5.19419450               98.63318414                0.72103047                0.01593714                0.00120483               -0.01156068                0.00541330                0.10382173               -0.00081891
              17.99573574                5.19206306               98.47912961                0.72100997                0.01473215                0.00405362               -0.01550986                0.00420216                0.08625177               -0.00215524
              18.99586290                5.18991104               98.32465923                0.72099490                0.01132131                0.00844263               -0.02069704                0.00219497                0.05496649               -0.00440441
              19.99596217                5.18773204               98.16963318                0.86049521                0.00992653                0.01453621               -0.04019134                0.00129634                0.03239858               -0.00827442
               9.99767582                6.20893646               99.70748694                0.86049317               -0.00484725               -0.01167506                0.02537545                0.00040861                0.02021352                0.00657530
              10.99762735                6.20682170               99.55262406                0.72098978               -0.00644700               -0.00697913                0.01299170                0.00051951                0.05804908                0.00371088
              11.99754688                6.20471831               99.39852638                0.72101285               -0.00824066               -0.00434262                0.01077201                0.00078239                0.09846925                0.00228669
              12.99746253                6.20261772               99.24472103                0.72102940               -0.00614216               -0.00273119                0.00667202                0.00043541                0.11097767                0.00142664
              13.99742403                6.20051559               99.09108055                0.72103581               -0.00044164               -0.00192681                0.00212805                0.00005433                0.11676819                0.00080921
              14.99745370                6.19841180               98.93749930                0.72103711                0.00654700               -0.00147608               -0.00266031                0.00002055                0.11774846                0.00023403
              15.99755497                6.19630800               98.78387012                0.72103812                0.01287135               -0.00081040               -0.00733952                0.00038797                0.11400372               -0.00043590
              16.99771113                6.19420523               98.63008299                0.72103028                0.01644026                0.00064093               -0.01160220                0.00092198                0.10467528               -0.00134012
              17.99788378                6.19210181               98.47601891                0.72100980                0.01522679                0.00333167               -0.01549696                0.00117110                0.08676137               -0.00267165
              18.99801566                6.18999207               98.32153162                0.72099524                0.01181662                0.00744288               -0.02056483                0.00077770                0.05512021               -0.00469327
              19.99812011                6.18786946               98.16648345                0.86049250                0.01044503                0.01275324               -0.03978213                0.00069688                0.03245535               -0.00793269
               9.99976912                7.20882928               99.70437549                0.86049245               -0.00537280               -0.00969006                0.02460775                0.00011854                0.02045461                0.00638437
              10.99971540                7.20675749               99.54949880                0.72099362               -0.00699469               -0.00568057                0.01268374               -0.00068475                0.05858475                0.00373053
              11.99962923                7.20468000               99.39539939                0.72101423               -0.00879773               -0.00304368                0.01049150               -0.00198030                0.09959275                0.00236500
              12.99953944                7.20259435               99.24160123                0.72103339               -0.00657730               -0.00173420                0.00643927               -0.00346251                0.11237981                0.00152848
              13.99949768                7.20049827               99.08797328                0.72104135               -0.00061377               -0.00144258                0.00197939               -0.00457470                0.11826613                0.00080586
              14.99952717                7.19839666               98.93440626                0.72104219                0.00668210               -0.00156991               -0.00270465               -0.00478636                0.11921770                0.00007223
              15.99963133                7.19629730               98.78078945                0.72103998                0.01328615               -0.00146146               -0.00727792               -0.00400716                0.11533533               -0.00074088
              16.99979289                7.19420732               98.62700949                0.72102717                0.01704996               -0.00047127               -0.01145037               -0.00248592                0.10575266               -0.00171131
              17.99997232                7.19212969               98.47294467                0.72101693                0.01589603                0.00194375               -0.01526859               -0.00085031                0.08746585               -0.00297909
              19.00011081                7.19005990               98.31844732                0.72099549                0.01245042                0.00593871               -0.02023041                0.00005172                0.05540327               -0.00483131
              20.00022133                7.18798711               98.16338128                0.86049252                0.01105241                0.01085073               -0.03917054                0.00045493                0.03267906               -0.00786207
              10.00182178                8.20874266               99.70122202                0.86049288               -0.00588400               -0.00790535                0.02376617                0.00010833                0.02090600                0.00567217
              11.00176294                8.20670808               99.54633382                0.72099378               -0.00756844               -0.00416209                0.01233301               -0.00103839                0.05959269                0.00307546
              12.00167041                8.20465744               99.39224198                0.72101353               -0.00939679               -0.00138473                0.01007293               -0.00327590                0.10146080                0.00215895
              13.00157500                8.20258303               99.23846283                0.72103540               -0.00700866               -0.00052515                0.00608959               -0.00561881                0.11454353                0.00147743
              14.00153024                8.20048674               99.08486047                0.72104083               -0.00080304               -0.00087857                0.00179364               -0.00716636                0.12053770                0.00073915
              15.00155894                8.19838040               98.93132167                0.72104560                0.00669651               -0.00167313               -0.00267781               -0.00746364                0.12147612               -0.00006589
              16.00166417                8.19627877               98.77773122                0.72104091                0.01350397               -0.00222904               -0.00704462               -0.00646056                0.11741034               -0.00093124
              17.00182902                8.19419581               98.62397145                0.72103185                0.01750139               -0.00185002               -0.01106579               -0.00432015                0.10750306               -0.00187748
              18.00201419                8.19214069               98.46991701                0.72101422                0.01651285                0.00018453               -0.01481504               -0.00166874                0.08873902               -0.00297034
              19.00215928                8.19011085               98.31541738                0.72099602                0.01302976                0.00427802               -0.01976515                0.00011049                0.05605677               -0.00445101
              20.00227479                8.18808648               98.16033632                0.86049268                0.01155115                0.00955196               -0.03853334                0.00058005                0.03322805               -0.00731870
              10.00384044                9.20867118               99.69801002                0.86049450               -0.00605879               -0.00688184                0.02297626                0.00018428                0.02164273                0.00378028
              11.00377985                9.20667425               99.54311235                0.72099813               -0.00758368               -0.00291641                0.01199900               -0.00082830                0.06155863                0.00172865
              12.00368876                9.20465230               99.38904174                0.72101944               -0.00910465               -0.00020422                0.00941531               -0.00253201                0.10480752                0.00163542
              13.00359776                9.20258385               99.23529644                0.72103955               -0.00658895                0.00024969                0.00550831               -0.00451156                0.11834062                0.00116288
              14.00355699                9.20048070               99.08173802                0.72104928               -0.00059465               -0.00052815                0.00152337               -0.00569322                0.12478377                0.00053217
              15.00358586                9.19836319               98.92824721                0.72105454                0.00648607               -0.00171086               -0.00255061               -0.00590337                0.12579307               -0.00011403
              16.00368671                9.19625272               98.77470300                0.72105545                0.01293520               -0.00267746               -0.00653303               -0.00514326                0.12140795               -0.00079836
              17.00384457                9.19417032               98.62098186                0.72103855                0.01686012               -0.00275796               -0.01028105               -0.00343729                0.11082420               -0.00153842
              18.00402391                9.19213338               98.46695287                0.72101763                0.01613308               -0.00106587               -0.01398940               -0.00114529                0.09127972               -0.00226138
              19.00416723                9.19014546               98.31246264                0.72099547                0.01288849                0.00304005               -0.01908428                0.00042451                0.05755599               -0.00299323
              20.00428168                9.18817815               98.15737064                0.86049178                0.01144494                0.00945816               -0.03790147                0.00056259                0.03429355               -0.00504513
              10.00581932               10.20860502               99.69471813                0.93024575               -0.00540753               -0.00661549                0.02291085                0.00236195                0.02292309                0.00505565
              11.00576525               10.20664976               99.53981892                0.86049734               -0.00545773               -0.00244909                0.01172583                0.00095624                0.06455219                0.00381646
              12.00571017               10.20465335               99.38577890                0.86051079               -0.00544393                0.00010502                0.00788493               -0.00094616                0.11137987                0.00471815
              13.00565637               10.20258803               99.23208815                0.86052118               -0.00365705                0.00041772                0.00439645               -0.00299737                0.12774683                0.00286028
              14.00563703               10.20047618               99.07860016                0.86052913                0.00062422               -0.00045235                0.00109440               -0.00408785                0.13566137                0.00106979
              15.00566885               10.19834618               98.92518580                0.86053208                0.00585735               -0.00170080               -0.00225326               -0.00424897                0.13699259               -0.00077909
              16.00575417               10.19622522               98.77171666                0.86052837                0.01053820               -0.00275025               -0.00550209               -0.00353001                0.13194430               -0.00266010
              17.00587962               10.19414065               98.61806176                0.86052071                0.01309872               -0.00296698               -0.00857309               -0.00178762                0.11961300               -0.00456007
              18.00601615               10.19211937               98.46408142                0.86051412                0.01216918               -0.00140117               -0.01191191                0.00077395                0.09718759               -0.00637107
              19.00612300               10.19017165               98.30961482                0.86049801                0.01022567                0.00261909               -0.01759142                0.00339063                0.06042578               -0.00661850
              20.00622066               10.18827564               98.15452302                0.93024769                0.00976609                0.00974909               -0.03687287                0.00429726                0.03598010               -0.00767226
              10.13871873                0.21261100              100.72575388                1.00000000               -0.01073652               -0.00047631                0.01099402                0.00501695                0.01973944                0.00393407
              11.13861136                0.21018123              100.57115118                1.00000000               -0.01657018                0.00227790                0.00713530                0.01080269                0.03796832               -0.00525048
              12.13838732                0.20788931              100.41705916                1.00000000               -0.02115254                0.00712785                0.00585677                0.01688212                0.05944823               -0.00269216
              13.13818831                0.20574518              100.26328964                1.00000000               -0.01544020                0.00479109                0.00389420                0.02217593                0.06895001               -0.00170394
              14.13807852                0.20367549              100.10970948                1.00000000               -0.00545926                0.00170603                0.00137846                0.02429938                0.07353259               -0.00065201
              15.13807913                0.20163933               99.95620616                1.00000000                0.00574651               -0.00191248               -0.00135966                0.02509570                0.07470222                0.00043519
              16.13819345                0.19959528               99.80267126                1.00000000                0.01633872               -0.00533865               -0.00392853                0.02460592                0.07279326                0.00150423
              17.13840590                0.19750100               99.64899686                1.00000000                0.02432306               -0.00785112               -0.00592875                0.02269053                0.06733230                0.00250376
              18.13867991                0.19531002               99.49507202                1.00000000                0.02687251               -0.00857829               -0.00715635                0.01823782                0.05680267                0.00343438
              19.13894335                0.19295872               99.34078196                1.00000000                0.02028000               -0.00401517               -0.00800124                0.01201331                0.03695247                0.00312368
              20.13908551                0.19043659               99.18602715                1.00000000                0.01421607                0.00027522               -0.01431889                0.00932137                0.02289900               -0.00606352
              10.14119867                1.21260624              100.72278227                1.00000000               -0.01184363               -0.00321252                0.01332534                0.01167589                0.02431710                0.00981765
              11.14108023                1.21020401              100.56812895                1.00000000               -0.02122496               -0.00062215                0.00888284                0.02167804                0.04826844               -0.00359380
              12.14077417                1.20796059              100.41406904                1.00000000               -0.02816245                0.00446697                0.00879050                0.03185652                0.06958133                0.00102803
              13.14051698                1.20579309              100.26026150                1.00000000               -0.01998656                0.00353137                0.00561206                0.03731377                0.07453576                0.00042533
              14.14037444                1.20369255              100.10662592                1.00000000               -0.00734007                0.00108098                0.00211111                0.04101396                0.07749969                0.00030637
              15.14037018                1.20162020               99.95305775                1.00000000                0.00671159               -0.00199005               -0.00170230                0.04243898                0.07802040                0.00017181
              16.14050867                1.19954190               99.79945593                1.00000000                0.02026270               -0.00486996               -0.00540833                0.04199061                0.07637489                0.00003822
              17.14077544                1.19742249               99.64571922                1.00000000                0.03123791               -0.00670810               -0.00864653                0.03956158                0.07225322               -0.00013790
              18.14113343                1.19522424               99.49174561                1.00000000                0.03623813               -0.00635223               -0.01122179                0.03537221                0.06508535               -0.00066979
              19.14150020                1.19291857               99.33744014                1.00000000                0.02837128               -0.00141908               -0.01225506                0.02774297                0.04846369               -0.00145157
              20.14170086                1.19043934               99.18264542                1.00000000                0.02006556                0.00352176               -0.01971615                0.02262480                0.03469353               -0.01762016
              10.14375671                2.21254675              100.71983584                1.00000000               -0.00661368               -0.00919271                0.01631322                0.01136183                0.02532866                0.01023485
              11.14369057                2.21016879              100.56502876                1.00000000               -0.01606666               -0.00431053                0.00861497                0.02284218                0.06275664               -0.00352467
              12.14343537                2.20797865              100.41100669                1.00000000               -0.02439687               -0.00047403                0.01026186                0.03522540                0.09506938               -0.00020501
              13.14320263                2.20581581              100.25718839                1.00000000               -0.01818435                0.00077013                0.00654918                0.04046676                0.09902078               -0.00001916
              14.14307169                2.20369711              100.10352590                1.00000000               -0.00620401               -0.00027501                0.00241252                0.04489669                0.10175598                0.00017173
              15.14307855                2.20159952               99.94992318                1.00000000                0.00796432               -0.00210157               -0.00213005                0.04682486                0.10227347                0.00036390
              16.14323097                2.19949789               99.79628428                1.00000000                0.02181192               -0.00376690               -0.00657412                0.04635511                0.10081785                0.00054276
              17.14351479                2.19736684               99.64251156                1.00000000                0.03301516               -0.00431681               -0.01046631                0.04363193                0.09702496                0.00062780
              18.14389128                2.19518298               99.48850226                1.00000000                0.03841578               -0.00261180               -0.01349171                0.03918704                0.08962486                0.00028413
              19.14428311                2.19293034               99.33414119                1.00000000                0.03025919                0.00174168               -0.01425978                0.02952779                0.06795934               -0.00150316
              20.14449646                2.19050702               99.17915250                1.00000000                0.02133535                0.00940590               -0.02651684                0.02224966                0.04870125               -0.01842950
              10.14618184                3.21242239              100.71683730                1.00000000               -0.00766612               -0.01265882                0.01787577                0.00639271                0.02606289                0.00611286
              11.14610518                3.21011780              100.56196606                1.00000000               -0.01750887               -0.00542032                0.00928726                0.01266621                0.06417720               -0.00019853
              12.14583166                3.20795111              100.40792409                1.00000000               -0.02486543               -0.00323187                0.01082299                0.01953560                0.09679108               -0.00021039
              13.14560787                3.20580849              100.25409729                1.00000000               -0.01715031               -0.00152653                0.00688513                0.02216423                0.10109525                0.00008338
              14.14548866                3.20368705              100.10042016                1.00000000               -0.00509842               -0.00145661                0.00244386                0.02470748                0.10376129                0.00021689
              15.14550590                3.20157817               99.94679793                1.00000000                0.00899026               -0.00216324               -0.00245815                0.02608879                0.10423706                0.00034000
              16.14566846                3.19946656               99.79313643                1.00000000                0.02285424               -0.00275269               -0.00725380                0.02592935                0.10278935                0.00041321
              17.14596299                3.19733615               99.63933802                1.00000000                0.03426058               -0.00239921               -0.01142574                0.02429953                0.09889357                0.00032303
              18.14635367                3.19517200               99.48529505                1.00000000                0.04018617               -0.00046846               -0.01461904                0.02113389                0.09096362               -0.00022960
              19.14676671                3.19295340               99.33087757                1.00000000                0.03194025                0.00307938               -0.01559423                0.01446184                0.06812013               -0.00230761
              20.14699248                3.19062746               99.17579651                1.00000000                0.02257681                0.01186981               -0.02890608                0.00989943                0.04825387               -0.00955180
              10.14849374                4.21229358              100.71380410                1.00000000               -0.00785676               -0.01239108                0.01797817                0.00370230                0.02634123                0.00447579
              11.14841517                4.21006038              100.55889970                1.00000000               -0.01791717               -0.00578277                0.00970218                0.00774188                0.06490471                0.00094221
              12.14813539                4.20791402              100.40483828                1.00000000               -0.02525923               -0.00371612                0.01108929                0.01239050                0.09792675                0.00047859
              13.14790999                4.20578528              100.25100047                1.00000000               -0.01696169               -0.00244295                0.00703249                0.01358919                0.10229235                0.00031518
              14.14779616                4.20366797              100.09731395                1.00000000               -0.00445851               -0.00204625                0.00239630                0.01472404                0.10501786                0.00029573
              15.14782081                4.20155626               99.94368058                1.00000000                0.00977087               -0.00221766               -0.00271293                0.01549426                0.10548579                0.00027083
              16.14799158                4.19944283               99.79000502                1.00000000                0.02372628               -0.00227572               -0.00770377                0.01563549                0.10398588                0.00018400
              17.14829534                4.19731885               99.63618790                1.00000000                0.03525648               -0.00156087               -0.01202662                0.01494231                0.09996817               -0.00007630
              18.14869671                4.19517361               99.48211851                1.00000000                0.04107738                0.00038857               -0.01527578                0.01301870                0.09181103               -0.00075119
              19.14911689                4.19299192               99.32766326                1.00000000                0.03248138                0.00411229               -0.01629468                0.00856386                0.06862936               -0.00225366
              20.14934633                4.19074442               99.17253882                1.00000000                0.02294465                0.01129753               -0.02916399                0.00565616                0.04857031               -0.00606547
              10.15072228                5.21217457              100.71074417                1.00000000               -0.00827002               -0.01092618                0.01764637                0.00223438                0.02660391                0.00382607
              11.15063958                5.21000214              100.55581936                1.00000000               -0.01838492               -0.00533220                0.00971047                0.00404722                0.06526798                0.00145147
              12.15035458                5.20787679              100.40174409                1.00000000               -0.02569398               -0.00330940                0.01110577                0.00615085                0.09847629                0.00086270
              13.15012570                5.20575963              100.24789893                1.00000000               -0.01712130               -0.00227604                0.00700130                0.00622067                0.10297936                0.00051659
              14.15001215                5.20364612              100.09420832                1.00000000               -0.00423846               -0.00206565                0.00229783                0.00631263                0.10574914                0.00034240
              15.15004093                5.20153382               99.94057097                1.00000000                0.01032121               -0.00228175               -0.00289420                0.00663286                0.10621399                0.00019787
              16.15021858                5.19942105               99.78688906                1.00000000                0.02450646               -0.00234418               -0.00795462                0.00709381                0.10466177               -0.00000626
              17.15053106                5.19730494               99.63306106                1.00000000                0.03611997               -0.00164573               -0.01230776                0.00737775                0.10054087               -0.00036805
              18.15094098                5.19517977               99.47897429                1.00000000                0.04180587                0.00032167               -0.01553202                0.00691587                0.09222496               -0.00104288
              19.15136717                5.19303565               99.32449509                1.00000000                0.03298180                0.00399176               -0.01641395                0.00478745                0.06890405               -0.00221530
              20.15160061                5.19085341               99.16934383                1.00000000                0.02334374                0.01001945               -0.02893499                0.00343244                0.04871806               -0.00482126
              10.15288327                6.21207505              100.70765706                1.00000000               -0.00893783               -0.00857497                0.01701202                0.00124830                0.02689696                0.00351810
              11.15279389                6.20995374              100.55271858                1.00000000               -0.01911730               -0.00391337                0.00945233                0.00122158                0.06558403                0.00169813
              12.15250092                6.20784783              100.39863565                1.00000000               -0.02644107               -0.00204201                0.01092759                0.00086686                0.09894977                0.00101405
              13.15226507                6.20573975              100.24478949                1.00000000               -0.01763459               -0.00134158                0.00684575               -0.00040336                0.10357988                0.00060604
              14.15214823                6.20362666              100.09110218                1.00000000               -0.00432605               -0.00163385                0.00216280               -0.00129268                0.10640812                0.00035295
              15.15217855                6.20151062               99.93746926                1.00000000                0.01070522               -0.00238937               -0.00300403               -0.00131417                0.10686733                0.00012685
              16.15236233                6.19939595               99.78378983                1.00000000                0.02528103               -0.00294034               -0.00802933               -0.00041992                0.10525663               -0.00015069
              17.15268417                6.19728594               99.62995967                1.00000000                0.03709895               -0.00261003               -0.01233148                0.00102160                0.10102388               -0.00056215
              18.15310431                6.19518004               99.47586423                1.00000000                0.04274172               -0.00084556               -0.01546856                0.00228708                0.09255700               -0.00122501
              19.15353900                6.19307176               99.32136975                1.00000000                0.03375729                0.00263530               -0.01618685                0.00228476                0.06910629               -0.00227898
              20.15377946                6.19094481               99.16619967                1.00000000                0.02404572                0.00780671               -0.02837767                0.00221184                0.04892713               -0.00441289
              10.15498987                7.21200307              100.70453734                1.00000000               -0.00986416               -0.00563597                0.01618541                0.00065545                0.02726425                0.00329602
              11.15489123                7.20992388              100.54958924                1.00000000               -0.02019883               -0.00173365                0.00904393               -0.00078443                0.06598305                0.00168299
              12.15458590                7.20783595              100.39550533                1.00000000               -0.02762176                0.00010188                0.01059407               -0.00341773                0.09955363                0.00095058
              13.15433880                7.20573280              100.24166697                1.00000000               -0.01852351                0.00029169                0.00657408               -0.00624890                0.10433142                0.00058394
              14.15421543                7.20361344              100.08799324                1.00000000               -0.00467209               -0.00085785                0.00199622               -0.00817818                0.10721886                0.00032118
              15.15424536                7.20148603               99.93437586                1.00000000                0.01097174               -0.00257810               -0.00304046               -0.00848966                0.10766447                0.00006013
              16.15443486                7.19936224               99.78071015                1.00000000                0.02610201               -0.00405925               -0.00793012               -0.00710015                0.10598090               -0.00024872
              17.15476740                7.19725273               99.62688840                1.00000000                0.03830168               -0.00449971               -0.01210861               -0.00437053                0.10160985               -0.00066493
              18.15520090                7.19516286               99.47279333                1.00000000                0.04403525               -0.00318536               -0.01513384               -0.00121454                0.09294410               -0.00129464
              19.15564810                7.19308835               99.31829014                1.00000000                0.03489278                0.00015056               -0.01571739                0.00075348                0.06930657               -0.00230531
              20.15589875                7.19100954               99.16310488                1.00000000                0.02506506                0.00487853               -0.02763993                0.00167116                0.04921574               -0.00438215
              10.15705476                8.21196233              100.70137542                1.00000000               -0.01094383               -0.00282678                0.01533997                0.00045534                0.02770241                0.00291569
              11.15694532                8.20991906              100.54641947                1.00000000               -0.02155564                0.00090774                0.00856401               -0.00172850                0.06660477                0.00128313
              12.15662364                8.20784987              100.39234276                1.00000000               -0.02913602                0.00310829                0.01007762               -0.00628972                0.10056331                0.00067023
              13.15636260                8.20574559              100.23852427                1.00000000               -0.01961015                0.00246958                0.00614376               -0.01074135                0.10553479                0.00045389
              14.15623144                8.20360950              100.08487826                1.00000000               -0.00513189                0.00010510                0.00177946               -0.01349327                0.10849275                0.00024307
              15.15625996                8.20145906               99.93129172                1.00000000                0.01110929               -0.00284106               -0.00299519               -0.01401516                0.10893781                0.00000857
              16.15645363                8.19931476               99.77765499                1.00000000                0.02680875               -0.00555340               -0.00762327               -0.01229542                0.10713728               -0.00026947
              17.15679613                8.19719595               99.62385554                1.00000000                0.03953899               -0.00717797               -0.01159034               -0.00856259                0.10256136               -0.00063439
              18.15724441                8.19511633               99.46977199                1.00000000                0.04556287               -0.00666385               -0.01450224               -0.00362670                0.09358047               -0.00117430
              19.15770739                8.19307477               99.31526673                1.00000000                0.03630484               -0.00327122               -0.01506501                0.00013779                0.06956985               -0.00207464
              20.15797050                8.19104238               99.16006716                1.00000000                0.02631107                0.00189434               -0.02691585                0.00165321                0.04961405               -0.00426543
              10.15908552                9.21194653              100.69815631                1.00000000               -0.01163896               -0.00127886                0.01462859                0.00040170                0.02817142                0.00193909
              11.15896913                9.20994203              100.54319294                1.00000000               -0.02259706                0.00316780                0.00805881               -0.00162081                0.06780647                0.00049149
              12.15863358                9.20789812              100.38913387                1.00000000               -0.03023988                0.00634682                0.00921332               -0.00604998                0.10238134                0.00001369
              13.15836433                9.20578219              100.23535093                1.00000000               -0.02007458                0.00430133                0.00544967               -0.01062232                0.10759322                0.00009740
              14.15823209                9.20361555              100.08175259                1.00000000               -0.00522706                0.00088748                0.00145697               -0.01310724                0.11089897                0.00005072
              15.15825979                9.20142921               99.92821871                1.00000000                0.01099917               -0.00306947               -0.00285000               -0.01355822                0.11140248                0.00002415
              16.15845207                9.19925117               99.77463278                1.00000000                0.02673909               -0.00683560               -0.00702232               -0.01218116                0.10937312               -0.00003820
              17.15879457                9.19710918               99.62087544                1.00000000                0.03987324               -0.00964280               -0.01064172               -0.00888061                0.10428952               -0.00019578
              18.15924954                9.19502959               99.46681856                1.00000000                0.04651185               -0.01043397               -0.01343144               -0.00398854                0.09483081               -0.00045760
              19.15972481                9.19302293               99.31232081                1.00000000                0.03735322               -0.00670406               -0.01418319               -0.00000408                0.07021867               -0.00114903
              20.15999660                9.19104743               99.15710777                1.00000000                0.02717894                0.00003366               -0.02628746                0.00131790                0.05018838               -0.00301608
              10.16107179               10.21193676              100.69486349                1.00000000               -0.01104717               -0.00097730                0.01453635                0.00319293                0.02826975                0.00389211
              11.16096132               10.20998242              100.53989373                1.00000000               -0.02046529                0.00403891                0.00748034                0.00122064                0.06900215                0.00334526
              12.16066248               10.20797680              100.38585140                1.00000000               -0.02642975                0.00786867                0.00724998               -0.00465013                0.10702111                0.00409781
              13.16043272               10.20583162              100.23212952                1.00000000               -0.01701005                0.00494220                0.00413718               -0.01063884                0.11554480                0.00221787
              14.16032228               10.20362725              100.07860960                1.00000000               -0.00397757                0.00117070                0.00094377               -0.01267789                0.12005751                0.00080821
              15.16035317               10.20139767               99.92516017                1.00000000                0.01038768               -0.00315343               -0.00256323               -0.01312242                0.12081827               -0.00070523
              16.16053003               10.19917805               99.77165733                1.00000000                0.02434689               -0.00731197               -0.00593290               -0.01193296                0.11827336               -0.00226193
              17.16084011               10.19700309               99.61797392                1.00000000                0.03604238               -0.01060861               -0.00878403               -0.00896660                0.11170395               -0.00390865
              18.16125088               10.19490765               99.46397043                1.00000000                0.04246793               -0.01219317               -0.01109930               -0.00298546                0.09921815               -0.00598429
              19.16168947               10.19294069               99.30948882                1.00000000                0.03484877               -0.00822382               -0.01260059                0.00323531                0.07153873               -0.00629514
              20.16194786               10.19104305               99.15426828                1.00000000                0.02583916               -0.00043776               -0.02547384                0.00536182                0.05066581               -0.00720778
         1          2         13         12        122        123        134        133  
         2          3         14         13        123        124        135        134  
         3          4         15         14        124        125        136        135  
         4          5         16         15        125        126        137        136  
         5          6         17         16        126        127        138        137  
         6          7         18         17        127        128        139        138  
         7          8         19         18        128        129        140        139  
         8          9         20         19        129        130        141        140  
         9         10         21         20        130        131        142        141  
        10         11         22         21        131        132        143        142  
        12         13         24         23        133        134        145        144  
        13         14         25         24        134        135        146        145  
        14         15         26         25        135        136        147        146  
        15         16         27         26        136        137        148        147  
        16         17         28         27        137        138        149        148  
        17         18         29         28        138        139        150        149  
        18         19         30         29        139        140        151        150  
        19         20         31         30        140        141        152        151  
        20         21         32         31        141        142        153        152  
        21         22         33         32        142        143        154        153  
        23         24         35         34        144        145        156        155  
        24         25         36         35        145        146        157        156  
        25         26         37         36        146        147        158        157  
        26         27         38         37        147        148        159        158  
        27         28         39         38        148        149        160        159  
        28         29         40         39        149        150        161        160  
        29         30         41         40        150        151        162        161  
        30         31         42         41        151        152        163        162  
        31         32         43         42        152        153        164        163  
        32         33         44         43        153        154        165        164  
        34         35         46         45        155        156        167        166  
        35         36         47         46        156        157        168        167  
        36         37         48         47        157        158        169        168  
        37         38         49         48        158        159        170        169  
        38         39         50         49        159        160        171        170  
        39         40         51         50        160        161        172        171  
        40         41         52         51        161        162        173        172  
        41         42         53         52        162        163        174        173  
        42         43         54         53        163        164        175        174  
        43         44         55         54        164        165        176        175  
        45         46         57         56        166        167        178        177  
        46         47         58         57        167        168        179        178  
        47         48         59         58        168        169        180        179  
        48         49         60         59        169        170        181        180  
        49         50         61         60        170        171        182        181  
        50         51         62         61        171        172        183        182  
        51         52         63         62        172        173        184        183  
        52         53         64         63        173        174        185        184  
        53         54         65         64        174        175        186        185  
        54         55         66         65        175        176        187        186  
        56         57         68         67        177        178        189        188  
        57         58         69         68        178        179        190        189  
        58         59         70         69        179        180        191        190  
        59         60         71         70        180        181        192        191  
        60         61         72         71        181        182        193        192  
        61         62         73         72        182        183        194        193  
        62         63         74         73        183        184        195        194  
        63         64         75         74        184        185        196        195  
        64         65         76         75        185        186        197        196  
        65         66         77         76        186        187        198        197  
        67         68         79         78        188        189        200        199  
        68         69         80         79        189        190        201        200  
        69         70         81         80        190        191        202        201  
        70         71         82         81        191        192        203        202  
        71         72         83         82        192        193        204        203  
        72         73         84         83        193        194        205        204  
        73         74         85         84        194        195        206        205  
        74         75         86         85        195        196        207        206  
        75         76         87         86        196        197        208        207  
        76         77         88         87        197        198        209        208  
        78         79         90         89        199        200        211        210  
        79         80         91         90        200        201        212        211  
        80         81         92         91        201        202        213        212  
        81         82         93         92        202        203        214        213  
        82         83         94         93        203        204        215        214  
        83         84         95         94        204        205        216        215  
        84         85         96         95        205        206        217        216  
        85         86         97         96        206        207        218        217  
        86         87         98         97        207        208        219        218  
        87         88         99         98        208        209        220        219  
        89         90        101        100        210        211        222        221  
        90         91        102        101        211        212        223        222  
        91         92        103        102        212        213        224        223  
        92         93        104        103        213        214        225        224  
        93         94        105        104        214        215        226        225  
        94         95        106        105        215        216        227        226  
        95         96        107        106        216        217        228        227  
        96         97        108        107        217        218        229        228  
        97         98        109        108        218        219        230        229  
        98         99        110        109        219        220        231        230  
       100        101        112        111        221        222        233        232  
       101        102        113        112        222        223        234        233  
       102        103        114        113        223        224        235        234  
       103        104        115        114        224        225        236        235  
       104        105        116        115        225        226        237        236  
       105        106        117        116        226        227        238        237  
       106        107        118        117        227        228        239        238  
       107        108        119        118        228        229        240        239  
       108        109        120        119        229        230        241        240  
       109        110        121        120        230        231        242        241  
       122        123        134        133        243        244        255        254  
       123        124        135        134        244        245        256        255  
       124        125        136        135        245        246        257        256  
       125        126        137        136        246        247        258        257  
       126        127        138        137        247        248        259        258  
       127        128        139        138        248        249        260        259  
       128        129        140        139        249        250        261        260  
       129        130        141        140        250        251        262        261  
       130        131        142        141        251        252        263        262  
       131        132        143        142        252        253        264        263  
       133        134        145        144        254        255        266        265  
       134        135        146        145        255        256        267        266  
       135        136        147        146        256        257        268        267  
       136        137        148        147        257        258        269        268  
       137        138        149        148        258        259        270        269  
       138        139        150        149        259        260        271        270  
       139        140        151        150        260        261        272        271  
       140        141        152        151        261        262        273        272  
       141        142        153        152        262        263        274        273  
       142        143        154        153        263        264        275        274  
       144        145        156        155        265        266        277        276  
       145        146        157        156        266        267        278        277  
       146        147        158        157        267        268        279        278  
       147        148        159        158        268        269        280        279  
       148        149        160        159        269        270        281        280  
       149        150        161        160        270        271        282        281  
       150        151        162        161        271        272        283        282  
       151        152        163        162        272        273        284        283  
       152        153        164        163        273        274        285        284  
       153        154        165        164        274        275        286        285  
       155        156        167        166        276        277        288        287  
       156        157        168        167        277        278        289        288  
       157        158        169        168        278        279        290        289  
       158        159        170        169        279        280        291        290  
       159        160        171        170        280        281        292        291  
       160        161        172        171        281        282        293        292  
       161        162        173        172        282        283        294        293  
       162        163        174        173        283        284        295        294  
       163        164        175        174        284        285        296        295  
       164        165        176        175        285        286        297        296  
       166        167        178        177        287        288        299        298  
       167        168        179        178        288        289        300        299  
       168        169        180        179        289        290        301        300  
       169        170        181        180        290        291        302        301  
       170        171        182        181        291        292        303        302  
       171        172        183        182        292        293        304        303  
       172        173        184        183        293        294        305        304  
       173        174        185        184        294        295        306        305  
       174        175        186        185        295        296        307        306  
       175        176        187        186        296        297        308        307  
       177        178        189        188        298        299        310        309  
       178        179        190        189        299        300        311        310  
       179        180        191        190        300        301        312        311  
       180        181        192        191        301        302        313        312  
       181        182        193        192        302        303        314        313  
       182        183        194        193        303        304        315        314  
       183        184        195        194        304        305        316        315  
       184        185        196        195        305        306        317        316  
       185        186        197        196        306        307        318        317  
       186        187        198        197        307        308        319        318  
       188        189        200        199        309        310        321        320  
       189        190        201        200        310        311        322        321  
       190        191        202        201        311        312        323        322  
       191        192        203        202        312        313        324        323  
       192        193        204        203        313        314        325        324  
       193        194        205        204        314        315        326        325  
       194        195        206        205        315        316        327        326  
       195        196        207        206        316        317        328        327  
       196        197        208        207        317        318        329        328  
       197        198        209        208        318        319        330        329  
       199        200        211        210        320        321        332        331  
       200        201        212        211        321        322        333        332  
       201        202        213        212        322        323        334        333  
       202        203        214        213        323        324        335        334  
       203        204        215        214        324        325        336        335  
       204        205        216        215        325        326        337        336  
       205        206        217        216        326        327        338        337  
       206        207        218        217        327        328        339        338  
       207        208        219        218        328        329        340        339  
       208        209        220        219        329        330        341        340  
       210        211        222        221        331        332        343        342  
       211        212        223        222        332        333        344        343  
       212        213        224        223        333        334        345        344  
       213        214        225        224        334        335        346        345  
       214        215        226        225        335        336        347        346  
       215        216        227        226        336        337        348        347  
       216        217        228        227        337        338        349        348  
       217        218        229        228        338        339        350        349  
       218        219        230        229        339        340        351        350  
       219        220        231        230        340        341        352        351  
       221        222        233        232        342        343        354        353  
       222        223        234        233        343        344        355        354  
       223        224        235        234        344        345        356        355  
       224        225        236        235        345        346        357        356  
       225        226        237        236        346        347        358        357  
       226        227        238        237        347        348        359        358  
       227        228        239        238        348        349        360        359  
       228        229        240        239        349        350        361        360  
       229        230        241        240        350        351        362        361  
       230        231        242        241        351        352        363        362  
       243        244        255        254        364        365        376        375  
       244        245        256        255        365        366        377        376  
       245        246        257        256        366        367        378        377  
       246        247        258        257        367        368        379        378  
       247        248        259        258        368        369        380        379  
       248        249        260        259        369        370        381        380  
       249        250        261        260        370        371        382        381  
       250        251        262        261        371        372        383        382  
       251        252        263        262        372        373        384        383  
       252        253        264        263        373        374        385        384  
       254        255        266        265        375        376        387        386  
       255        256        267        266        376        377        388        387  
       256        257        268        267        377        378        389        388  
       257        258        269        268        378        379        390        389  
       258        259        270        269        379        380        391        390  
       259        260        271        270        380        381        392        391  
       260        261        272        271        381        382        393        392  
       261        262        273        272        382        383        394        393  
       262        263        274        273        383        384        395        394  
       263        264        275        274        384        385        396        395  
       265        266        277        276        386        387        398        397  
       266        267        278        277        387        388        399        398  
       267        268        279        278        388        389        400        399  
       268        269        280        279        389        390        401        400  
       269        270        281        280        390        391        402        401  
       270        271        282        281        391        392        403        402  
       271        272        283        282        392        393        404        403  
       272        273        284        283        393        394        405        404  
       273        274        285        284        394        395        406        405  
       274        275        286        285        395        396        407        406  
       276        277        288        287        397        398        409        408  
       277        278        289        288        398        399        410        409  
       278        279        290        289        399        400        411        410  
       279        280        291        290        400        401        412        411  
       280        281        292        291        401        402        413        412  
       281        282        293        292        402        403        414        413  
       282        283        294        293        403        404        415        414  
       283        284        295        294        404        405        416        415  
       284        285        296        295        405        406        417        416  
       285        286        297        296        406        407        418        417  
       287        288        299        298        408        409        420        419  
       288        289        300        299        409        410        421        420  
       289        290        301        300        410        411        422        421  
       290        291        302        301        411        412        423        422  
       291        292        303        302        412        413        424        423  
       292        293        304        303        413        414        425        424  
       293        294        305        304        414        415        426        425  
       294        295        306        305        415        416        427        426  
       295        296        307        306        416        417        428        427  
       296        297        308        307        417        418        429        428  
       298        299        310        309        419        420        431        430  
       299        300        311        310        420        421        432        431  
       300        301        312        311        421        422        433        432  
       301        302        313        312        422        423        434        433  
       302        303        314        313        423        424        435        434  
       303        304        315        314        424        425        436        435  
       304        305        316        315        425        426        437        436  
       305        306        317        316        426        427        438        437  
       306        307        318        317        427        428        439        438  
       307        308        319        318        428        429        440        439  
       309        310        321        320        430        431        442        441  
       310        311        322        321        431        432        443        442  
       311        312        323        322        432        433        444        443  
       312        313        324        323        433        434        445        444  
       313        314        325        324        434        435        446        445  
       314        315        326        325        435        436        447        446  
       315        316        327        326        436        437        448        447  
       316        317        328        327        437        438        449        448  
       317        318        329        328        438        439        450        449  
       318        319        330        329        439        440        451        450  
       320        321        332        331        441        442        453        452  
       321        322        333        332        442        443        454        453  
       322        323        334        333        443        444        455        454  
       323        324        335        334        444        445        456        455  
       324        325        336        335        445        446        457        456  
       325        326        337        336        446        447        458        457  
       326        327        338        337        447        448        459        458  
       327        328        339        338        448        449        460        459  
       328        329        340        339        449        450        461        460  
       329        330        341        340        450        451        462        461  
       331        332        343        342        452        453        464        463  
       332        333        344        343        453        454        465        464  
       333        334        345        344        454        455        466        465  
       334        335        346        345        455        456        467        466  
       335        336        347        346        456        457        468        467  
       336        337        348        347        457        458        469        468  
       337        338        349        348        458        459        470        469  
       338        339        350        349        459        460        471        470  
       339        340        351        350        460        461        472        471  
       340        341        352        351        461        462        473        472  
       342        343        354        353        463        464        475        474  
       343        344        355        354        464        465        476        475  
       344        345        356        355        465        466        477        476  
       345        346        357        356        466        467        478        477  
       346        347        358        357        467        468        479        478  
       347        348        359        358        468        469        480        479  
       348        349        360        359        469        470        481        480  
       349        350        361        360        470        471        482        481  
       350        351        362        361        471        472        483        482  
       351        352        363        362        472        473        484        483  
       364        365        376        375        485        486        497        496  
       365        366        377        376        486        487        498        497  
       366        367        378        377        487        488        499        498  
       367        368        379        378        488        489        500        499  
       368        369        380        379        489        490        501        500  
       369        370        381        380        490        491        502        501  
       370        371        382        381        491        492        503        502  
       371        372        383        382        492        493        504        503  
       372        373        384        383        493        494        505        504  
       373        374        385        384        494        495        506        505  
       375        376        387        386        496        497        508        507  
       376        377        388        387        497        498        509        508  
       377        378        389        388        498        499        510        509  
       378        379        390        389        499        500        511        510  
       379        380        391        390        500        501        512        511  
       380        381        392        391        501        502        513        512  
       381        382        393        392        502        503        514        513  
       382        383        394        393        503        504        515        514  
       383        384        395        394        504        505        516        515  
       384        385        396        395        505        506        517        516  
       386        387        398        397        507        508        519        518  
       387        388        399        398        508        509        520        519  
       388        389        400        399        509        510        521        520  
       389        390        401        400        510        511        522        521  
       390        391        402        401        511        512        523        522  
       391        392        403        402        512        513        524        523  
       392        393        404        403        513        514        525        524  
       393        394        405        404        514        515        526        525  
       394        395        406        405        515        516        527        526  
       395        396        407        406        516        517        528        527  
       397        398        409        408        518        519        530        529  
       398        399        410        409        519        520        531        530  
       399        400        411        410        520        521        532        531  
       400        401        412        411        521        522        533        532  
       401        402        413        412        522        523        534        533  
       402        403        414        413        523        524        535        534  
       403        404        415        414        524        525        536        535  
       404        405        416        415        525        526        537        536  
       405        406        417        416        526        527        538        537  
       406        407        418        417        527        528        539        538  
       408        409        420        419        529        530        541        540  
       409        410        421        420        530        531        542        541  
       410        411        422        421        531        532        543        542  
       411        412        423        422        532        533        544        543  
       412        413        424        423        533        534        545        544  
       413        414        425        424        534        535        546        545  
       414        415        426        425        535        536        547        546  
       415        416        427        426        536        537        548        547  
       416        417        428        427        537        538        549        548  
       417        418        429        428        538        539        550        549  
       419        420        431        430        540        541        552        551  
       420        421        432        431        541        542        553        552  
       421        422        433        432        542        543        554        553  
       422        423        434        433        543        544        555        554  
       423        424        435        434        544        545        556        555  
       424        425        436        435        545        546        557        556  
       425        426        437        436        546        547        558        557  
       426        427        438        437        547        548        559        558  
       427        428        439        438        548        549        560        559  
       428        429        440        439        549        550        561        560  
       430        431        442        441        551        552        563        562  
       431        432        443        442        552        553        564        563  
       432        433        444        443        553        554        565        564  
       433        434        445        444        554        555        566        565  
       434        435        446        445        555        556        567        566  
       435        436        447        446        556        557        568        567  
       436        437        448        447        557        558        569        568  
       437        438        449        448        558        559        570        569  
       438        439        450        449        559        560        571        570  
       439        440        451        450        560        561        572        571  
       441        442        453        452        562        563        574        573  
       442        443        454        453        563        564        575        574  
       443        444        455        454        564        565        576        575  
       444        445        456        455        565        566        577        576  
       445        446        457        456        566        567        578        577  
       446        447        458        457        567        568        579        578  
       447        448        459        458        568        569        580        579  
       448        449        460        459        569        570        581        580  
       449        450        461        460        570        571        582        581  
       450        451        462        461        571        572        583        582  
       452        453        464        463        573        574        585        584  
       453        454        465        464        574        575        586        585  
       454        455        466        465        575        576        587        586  
       455        456        467        466        576        577        588        587  
       456        457        468        467        577        578        589        588  
       457        458        469        468        578        579        590        589  
       458        459        470        469        579        580        591        590  
       459        460        471        470        580        581        592        591  
       460        461        472        471        581        582        593        592  
       461        462        473        472        582        583        594        593  
       463        464        475        474        584        585        596        595  
       464        465        476        475        585        586        597        596  
       465        466        477        476        586        587        598        597  
       466        467        478        477        587        588        599        598  
       467        468        479        478        588        589        600        599  
       468        469        480        479        589        590        601        600  
       469        470        481        480        590        591        602        601  
       470        471        482        481        591        592        603        602  
       471        472        483        482        592        593        604        603  
       472        473        484        483        593        594        605        604  
       485        486        497        496        606        607        618        617  
       486        487        498        497        607        608        619        618  
       487        488        499        498        608        609        620        619  
       488        489        500        499        609        610        621        620  
       489        490        501        500        610        611        622        621  
       490        491        502        501        611        612        623        622  
       491        492        503        502        612        613        624        623  
       492        493        504        503        613        614        625        624  
       493        494        505        504        614        615        626        625  
       494        495        506        505        615        616        627        626  
       496        497        508        507        617        618        629        628  
       497        498        509        508        618        619        630        629  
       498        499        510        509        619        620        631        630  
       499        500        511        510        620        621        632        631  
       500        501        512        511        621        622        633        632  
       501        502        513        512        622        623        634        633  
       502        503        514        513        623        624        635        634  
       503        504        515        514        624        625        636        635  
       504        505        516        515        625        626        637        636  
       505        506        517        516        626        627        638        637  
       507        508        519        518        628        629        640        639  
       508        509        520        519        629        630        641        640  
       509        510        521        520        630        631        642        641  
       510        511        522        521        631        632        643        642  
       511        512        523        522        632        633        644        643  
       512        513        524        523        633        634        645        644  
       513        514        525        524        634        635        646        645  
       514        515        526        525        635        636        647        646  
       515        516        527        526        636        637        648        647  
       516        517        528        527        637        638        649        648  
       518        519        530        529        639        640        651        650  
       519        520        531        530        640        641        652        651  
       520        521        532        531        641        642        653        652  
       521        522        533        532        642        643        654        653  
       522        523        534        533        643        644        655        654  
       523        524        535        534        644        645        656        655  
       524        525        536        535        645        646        657        656  
       525        526        537        536        646        647        658        657  
       526        527        538        537        647        648        659        658  
       527        528        539        538        648        649        660        659  
       529        530        541        540        650        651        662        661  
       530        531        542        541        651        652        663        662  
       531        532        543        542        652        653        664        663  
       532        533        544        543        653        654        665        664  
       533        534        545        544        654        655        666        665  
       534        535        546        545        655        656        667        666  
       535        536        547        546        656        657        668        667  
       536        537        548        547        657        658        669        668  
       537        538        549        548        658        659        670        669  
       538        539        550        549        659        660        671        670  
       540        541        552        551        661        662        673        672  
       541        542        553        552        662        663        674        673  
       542        543        554        553        663        664        675        674  
       543        544        555        554        664        665        676        675  
       544        545        556        555        665        666        677        676  
       545        546        557        556        666        667        678        677  
       546        547        558        557        667        668        679        678  
       547        548        559        558        668        669        680        679  
       548        549        560        559        669        670        681        680  
       549        550        561        560        670        671        682        681  
       551        552        563        562        672        673        684        683  
       552        553        564        563        673        674        685        684  
       553        554        565        564        674        675        686        685  
       554        555        566        565        675        676        687        686  
       555        556        567        566        676        677        688        687  
       556        557        568        567        677        678        689        688  
       557        558        569        568        678        679        690        689  
       558        559        570        569        679        680        691        690  
       559        560        571        570        680        681        692        691  
       560        561        572        571        681        682        693        692  
       562        563        574        573        683        684        695        694  
       563        564        575        574        684        685        696        695  
       564        565        576        575        685        686        697        696  
       565        566        577        576        686        687        698        697  
       566        567        578        577        687        688        699        698  
       567        568        579        578        688        689        700        699  
       568        569        580        579        689        690        701        700  
       569        570        581        580        690        691        702        701  
       570        571        582        581        691        692        703        702  
       571        572        583        582        692        693        704        703  
       573        574        585        584        694        695        706        705  
       574        575        586        585        695        696        707        706  
       575        576        587        586        696        697        708        707  
       576        577        588        587        697        698        709        708  
       577        578        589        588        698        699        710        709  
       578        579        590        589        699        700        711        710  
       579        580        591        590        700        701        712        711  
       580        581        592        591        701        702        713        712  
       581        582        593        592        702        703        714        713  
       582        583        594        593        703        704        715        714  
       584        585        596        595        705        706        717        716  
       585        586        597        596        706        707        718        717  
       586        587        598        597        707        708        719        718  
       587        588        599        598        708        709        720        719  
       588        589        600        599        709        710        721        720  
       589        590        601        600        710        711        722        721  
       590        591        602        601        711        712        723        722  
       591        592        603        602        712        713        724        723  
       592        593        604        603        713        714        725        724  
       593        594        605        604        714        715        726        725  
       606        607        618        617        727        728        739        738  
       607        608        619        618        728        729        740        739  
       608        609        620        619        729        730        741        740  
       609        610        621        620        730        731        742        741  
       610        611        622        621        731        732        743        742  
       611        612        623        622        732        733        744        743  
       612        613        624        623        733        734        745        744  
       613        614        625        624        734        735        746        745  
       614        615        626        625        735        736        747        746  
       615        616        627        626        736        737        748        747  
       617        618        629        628        738        739        750        749  
       618        619        630        629        739        740        751        750  
       619        620        631        630        740        741        752        751  
       620        621        632        631        741        742        753        752  
       621        622        633        632        742        743        754        753  
       622        623        634        633        743        744        755        754  
       623        624        635        634        744        745        756        755  
       624        625        636        635        745        746        757        756  
       625        626        637        636        746        747        758        757  
       626        627        638        637        747        748        759        758  
       628        629        640        639        749        750        761        760  
       629        630        641        640        750        751        762        761  
       630        631        642        641        751        752        763        762  
       631        632        643        642        752        753        764        763  
       632        633        644        643        753        754        765        764  
       633        634        645        644        754        755        766        765  
       634        635        646        645        755        756        767        766  
       635        636        647        646        756        757        768        767  
       636        637        648        647        757        758        769        768  
       637        638        649        648        758        759        770        769  
       639        640        651        650        760        761        772        771  
       640        641        652        651        761        762        773        772  
       641        642        653        652        762        763        774        773  
       642        643        654        653        763        764        775        774  
       643        644        655        654        764        765        776        775  
       644        645        656        655        765        766        777        776  
       645        646        657        656        766        767        778        777  
       646        647        658        657        767        768        779        778  
       647        648        659        658        768        769        780        779  
       648        649        660        659        769        770        781        780  
       650        651        662        661        771        772        783        782  
       651        652        663        662        772        773        784        783  
       652        653        664        663        773        774        785        784  
       653        654        665        664        774        775        786        785  
       654        655        666        665        775        776        787        786  
       655        656        667        666        776        777        788        787  
       656        657        668        667        777        778        789        788  
       657        658        669        668        778        779        790        789  
       658        659        670        669        779        780        791        790  
       659        660        671        670        780        781        792        791  
       661        662        673        672        782        783        794        793  
       662        663        674        673        783        784        795        794  
       663        664        675        674        784        785        796        795  
       664        665        676        675        785        786        797        796  
       665        666        677        676        786        787        798        797  
       666        667        678        677        787        788        799        798  
       667        668        679        678        788        789        800        799  
       668        669        680        679        789        790        801        800  
       669        670        681        680        790        791        802        801  
       670        671        682        681        791        792        803        802  
       672        673        684        683        793        794        805        804  
       673        674        685        684        794        795        806        805  
       674        675        686        685        795        796        807        806  
       675        676        687        686        796        797        808        807  
       676        677        688        687        797        798        809        808  
       677        678        689        688        798        799        810        809  
       678        679        690        689        799        800        811        810  
       679        680        691        690        800        801        812        811  
       680        681        692        691        801        802        813        812  
       681        682        693        692        802        803        814        813  
       683        684        695        694        804        805        816        815  
       684        685        696        695        805        806        817        816  
       685        686        697        696        806        807        818        817  
       686        687        698        697        807        808        819        818  
       687        688        699        698        808        809        820        819  
       688        689        700        699        809        810        821        820  
       689        690        701        700        810        811        822        821  
       690        691        702        701        811        812        823        822  
       691        692        703        702        812        813        824        823  
       692        693        704        703        813        814        825        824  
       694        695        706        705        815        816        827        826  
       695        696        707        706        816        817        828        827  
       696        697        708        707        817        818        829        828  
       697        698        709        708        818        819        830        829  
       698        699        710        709        819        820        831        830  
       699        700        711        710        820        821        832        831  
       700        701        712        711        821        822        833        832  
       701        702        713        712        822        823        834        833  
       702        703        714        713        823        824        835        834  
       703        704        715        714        824        825        836        835  
       705        706        717        716        826        827        838        837  
       706        707        718        717        827        828        839        838  
       707        708        719        718        828        829        840        839  
       708        709        720        719        829        830        841        840  
       709        710        721        720        830        831        842        841  
       710        711        722        721        831        832        843        842  
       711        712        723        722        832        833        844        843  
       712        713        724        723        833        834        845        844  
       713        714        725        724        834        835        846        845  
       714        715        726        725        835        836        847        846  
       727        728        739        738        848        849        860        859  
       728        729        740        739        849        850        861        860  
       729        730        741        740        850        851        862        861  
       730        731        742        741        851        852        863        862  
       731        732        743        742        852        853        864        863  
       732        733        744        743        853        854        865        864  
       733        734        745        744        854        855        866        865  
       734        735        746        745        855        856        867        866  
       735        736        747        746        856        857        868        867  
       736        737        748        747        857        858        869        868  
       738        739        750        749        859        860        871        870  
       739        740        751        750        860        861        872        871  
       740        741        752        751        861        862        873        872  
       741        742        753        752        862        863        874        873  
       742        743        754        753        863        864        875        874  
       743        744        755        754        864        865        876        875  
       744        745        756        755        865        866        877        876  
       745        746        757        756        866        867        878        877  
       746        747        758        757        867        868        879        878  
       747        748        759        758        868        869        880        879  
       749        750        761        760        870        871        882        881  
       750        751        762        761        871        872        883        882  
       751        752        763        762        872        873        884        883  
       752        753        764        763        873        874        885        884  
       753        754        765        764        874        875        886        885  
       754        755        766        765        875        876        887        886  
       755        756        767        766        876        877        888        887  
       756        757        768        767        877        878        889        888  
       757        758        769        768        878        879        890        889  
       758        759        770        769        879        880        891        890  
       760        761        772        771        881        882        893        892  
       761        762        773        772        882        883        894        893  
       762        763        774        773        883        884        895        894  
       763        764        775        774        884        885        896        895  
       764        765        776        775        885        886        897        896  
       765        766        777        776        886        887        898        897  
       766        767        778        777        887        888        899        898  
       767        768        779        778        888        889        900        899  
       768        769        780        779        889        890        901        900  
       769        770        781        780        890        891        902        901  
       771        772        783        782        892        893        904        903  
       772        773        784        783        893        894        905        904  
       773        774        785        784        894        895        906        905  
       774        775        786        785        895        896        907        906  
       775        776        787        786        896        897        908        907  
       776        777        788        787        897        898        909        908  
       777        778        789        788        898        899        910        909  
       778        779        790        789        899        900        911        910  
       779        780        791        790        900        901        912        911  
       780        781        792        791        901        902        913        912  
       782        783        794        793        903        904        915        914  
       783        784        795        794        904        905        916        915  
       784        785        796        795        905        906        917        916  
       785        786        797        796        906        907        918        917  
       786        787        798        797        907        908        919        918  
       787        788        799        798        908        909        920        919  
       788        789        800        799        909        910        921        920  
       789        790        801        800        910        911        922        921  
       790        791        802        801        911        912        923        922  
       791        792        803        802        912        913        924        923  
       793        794        805        804        914        915        926        925  
       794        795        806        805        915        916        927        926  
       795        796        807        806        916        917        928        927  
       796        797        808        807        917        918        929        928  
       797        798        809        808        918        919        930        929  
       798        799        810        809        919        920        931        930  
       799        800        811        810        920        921        932        931  
       800        801        812        811        921        922        933        932  
       801        802        813        812        922        923        934        933  
       802        803        814        813        923        924        935        934  
       804        805        816        815        925        926        937        936  
       805        806        817        816        926        927        938        937  
       806        807        818        817        927        928        939        938  
       807        808        819        818        928        929        940        939  
       808        809        820        819        929        930        941        940  
       809        810        821        820        930        931        942        941  
       810        811        822        821        931        932        943        942  
       811        812        823        822        932        933        944        943  
       812        813        824        823        933        934        945        944  
       813        814        825        824        934        935        946        945  
       815        816        827        826        936        937        948        947  
       816        817        828        827        937        938        949        948  
       817        818        829        828        938        939        950        949  
       818        819        830        829        939        940        951        950  
       819        820        831        830        940        941        952        951  
       820        821        832        831        941        942        953        952  
       821        822        833        832        942        943        954        953  
       822        823        834        833        943        944        955        954  
       823        824        835        834        944        945        956        955  
       824        825        836        835        945        946        957        956  
       826        827        838        837        947        948        959        958  
       827        828        839        838        948        949        960        959  
       828        829        840        839        949        950        961        960  
       829        830        841        840        950        951        962        961  
       830        831        842        841        951        952        963        962  
       831        832        843        842        952        953        964        963  
       832        833        844        843        953        954        965        964  
       833        834        845        844        954        955        966        965  
       834        835        846        845        955        956        967        966  
       835        836        847        846        956        957        968        967  
       848        849        860        859        969        970        981        980  
       849        850        861        860        970        971        982        981  
       850        851        862        861        971        972        983        982  
       851        852        863        862        972        973        984        983  
       852        853        864        863        973        974        985        984  
       853        854        865        864        974        975        986        985  
       854        855        866        865        975        976        987        986  
       855        856        867        866        976        977        988        987  
       856        857        868        867        977        978        989        988  
       857        858        869        868        978        979        990        989  
       859        860        871        870        980        981        992        991  
       860        861        872        871        981        982        993        992  
       861        862        873        872        982        983        994        993  
       862        863        874        873        983        984        995        994  
       863        864        875        874        984        985        996        995  
       864        865        876        875        985        986        997        996  
       865        866        877        876        986        987        998        997  
       866        867        878        877        987        988        999        998  
       867        868        879        878        988        989       1000        999  
       868        869        880        879        989        990       1001       1000  
       870        871        882        881        991        992       1003       1002  
       871        872        883        882        992        993       1004       1003  
       872        873        884        883        993        994       1005       1004  
       873        874        885        884        994        995       1006       1005  
       874        875        886        885        995        996       1007       1006  
       875        876        887        886        996        997       1008       1007  
       876        877        888        887        997        998       1009       1008  
       877        878        889        888        998        999       1010       1009  
       878        879        890        889        999       1000       1011       1010  
       879        880        891        890       1000       1001       1012       1011  
       881        882        893        892       1002       1003       1014       1013  
       882        883        894        893       1003       1004       1015       1014  
       883        884        895        894       1004       1005       1016       1015  
       884        885        896        895       1005       1006       1017       1016  
       885        886        897        896       1006       1007       1018       1017  
       886        887        898        897       1007       1008       1019       1018  
       887        888        899        898       1008       1009       1020       1019  
       888        889        900        899       1009       1010       1021       1020  
       889        890        901        900       1010       1011       1022       1021  
       890        891        902        901       1011       1012       1023       1022  
       892        893        904        903       1013       1014       1025       1024  
       893        894        905        904       1014       1015       1026       1025  
       894        895        906        905       1015       1016       1027       1026  
       895        896        907        906       1016       1017       1028       1027  
       896        897        908        907       1017       1018       1029       1028  
       897        898        909        908       1018       1019       1030       1029  
       898        899        910        909       1019       1020       1031       1030  
       899        900        911        910       1020       1021       1032       1031  
       900        901        912        911       1021       1022       1033       1032  
       901        902        913        912       1022       1023       1034       1033  
       903        904        915        914       1024       1025       1036       1035  
       904        905        916        915       1025       1026       1037       1036  
       905        906        917        916       1026       1027       1038       1037  
       906        907        918        917       1027       1028       1039       1038  
       907        908        919        918       1028       1029       1040       1039  
       908        909        920        919       1029       1030       1041       1040  
       909        910        921        920       1030       1031       1042       1041  
       910        911        922        921       1031       1032       1043       1042  
       911        912        923        922       1032       1033       1044       1043  
       912        913        924        923       1033       1034       1045       1044  
       914        915        926        925       1035       1036       1047       1046  
       915        916        927        926       1036       1037       1048       1047  
       916        917        928        927       1037       1038       1049       1048  
       917        918        929        928       1038       1039       1050       1049  
       918        919        930        929       1039       1040       1051       1050  
       919        920        931        930       1040       1041       1052       1051  
       920        921        932        931       1041       1042       1053       1052  
       921        922        933        932       1042       1043       1054       1053  
       922        923        934        933       1043       1044       1055       1054  
       923        924        935        934       1044       1045       1056       1055  
       925        926        937        936       1046       1047       1058       1057  
       926        927        938        937       1047       1048       1059       1058  
       927        928        939        938       1048       1049       1060       1059  
       928        929        940        939       1049       1050       1061       1060  
       929        930        941        940       1050       1051       1062       1061  
       930        931        942        941       1051       1052       1063       1062  
       931        932        943        942       1052       1053       1064       1063  
       932        933        944        943       1053       1054       1065       1064  
       933        934        945        944       1054       1055       1066       1065  
       934        935        946        945       1055       1056       1067       1066  
       936        937        948        947       1057       1058       1069       1068  
       937        938        949        948       1058       1059       1070       1069  
       938        939        950        949       1059       1060       1071       1070  
       939        940        951        950       1060       1061       1072       1071  
       940        941        952        951       1061       1062       1073       1072  
       941        942        953        952       1062       1063       1074       1073  
       942        943        954        953       1063       1064       1075       1074  
       943        944        955        954       1064       1065       1076       1075  
       944        945        956        955       1065       1066       1077       1076  
       945        946        957        956       1066       1067       1078       1077  
       947        948        959        958       1068       1069       1080       1079  
       948        949        960        959       1069       1070       1081       1080  
       949        950        961        960       1070       1071       1082       1081  
       950        951        962        961       1071       1072       1083       1082  
       951        952        963        962       1072       1073       1084       1083  
       952        953        964        963       1073       1074       1085       1084  
       953        954        965        964       1074       1075       1086       1085  
       954        955        966        965       1075       1076       1087       1086  
       955        956        967        966       1076       1077       1088       1087  
       956        957        968        967       1077       1078       1089       1088  
       969        970        981        980       1090       1091       1102       1101  
       970        971        982        981       1091       1092       1103       1102  
       971        972        983        982       1092       1093       1104       1103  
       972        973        984        983       1093       1094       1105       1104  
       973        974        985        984       1094       1095       1106       1105  
       974        975        986        985       1095       1096       1107       1106  
       975        976        987        986       1096       1097       1108       1107  
       976        977        988        987       1097       1098       1109       1108  
       977        978        989        988       1098       1099       1110       1109  
       978        979        990        989       1099       1100       1111       1110  
       980        981        992        991       1101       1102       1113       1112  
       981        982        993        992       1102       1103       1114       1113  
       982        983        994        993       1103       1104       1115       1114  
       983        984        995        994       1104       1105       1116       1115  
       984        985        996        995       1105       1106       1117       1116  
       985        986        997        996       1106       1107       1118       1117  
       986        987        998        997       1107       1108       1119       1118  
       987        988        999        998       1108       1109       1120       1119  
       988        989       1000        999       1109       1110       1121       1120  
       989        990       1001       1000       1110       1111       1122       1121  
       991        992       1003       1002       1112       1113       1124       1123  
       992        993       1004       1003       1113       1114       1125       1124  
       993        994       1005       1004       1114       1115       1126       1125  
       994        995       1006       1005       1115       1116       1127       1126  
       995        996       1007       1006       1116       1117       1128       1127  
       996        997       1008       1007       1117       1118       1129       1128  
       997        998       1009       1008       1118       1119       1130       1129  
       998        999       1010       1009       1119       1120       1131       1130  
       999       1000       1011       1010       1120       1121       1132       1131  
      1000       1001       1012       1011       1121       1122       1133       1132  
      1002       1003       1014       1013       1123       1124       1135       1134  
      1003       1004       1015       1014       1124       1125       1136       1135  
      1004       1005       1016       1015       1125       1126       1137       1136  
      1005       1006       1017       1016       1126       1127       1138       1137  
      1006       1007       1018       1017       1127       1128       1139       1138  
      1007       1008       1019       1018       1128       1129       1140       1139  
      1008       1009       1020       1019       1129       1130       1141       1140  
      1009       1010       1021       1020       1130       1131       1142       1141  
      1010       1011       1022       1021       1131       1132       1143       1142  
      1011       1012       1023       1022       1132       1133       1144       1143  
      1013       1014       1025       1024       1134       1135       1146       1145  
      1014       1015       1026       1025       1135       1136       1147       1146  
      1015       1016       1027       1026       1136       1137       1148       1147  
      1016       1017       1028       1027       1137       1138       1149       1148  
      1017       1018       1029       1028       1138       1139       1150       1149  
      1018       1019       1030       1029       1139       1140       1151       1150  
      1019       1020       1031       1030       1140       1141       1152       1151  
      1020       1021       1032       1031       1141       1142       1153       1152  
      1021       1022       1033       1032       1142       1143       1154       1153  
      1022       1023       1034       1033       1143       1144       1155       1154  
      1024       1025       1036       1035       1145       1146       1157       1156  
      1025       1026       1037       1036       1146       1147       1158       1157  
      1026       1027       1038       1037       1147       1148       1159       1158  
      1027       1028       1039       1038       1148       1149       1160       1159  
      1028       1029       1040       1039       1149       1150       1161       1160  
      1029       1030       1041       1040       1150       1151       1162       1161  
      1030       1031       1042       1041       1151       1152       1163       1162  
      1031       1032       1043       1042       1152       1153       1164       1163  
      1032       1033       1044       1043       1153       1154       1165       1164  
      1033       1034       1045       1044       1154       1155       1166       1165  
      1035       1036       1047       1046       1156       1157       1168       1167  
      1036       1037       1048       1047       1157       1158       1169       1168  
      1037       1038       1049       1048       1158       1159       1170       1169  
      1038       1039       1050       1049       1159       1160       1171       1170  
      1039       1040       1051       1050       1160       1161       1172       1171  
      1040       1041       1052       1051       1161       1162       1173       1172  
      1041       1042       1053       1052       1162       1163       1174       1173  
      1042       1043       1054       1053       1163       1164       1175       1174  
      1043       1044       1055       1054       1164       1165       1176       1175  
      1044       1045       1056       1055       1165       1166       1177       1176  
      1046       1047       1058       1057       1167       1168       1179       1178  
      1047       1048       1059       1058       1168       1169       1180       1179  
      1048       1049       1060       1059       1169       1170       1181       1180  
      1049       1050       1061       1060       1170       1171       1182       1181  
      1050       1051       1062       1061       1171       1172       1183       1182  
      1051       1052       1063       1062       1172       1173       1184       1183  
      1052       1053       1064       1063       1173       1174       1185       1184  
      1053       1054       1065       1064       1174       1175       1186       1185  
      1054       1055       1066       1065       1175       1176       1187       1186  
      1055       1056       1067       1066       1176       1177       1188       1187  
      1057       1058       1069       1068       1178       1179       1190       1189  
      1058       1059       1070       1069       1179       1180       1191       1190  
      1059       1060       1071       1070       1180       1181       1192       1191  
      1060       1061       1072       1071       1181       1182       1193       1192  
      1061       1062       1073       1072       1182       1183       1194       1193  
      1062       1063       1074       1073       1183       1184       1195       1194  
      1063       1064       1075       1074       1184       1185       1196       1195  
      1064       1065       1076       1075       1185       1186       1197       1196  
      1065       1066       1077       1076       1186       1187       1198       1197  
      1066       1067       1078       1077       1187       1188       1199       1198  
      1068       1069       1080       1079       1189       1190       1201       1200  
      1069       1070       1081       1080       1190       1191       1202       1201  
      1070       1071       1082       1081       1191       1192       1203       1202  
      1071       1072       1083       1082       1192       1193       1204       1203  
      1072       1073       1084       1083       1193       1194       1205       1204  
      1073       1074       1085       1084       1194       1195       1206       1205  
      1074       1075       1086       1085       1195       1196       1207       1206  
      1075       1076       1087       1086       1196       1197       1208       1207  
      1076       1077       1088       1087       1197       1198       1209       1208  
      1077       1078       1089       1088       1198       1199       1210       1209  
      1090       1091       1102       1101       1211       1212       1223       1222  
      1091       1092       1103       1102       1212       1213       1224       1223  
      1092       1093       1104       1103       1213       1214       1225       1224  
      1093       1094       1105       1104       1214       1215       1226       1225  
      1094       1095       1106       1105       1215       1216       1227       1226  
      1095       1096       1107       1106       1216       1217       1228       1227  
      1096       1097       1108       1107       1217       1218       1229       1228  
      1097       1098       1109       1108       1218       1219       1230       1229  
      1098       1099       1110       1109       1219       1220       1231       1230  
      1099       1100       1111       1110       1220       1221       1232       1231  
      1101       1102       1113       1112       1222       1223       1234       1233  
      1102       1103       1114       1113       1223       1224       1235       1234  
      1103       1104       1115       1114       1224       1225       1236       1235  
      1104       1105       1116       1115       1225       1226       1237       1236  
      1105       1106       1117       1116       1226       1227       1238       1237  
      1106       1107       1118       1117       1227       1228       1239       1238  
      1107       1108       1119       1118       1228       1229       1240       1239  
      1108       1109       1120       1119       1229       1230       1241       1240  
      1109       1110       1121       1120       1230       1231       1242       1241  
      1110       1111       1122       1121       1231       1232       1243       1242  
      1112       1113       1124       1123       1233       1234       1245       1244  
      1113       1114       1125       1124       1234       1235       1246       1245  
      1114       1115       1126       1125       1235       1236       1247       1246  
      1115       1116       1127       1126       1236       1237       1248       1247  
      1116       1117       1128       1127       1237       1238       1249       1248  
      1117       1118       1129       1128       1238       1239       1250       1249  
      1118       1119       1130       1129       1239       1240       1251       1250  
      1119       1120       1131       1130       1240       1241       1252       1251  
      1120       1121       1132       1131       1241       1242       1253       1252  
      1121       1122       1133       1132       1242       1243       1254       1253  
      1123       1124       1135       1134       1244       1245       1256       1255  
      1124       1125       1136       1135       1245       1246       1257       1256  
      1125       1126       1137       1136       1246       1247       1258       1257  
      1126       1127       1138       1137       1247       1248       1259       1258  
      1127       1128       1139       1138       1248       1249       1260       1259  
      1128       1129       1140       1139       1249       1250       1261       1260  
      1129       1130       1141       1140       1250       1251       1262       1261  
      1130       1131       1142       1141       1251       1252       1263       1262  
      1131       1132       1143       1142       1252       1253       1264       1263  
      1132       1133       1144       1143       1253       1254       1265       1264  
      1134       1135       1146       1145       1255       1256       1267       1266  
      1135       1136       1147       1146       1256       1257       1268       1267  
      1136       1137       1148       1147       1257       1258       1269       1268  
      1137       1138       1149       1148       1258       1259       1270       1269  
      1138       1139       1150       1149       1259       1260       1271       1270  
      1139       1140       1151       1150       1260       1261       1272       1271  
      1140       1141       1152       1151       1261       1262       1273       1272  
      1141       1142       1153       1152       1262       1263       1274       1273  
      1142       1143       1154       1153       1263       1264       1275       1274  
      1143       1144       1155       1154       1264       1265       1276       1275  
      1145       1146       1157       1156       1266       1267       1278       1277  
      1146       1147       1158       1157       1267       1268       1279       1278  
      1147       1148       1159       1158       1268       1269       1280       1279  
      1148       1149       1160       1159       1269       1270       1281       1280  
      1149       1150       1161       1160       1270       1271       1282       1281  
      1150       1151       1162       1161       1271       1272       1283       1282  
      1151       1152       1163       1162       1272       1273       1284       1283  
      1152       1153       1164       1163       1273       1274       1285       1284  
      1153       1154       1165       1164       1274       1275       1286       1285  
      1154       1155       1166       1165       1275       1276       1287       1286  
      1156       1157       1168       1167       1277       1278       1289       1288  
      1157       1158       1169       1168       1278       1279       1290       1289  
      1158       1159       1170       1169       1279       1280       1291       1290  
      1159       1160       1171       1170       1280       1281       1292       1291  
      1160       1161       1172       1171       1281       1282       1293       1292  
      1161       1162       1173       1172       1282       1283       1294       1293  
      1162       1163       1174       1173       1283       1284       1295       1294  
      1163       1164       1175       1174       1284       1285       1296       1295  
      1164       1165       1176       1175       1285       1286       1297       1296  
      1165       1166       1177       1176       1286       1287       1298       1297  
      1167       1168       1179       1178       1288       1289       1300       1299  
      1168       1169       1180       1179       1289       1290       1301       1300  
      1169       1170       1181       1180       1290       1291       1302       1301  
      1170       1171       1182       1181       1291       1292       1303       1302  
      1171       1172       1183       1182       1292       1293       1304       1303  
      1172       1173       1184       1183       1293       1294       1305       1304  
      1173       1174       1185       1184       1294       1295       1306       1305  
      1174       1175       1186       1185       1295       1296       1307       1306  
      1175       1176       1187       1186       1296       1297       1308       1307  
      1176       1177       1188       1187       1297       1298       1309       1308  
      1178       1179       1190       1189       1299       1300       1311       1310  
      1179       1180       1191       1190       1300       1301       1312       1311  
      1180       1181       1192       1191       1301       1302       1313       1312  
      1181       1182       1193       1192       1302       1303       1314       1313  
      1182       1183       1194       1193       1303       1304       1315       1314  
      1183       1184       1195       1194       1304       1305       1316       1315  
      1184       1185       1196       1195       1305       1306       1317       1316  
      1185       1186       1197       1196       1306       1307       1318       1317  
      1186       1187       1198       1197       1307       1308       1319       1318  
      1187       1188       1199       1198       1308       1309       1320       1319  
      1189       1190       1201       1200       1310       1311       1322       1321  
      1190       1191       1202       1201       1311       1312       1323       1322  
      1191       1192       1203       1202       1312       1313       1324       1323  
      1192       1193       1204       1203       1313       1314       1325       1324  
      1193       1194       1205       1204       1314       1315       1326       1325  
      1194       1195       1206       1205       1315       1316       1327       1326  
      1195       1196       1207       1206       1316       1317       1328       1327  
      1196       1197       1208       1207       1317       1318       1329       1328  
      1197       1198       1209       1208       1318       1319       1330       1329  
      1198       1199       1210       1209       1319       1320       1331       1330  
      1211       1212       1223       1222       1332       1333       1344       1343  
      1212       1213       1224       1223       1333       1334       1345       1344  
      1213       1214       1225       1224       1334       1335       1346       1345  
      1214       1215       1226       1225       1335       1336       1347       1346  
      1215       1216       1227       1226       1336       1337       1348       1347  
      1216       1217       1228       1227       1337       1338       1349       1348  
      1217       1218       1229       1228       1338       1339       1350       1349  
      1218       1219       1230       1229       1339       1340       1351       1350  
      1219       1220       1231       1230       1340       1341       1352       1351  
      1220       1221       1232       1231       1341       1342       1353       1352  
      1222       1223       1234       1233       1343       1344       1355       1354  
      1223       1224       1235       1234       1344       1345       1356       1355  
      1224       1225       1236       1235       1345       1346       1357       1356  
      1225       1226       1237       1236       1346       1347       1358       1357  
      1226       1227       1238       1237       1347       1348       1359       1358  
      1227       1228       1239       1238       1348       1349       1360       1359  
      1228       1229       1240       1239       1349       1350       1361       1360  
      1229       1230       1241       1240       1350       1351       1362       1361  
      1230       1231       1242       1241       1351       1352       1363       1362  
      1231       1232       1243       1242       1352       1353       1364       1363  
      1233       1234       1245       1244       1354       1355       1366       1365  
      1234       1235       1246       1245       1355       1356       1367       1366  
      1235       1236       1247       1246       1356       1357       1368       1367  
      1236       1237       1248       1247       1357       1358       1369       1368  
      1237       1238       1249       1248       1358       1359       1370       1369  
      1238       1239       1250       1249       1359       1360       1371       1370  
      1239       1240       1251       1250       1360       1361       1372       1371  
      1240       1241       1252       1251       1361       1362       1373       1372  
      1241       1242       1253       1252       1362       1363       1374       1373  
      1242       1243       1254       1253       1363       1364       1375       1374  
      1244       1245       1256       1255       1365       1366       1377       1376  
      1245       1246       1257       1256       1366       1367       1378       1377  
      1246       1247       1258       1257       1367       1368       1379       1378  
      1247       1248       1259       1258       1368       1369       1380       1379  
      1248       1249       1260       1259       1369       1370       1381       1380  
      1249       1250       1261       1260       1370       1371       1382       1381  
      1250       1251       1262       1261       1371       1372       1383       1382  
      1251       1252       1263       1262       1372       1373       1384       1383  
      1252       1253       1264       1263       1373       1374       1385       1384  
      1253       1254       1265       1264       1374       1375       1386       1385  
      1255       1256       1267       1266       1376       1377       1388       1387  
      1256       1257       1268       1267       1377       1378       1389       1388  
      1257       1258       1269       1268       1378       1379       1390       1389  
      1258       1259       1270       1269       1379       1380       1391       1390  
      1259       1260       1271       1270       1380       1381       1392       1391  
      1260       1261       1272       1271       1381       1382       1393       1392  
      1261       1262       1273       1272       1382       1383       1394       1393  
      1262       1263       1274       1273       1383       1384       1395       1394  
      1263       1264       1275       1274       1384       1385       1396       1395  
      1264       1265       1276       1275       1385       1386       1397       1396  
      1266       1267       1278       1277       1387       1388       1399       1398  
      1267       1268       1279       1278       1388       1389       1400       1399  
      1268       1269       1280       1279       1389       1390       1401       1400  
      1269       1270       1281       1280       1390       1391       1402       1401  
      1270       1271       1282       1281       1391       1392       1403       1402  
      1271       1272       1283       1282       1392       1393       1404       1403  
      1272       1273       1284       1283       1393       1394       1405       1404  
      1273       1274       1285       1284       1394       1395       1406       1405  
      1274       1275       1286       1285       1395       1396       1407       1406  
      1275       1276       1287       1286       1396       1397       1408       1407  
      1277       1278       1289       1288       1398       1399       1410       1409  
      1278       1279       1290       1289       1399       1400       1411       1410  
      1279       1280       1291       1290       1400       1401       1412       1411  
      1280       1281       1292       1291       1401       1402       1413       1412  
      1281       1282       1293       1292       1402       1403       1414       1413  
      1282       1283       1294       1293       1403       1404       1415       1414  
      1283       1284       1295       1294       1404       1405       1416       1415  
      1284       1285       1296       1295       1405       1406       1417       1416  
      1285       1286       1297       1296       1406       1407       1418       1417  
      1286       1287       1298       1297       1407       1408       1419       1418  
      1288       1289       1300       1299       1409       1410       1421       1420  
      1289       1290       1301       1300       1410       1411       1422       1421  
      1290       1291       1302       1301       1411       1412       1423       1422  
      1291       1292       1303       1302       1412       1413       1424       1423  
      1292       1293       1304       1303       1413       1414       1425       1424  
      1293       1294       1305       1304       1414       1415       1426       1425  
      1294       1295       1306       1305       1415       1416       1427       1426  
      1295       1296       1307       1306       1416       1417       1428       1427  
      1296       1297       1308       1307       1417       1418       1429       1428  
      1297       1298       1309       1308       1418       1419       1430       1429  
      1299       1300       1311       1310       1420       1421       1432       1431  
      1300       1301       1312       1311       1421       1422       1433       1432  
      1301       1302       1313       1312       1422       1423       1434       1433  
      1302       1303       1314       1313       1423       1424       1435       1434  
      1303       1304       1315       1314       1424       1425       1436       1435  
      1304       1305       1316       1315       1425       1426       1437       1436  
      1305       1306       1317       1316       1426       1427       1438       1437  
      1306       1307       1318       1317       1427       1428       1439       1438  
      1307       1308       1319       1318       1428       1429       1440       1439  
      1308       1309       1320       1319       1429       1430       1441       1440  
      1310       1311       1322       1321       1431       1432       1443       1442  
      1311       1312       1323       1322       1432       1433       1444       1443  
      1312       1313       1324       1323       1433       1434       1445       1444  
      1313       1314       1325       1324       1434       1435       1446       1445  
      1314       1315       1326       1325       1435       1436       1447       1446  
      1315       1316       1327       1326       1436       1437       1448       1447  
      1316       1317       1328       1327       1437       1438       1449       1448  
      1317       1318       1329       1328       1438       1439       1450       1449  
      1318       1319       1330       1329       1439       1440       1451       1450  
      1319       1320       1331       1330       1440       1441       1452       1451  
      1332       1333       1344       1343       1453       1454       1465       1464  
      1333       1334       1345       1344       1454       1455       1466       1465  
      1334       1335       1346       1345       1455       1456       1467       1466  
      1335       1336       1347       1346       1456       1457       1468       1467  
      1336       1337       1348       1347       1457       1458       1469       1468  
      1337       1338       1349       1348       1458       1459       1470       1469  
      1338       1339       1350       1349       1459       1460       1471       1470  
      1339       1340       1351       1350       1460       1461       1472       1471  
      1340       1341       1352       1351       1461       1462       1473       1472  
      1341       1342       1353       1352       1462       1463       1474       1473  
      1343       1344       1355       1354       1464       1465       1476       1475  
      1344       1345       1356       1355       1465       1466       1477       1476  
      1345       1346       1357       1356       1466       1467       1478       1477  
      1346       1347       1358       1357       1467       1468       1479       1478  
      1347       1348       1359       1358       1468       1469       1480       1479  
      1348       1349       1360       1359       1469       1470       1481       1480  
      1349       1350       1361       1360       1470       1471       1482       1481  
      1350       1351       1362       1361       1471       1472       1483       1482  
      1351       1352       1363       1362       1472       1473       1484       1483  
      1352       1353       1364       1363       1473       1474       1485       1484  
      1354       1355       1366       1365       1475       1476       1487       1486  
      1355       1356       1367       1366       1476       1477       1488       1487  
      1356       1357       1368       1367       1477       1478       1489       1488  
      1357       1358       1369       1368       1478       1479       1490       1489  
      1358       1359       1370       1369       1479       1480       1491       1490  
      1359       1360       1371       1370       1480       1481       1492       1491  
      1360       1361       1372       1371       1481       1482       1493       1492  
      1361       1362       1373       1372       1482       1483       1494       1493  
      1362       1363       1374       1373       1483       1484       1495       1494  
      1363       1364       1375       1374       1484       1485       1496       1495  
      1365       1366       1377       1376       1486       1487       1498       1497  
      1366       1367       1378       1377       1487       1488       1499       1498  
      1367       1368       1379       1378       1488       1489       1500       1499  
      1368       1369       1380       1379       1489       1490       1501       1500  
      1369       1370       1381       1380       1490       1491       1502       1501  
      1370       1371       1382       1381       1491       1492       1503       1502  
      1371       1372       1383       1382       1492       1493       1504       1503  
      1372       1373       1384       1383       1493       1494       1505       1504  
      1373       1374       1385       1384       1494       1495       1506       1505  
      1374       1375       1386       1385       1495       1496       1507       1506  
      1376       1377       1388       1387       1497       1498       1509       1508  
      1377       1378       1389       1388       1498       1499       1510       1509  
      1378       1379       1390       1389       1499       1500       1511       1510  
      1379       1380       1391       1390       1500       1501       1512       1511  
      1380       1381       1392       1391       1501       1502       1513       1512  
      1381       1382       1393       1392       1502       1503       1514       1513  
      1382       1383       1394       1393       1503       1504       1515       1514  
      1383       1384       1395       1394       1504       1505       1516       1515  
      1384       1385       1396       1395       1505       1506       1517       1516  
      1385       1386       1397       1396       1506       1507       1518       1517  
      1387       1388       1399       1398       1508       1509       1520       1519  
      1388       1389       1400       1399       1509       1510       1521       1520  
      1389       1390       1401       1400       1510       1511       1522       1521  
      1390       1391       1402       1401       1511       1512       1523       1522  
      1391       1392       1403       1402       1512       1513       1524       1523  
      1392       1393       1404       1403       1513       1514       1525       1524  
      1393       1394       1405       1404       1514       1515       1526       1525  
      1394       1395       1406       1405       1515       1516       1527       1526  
      1395       1396       1407       1406       1516       1517       1528       1527  
      1396       1397       1408       1407       1517       1518       1529       1528  
      1398       1399       1410       1409       1519       1520       1531       1530  
      1399       1400       1411       1410       1520       1521       1532       1531  
      1400       1401       1412       1411       1521       1522       1533       1532  
      1401       1402       1413       1412       1522       1523       1534       1533  
      1402       1403       1414       1413       1523       1524       1535       1534  
      1403       1404       1415       1414       1524       1525       1536       1535  
      1404       1405       1416       1415       1525       1526       1537       1536  
      1405       1406       1417       1416       1526       1527       1538       1537  
      1406       1407       1418       1417       1527       1528       1539       1538  
      1407       1408       1419       1418       1528       1529       1540       1539  
      1409       1410       1421       1420       1530       1531       1542       1541  
      1410       1411       1422       1421       1531       1532       1543       1542  
      1411       1412       1423       1422       1532       1533       1544       1543  
      1412       1413       1424       1423       1533       1534       1545       1544  
      1413       1414       1425       1424       1534       1535       1546       1545  
      1414       1415       1426       1425       1535       1536       1547       1546  
      1415       1416       1427       1426       1536       1537       1548       1547  
      1416       1417       1428       1427       1537       1538       1549       1548  
      1417       1418       1429       1428       1538       1539       1550       1549  
      1418       1419       1430       1429       1539       1540       1551       1550  
      1420       1421       1432       1431       1541       1542       1553       1552  
      1421       1422       1433       1432       1542       1543       1554       1553  
      1422       1423       1434       1433       1543       1544       1555       1554  
      1423       1424       1435       1434       1544       1545       1556       1555  
      1424       1425       1436       1435       1545       1546       1557       1556  
      1425       1426       1437       1436       1546       1547       1558       1557  
      1426       1427       1438       1437       1547       1548       1559       1558  
      1427       1428       1439       1438       1548       1549       1560       1559  
      1428       1429       1440       1439       1549       1550       1561       1560  
      1429       1430       1441       1440       1550       1551       1562       1561  
      1431       1432       1443       1442       1552       1553       1564       1563  
      1432       1433       1444       1443       1553       1554       1565       1564  
      1433       1434       1445       1444       1554       1555       1566       1565  
      1434       1435       1446       1445       1555       1556       1567       1566  
      1435       1436       1447       1446       1556       1557       1568       1567  
      1436       1437       1448       1447       1557       1558       1569       1568  
      1437       1438       1449       1448       1558       1559       1570       1569  
      1438       1439       1450       1449       1559       1560       1571       1570  
      1439       1440       1451       1450       1560       1561       1572       1571  
      1440       1441       1452       1451       1561       1562       1573       1572  
      1453       1454       1465       1464       1574       1575       1586       1585  
      1454       1455       1466       1465       1575       1576       1587       1586  
      1455       1456       1467       1466       1576       1577       1588       1587  
      1456       1457       1468       1467       1577       1578       1589       1588  
      1457       1458       1469       1468       1578       1579       1590       1589  
      1458       1459       1470       1469       1579       1580       1591       1590  
      1459       1460       1471       1470       1580       1581       1592       1591  
      1460       1461       1472       1471       1581       1582       1593       1592  
      1461       1462       1473       1472       1582       1583       1594       1593  
      1462       1463       1474       1473       1583       1584       1595       1594  
      1464       1465       1476       1475       1585       1586       1597       1596  
      1465       1466       1477       1476       1586       1587       1598       1597  
      1466       1467       1478       1477       1587       1588       1599       1598  
      1467       1468       1479       1478       1588       1589       1600       1599  
      1468       1469       1480       1479       1589       1590       1601       1600  
      1469       1470       1481       1480       1590       1591       1602       1601  
      1470       1471       1482       1481       1591       1592       1603       1602  
      1471       1472       1483       1482       1592       1593       1604       1603  
      1472       1473       1484       1483       1593       1594       1605       1604  
      1473       1474       1485       1484       1594       1595       1606       1605  
      1475       1476       1487       1486       1596       1597       1608       1607  
      1476       1477       1488       1487       1597       1598       1609       1608  
      1477       1478       1489       1488       1598       1599       1610       1609  
      1478       1479       1490       1489       1599       1600       1611       1610  
      1479       1480       1491       1490       1600       1601       1612       1611  
      1480       1481       1492       1491       1601       1602       1613       1612  
      1481       1482       1493       1492       1602       1603       1614       1613  
      1482       1483       1494       1493       1603       1604       1615       1614  
      1483       1484       1495       1494       1604       1605       1616       1615  
      1484       1485       1496       1495       1605       1606       1617       1616  
      1486       1487       1498       1497       1607       1608       1619       1618  
      1487       1488       1499       1498       1608       1609       1620       1619  
      1488       1489       1500       1499       1609       1610       1621       1620  
      1489       1490       1501       1500       1610       1611       1622       1621  
      1490       1491       1502       1501       1611       1612       1623       1622  
      1491       1492       1503       1502       1612       1613       1624       1623  
      1492       1493       1504       1503       1613       1614       1625       1624  
      1493       1494       1505       1504       1614       1615       1626       1625  
      1494       1495       1506       1505       1615       1616       1627       1626  
      1495       1496       1507       1506       1616       1617       1628       1627  
      1497       1498       1509       1508       1618       1619       1630       1629  
      1498       1499       1510       1509       1619       1620       1631       1630  
      1499       1500       1511       1510       1620       1621       1632       1631  
      1500       1501       1512       1511       1621       1622       1633       1632  
      1501       1502       1513       1512       1622       1623       1634       1633  
      1502       1503       1514       1513       1623       1624       1635       1634  
      1503       1504       1515       1514       1624       1625       1636       1635  
      1504       1505       1516       1515       1625       1626       1637       1636  
      1505       1506       1517       1516       1626       1627       1638       1637  
      1506       1507       1518       1517       1627       1628       1639       1638  
      1508       1509       1520       1519       1629       1630       1641       1640  
      1509       1510       1521       1520       1630       1631       1642       1641  
      1510       1511       1522       1521       1631       1632       1643       1642  
      1511       1512       1523       1522       1632       1633       1644       1643  
      1512       1513       1524       1523       1633       1634       1645       1644  
      1513       1514       1525       1524       1634       1635       1646       1645  
      1514       1515       1526       1525       1635       1636       1647       1646  
      1515       1516       1527       1526       1636       1637       1648       1647  
      1516       1517       1528       1527       1637       1638       1649       1648  
      1517       1518       1529       1528       1638       1639       1650       1649  
      1519       1520       1531       1530       1640       1641       1652       1651  
      1520       1521       1532       1531       1641       1642       1653       1652  
      1521       1522       1533       1532       1642       1643       1654       1653  
      1522       1523       1534       1533       1643       1644       1655       1654  
      1523       1524       1535       1534       1644       1645       1656       1655  
      1524       1525       1536       1535       1645       1646       1657       1656  
      1525       1526       1537       1536       1646       1647       1658       1657  
      1526       1527       1538       1537       1647       1648       1659       1658  
      1527       1528       1539       1538       1648       1649       1660       1659  
      1528       1529       1540       1539       1649       1650       1661       1660  
      1530       1531       1542       1541       1651       1652       1663       1662  
      1531       1532       1543       1542       1652       1653       1664       1663  
      1532       1533       1544       1543       1653       1654       1665       1664  
      1533       1534       1545       1544       1654       1655       1666       1665  
      1534       1535       1546       1545       1655       1656       1667       1666  
      1535       1536       1547       1546       1656       1657       1668       1667  
      1536       1537       1548       1547       1657       1658       1669       1668  
      1537       1538       1549       1548       1658       1659       1670       1669  
      1538       1539       1550       1549       1659       1660       1671       1670  
      1539       1540       1551       1550       1660       1661       1672       1671  
      1541       1542       1553       1552       1662       1663       1674       1673  
      1542       1543       1554       1553       1663       1664       1675       1674  
      1543       1544       1555       1554       1664       1665       1676       1675  
      1544       1545       1556       1555       1665       1666       1677       1676  
      1545       1546       1557       1556       1666       1667       1678       1677  
      1546       1547       1558       1557       1667       1668       1679       1678  
      1547       1548       1559       1558       1668       1669       1680       1679  
      1548       1549       1560       1559       1669       1670       1681       1680  
      1549       1550       1561       1560       1670       1671       1682       1681  
      1550       1551       1562       1561       1671       1672       1683       1682  
      1552       1553       1564       1563       1673       1674       1685       1684  
      1553       1554       1565       1564       1674       1675       1686       1685  
      1554       1555       1566       1565       1675       1676       1687       1686  
      1555       1556       1567       1566       1676       1677       1688       1687  
      1556       1557       1568       1567       1677       1678       1689       1688  
      1557       1558       1569       1568       1678       1679       1690       1689  
      1558       1559       1570       1569       1679       1680       1691       1690  
      1559       1560       1571       1570       1680       1681       1692       1691  
      1560       1561       1572       1571       1681       1682       1693       1692  
      1561       1562       1573       1572       1682       1683       1694       1693  
      1574       1575       1586       1585       1695       1696       1707       1706  
      1575       1576       1587       1586       1696       1697       1708       1707  
      1576       1577       1588       1587       1697       1698       1709       1708  
      1577       1578       1589       1588       1698       1699       1710       1709  
      1578       1579       1590       1589       1699       1700       1711       1710  
      1579       1580       1591       1590       1700       1701       1712       1711  
      1580       1581       1592       1591       1701       1702       1713       1712  
      1581       1582       1593       1592       1702       1703       1714       1713  
      1582       1583       1594       1593       1703       1704       1715       1714  
      1583       1584       1595       1594       1704       1705       1716       1715  
      1585       1586       1597       1596       1706       1707       1718       1717  
      1586       1587       1598       1597       1707       1708       1719       1718  
      1587       1588       1599       1598       1708       1709       1720       1719  
      1588       1589       1600       1599       1709       1710       1721       1720  
      1589       1590       1601       1600       1710       1711       1722       1721  
      1590       1591       1602       1601       1711       1712       1723       1722  
      1591       1592       1603       1602       1712       1713       1724       1723  
      1592       1593       1604       1603       1713       1714       1725       1724  
      1593       1594       1605       1604       1714       1715       1726       1725  
      1594       1595       1606       1605       1715       1716       1727       1726  
      1596       1597       1608       1607       1717       1718       1729       1728  
      1597       1598       1609       1608       1718       1719       1730       1729  
      1598       1599       1610       1609       1719       1720       1731       1730  
      1599       1600       1611       1610       1720       1721       1732       1731  
      1600       1601       1612       1611       1721       1722       1733       1732  
      1601       1602       1613       1612       1722       1723       1734       1733  
      1602       1603       1614       1613       1723       1724       1735       1734  
      1603       1604       1615       1614       1724       1725       1736       1735  
      1604       1605       1616       1615       1725       1726       1737       1736  
      1605       1606       1617       1616       1726       1727       1738       1737  
      1607       1608       1619       1618       1728       1729       1740       1739  
      1608       1609       1620       1619       1729       1730       1741       1740  
      1609       1610       1621       1620       1730       1731       1742       1741  
      1610       1611       1622       1621       1731       1732       1743       1742  
      1611       1612       1623       1622       1732       1733       1744       1743  
      1612       1613       1624       1623       1733       1734       1745       1744  
      1613       1614       1625       1624       1734       1735       1746       1745  
      1614       1615       1626       1625       1735       1736       1747       1746  
      1615       1616       1627       1626       1736       1737       1748       1747  
      1616       1617       1628       1627       1737       1738       1749       1748  
      1618       1619       1630       1629       1739       1740       1751       1750  
      1619       1620       1631       1630       1740       1741       1752       1751  
      1620       1621       1632       1631       1741       1742       1753       1752  
      1621       1622       1633       1632       1742       1743       1754       1753  
      1622       1623       1634       1633       1743       1744       1755       1754  
      1623       1624       1635       1634       1744       1745       1756       1755  
      1624       1625       1636       1635       1745       1746       1757       1756  
      1625       1626       1637       1636       1746       1747       1758       1757  
      1626       1627       1638       1637       1747       1748       1759       1758  
      1627       1628       1639       1638       1748       1749       1760       1759  
      1629       1630       1641       1640       1750       1751       1762       1761  
      1630       1631       1642       1641       1751       1752       1763       1762  
      1631       1632       1643       1642       1752       1753       1764       1763  
      1632       1633       1644       1643       1753       1754       1765       1764  
      1633       1634       1645       1644       1754       1755       1766       1765  
      1634       1635       1646       1645       1755       1756       1767       1766  
      1635       1636       1647       1646       1756       1757       1768       1767  
      1636       1637       1648       1647       1757       1758       1769       1768  
      1637       1638       1649       1648       1758       1759       1770       1769  
      1638       1639       1650       1649       1759       1760       1771       1770  
      1640       1641       1652       1651       1761       1762       1773       1772  
      1641       1642       1653       1652       1762       1763       1774       1773  
      1642       1643       1654       1653       1763       1764       1775       1774  
      1643       1644       1655       1654       1764       1765       1776       1775  
      1644       1645       1656       1655       1765       1766       1777       1776  
      1645       1646       1657       1656       1766       1767       1778       1777  
      1646       1647       1658       1657       1767       1768       1779       1778  
      1647       1648       1659       1658       1768       1769       1780       1779  
      1648       1649       1660       1659       1769       1770       1781       1780  
      1649       1650       1661       1660       1770       1771       1782       1781  
      1651       1652       1663       1662       1772       1773       1784       1783  
      1652       1653       1664       1663       1773       1774       1785       1784  
      1653       1654       1665       1664       1774       1775       1786       1785  
      1654       1655       1666       1665       1775       1776       1787       1786  
      1655       1656       1667       1666       1776       1777       1788       1787  
      1656       1657       1668       1667       1777       1778       1789       1788  
      1657       1658       1669       1668       1778       1779       1790       1789  
      1658       1659       1670       1669       1779       1780       1791       1790  
      1659       1660       1671       1670       1780       1781       1792       1791  
      1660       1661       1672       1671       1781       1782       1793       1792  
      1662       1663       1674       1673       1783       1784       1795       1794  
      1663       1664       1675       1674       1784       1785       1796       1795  
      1664       1665       1676       1675       1785       1786       1797       1796  
      1665       1666       1677       1676       1786       1787       1798       1797  
      1666       1667       1678       1677       1787       1788       1799       1798  
      1667       1668       1679       1678       1788       1789       1800       1799  
      1668       1669       1680       1679       1789       1790       1801       1800  
      1669       1670       1681       1680       1790       1791       1802       1801  
      1670       1671       1682       1681       1791       1792       1803       1802  
      1671       1672       1683       1682       1792       1793       1804       1803  
      1673       1674       1685       1684       1794       1795       1806       1805  
      1674       1675       1686       1685       1795       1796       1807       1806  
      1675       1676       1687       1686       1796       1797       1808       1807  
      1676       1677       1688       1687       1797       1798       1809       1808  
      1677       1678       1689       1688       1798       1799       1810       1809  
      1678       1679       1690       1689       1799       1800       1811       1810  
      1679       1680       1691       1690       1800       1801       1812       1811  
      1680       1681       1692       1691       1801       1802       1813       1812  
      1681       1682       1693       1692       1802       1803       1814       1813  
      1682       1683       1694       1693       1803       1804       1815       1814  
      1695       1696       1707       1706       1816       1817       1828       1827  
      1696       1697       1708       1707       1817       1818       1829       1828  
      1697       1698       1709       1708       1818       1819       1830       1829  
      1698       1699       1710       1709       1819       1820       1831       1830  
      1699       1700       1711       1710       1820       1821       1832       1831  
      1700       1701       1712       1711       1821       1822       1833       1832  
      1701       1702       1713       1712       1822       1823       1834       1833  
      1702       1703       1714       1713       1823       1824       1835       1834  
      1703       1704       1715       1714       1824       1825       1836       1835  
      1704       1705       1716       1715       1825       1826       1837       1836  
      1706       1707       1718       1717       1827       1828       1839       1838  
      1707       1708       1719       1718       1828       1829       1840       1839  
      1708       1709       1720       1719       1829       1830       1841       1840  
      1709       1710       1721       1720       1830       1831       1842       1841  
      1710       1711       1722       1721       1831       1832       1843       1842  
      1711       1712       1723       1722       1832       1833       1844       1843  
      1712       1713       1724       1723       1833       1834       1845       1844  
      1713       1714       1725       1724       1834       1835       1846       1845  
      1714       1715       1726       1725       1835       1836       1847       1846  
      1715       1716       1727       1726       1836       1837       1848       1847  
      1717       1718       1729       1728       1838       1839       1850       1849  
      1718       1719       1730       1729       1839       1840       1851       1850  
      1719       1720       1731       1730       1840       1841       1852       1851  
      1720       1721       1732       1731       1841       1842       1853       1852  
      1721       1722       1733       1732       1842       1843       1854       1853  
      1722       1723       1734       1733       1843       1844       1855       1854  
      1723       1724       1735       1734       1844       1845       1856       1855  
      1724       1725       1736       1735       1845       1846       1857       1856  
      1725       1726       1737       1736       1846       1847       1858       1857  
      1726       1727       1738       1737       1847       1848       1859       1858  
      1728       1729       1740       1739       1849       1850       1861       1860  
      1729       1730       1741       1740       1850       1851       1862       1861  
      1730       1731       1742       1741       1851       1852       1863       1862  
      1731       1732       1743       1742       1852       1853       1864       1863  
      1732       1733       1744       1743       1853       1854       1865       1864  
      1733       1734       1745       1744       1854       1855       1866       1865  
      1734       1735       1746       1745       1855       1856       1867       1866  
      1735       1736       1747       1746       1856       1857       1868       1867  
      1736       1737       1748       1747       1857       1858       1869       1868  
      1737       1738       1749       1748       1858       1859       1870       1869  
      1739       1740       1751       1750       1860       1861       1872       1871  
      1740       1741       1752       1751       1861       1862       1873       1872  
      1741       1742       1753       1752       1862       1863       1874       1873  
      1742       1743       1754       1753       1863       1864       1875       1874  
      1743       1744       1755       1754       1864       1865       1876       1875  
      1744       1745       1756       1755       1865       1866       1877       1876  
      1745       1746       1757       1756       1866       1867       1878       1877  
      1746       1747       1758       1757       1867       1868       1879       1878  
      1747       1748       1759       1758       1868       1869       1880       1879  
      1748       1749       1760       1759       1869       1870       1881       1880  
      1750       1751       1762       1761       1871       1872       1883       1882  
      1751       1752       1763       1762       1872       1873       1884       1883  
      1752       1753       1764       1763       1873       1874       1885       1884  
      1753       1754       1765       1764       1874       1875       1886       1885  
      1754       1755       1766       1765       1875       1876       1887       1886  
      1755       1756       1767       1766       1876       1877       1888       1887  
      1756       1757       1768       1767       1877       1878       1889       1888  
      1757       1758       1769       1768       1878       1879       1890       1889  
      1758       1759       1770       1769       1879       1880       1891       1890  
      1759       1760       1771       1770       1880       1881       1892       1891  
      1761       1762       1773       1772       1882       1883       1894       1893  
      1762       1763       1774       1773       1883       1884       1895       1894  
      1763       1764       1775       1774       1884       1885       1896       1895  
      1764       1765       1776       1775       1885       1886       1897       1896  
      1765       1766       1777       1776       1886       1887       1898       1897  
      1766       1767       1778       1777       1887       1888       1899       1898  
      1767       1768       1779       1778       1888       1889       1900       1899  
      1768       1769       1780       1779       1889       1890       1901       1900  
      1769       1770       1781       1780       1890       1891       1902       1901  
      1770       1771       1782       1781       1891       1892       1903       1902  
      1772       1773       1784       1783       1893       1894       1905       1904  
      1773       1774       1785       1784       1894       1895       1906       1905  
      1774       1775       1786       1785       1895       1896       1907       1906  
      1775       1776       1787       1786       1896       1897       1908       1907  
      1776       1777       1788       1787       1897       1898       1909       1908  
      1777       1778       1789       1788       1898       1899       1910       1909  
      1778       1779       1790       1789       1899       1900       1911       1910  
      1779       1780       1791       1790       1900       1901       1912       1911  
      1780       1781       1792       1791       1901       1902       1913       1912  
      1781       1782       1793       1792       1902       1903       1914       1913  
      1783       1784       1795       1794       1904       1905       1916       1915  
      1784       1785       1796       1795       1905       1906       1917       1916  
      1785       1786       1797       1796       1906       1907       1918       1917  
      1786       1787       1798       1797       1907       1908       1919       1918  
      1787       1788       1799       1798       1908       1909       1920       1919  
      1788       1789       1800       1799       1909       1910       1921       1920  
      1789       1790       1801       1800       1910       1911       1922       1921  
      1790       1791       1802       1801       1911       1912       1923       1922  
      1791       1792       1803       1802       1912       1913       1924       1923  
      1792       1793       1804       1803       1913       1914       1925       1924  
      1794       1795       1806       1805       1915       1916       1927       1926  
      1795       1796       1807       1806       1916       1917       1928       1927  
      1796       1797       1808       1807       1917       1918       1929       1928  
      1797       1798       1809       1808       1918       1919       1930       1929  
      1798       1799       1810       1809       1919       1920       1931       1930  
      1799       1800       1811       1810       1920       1921       1932       1931  
      1800       1801       1812       1811       1921       1922       1933       1932  
      1801       1802       1813       1812       1922       1923       1934       1933  
      1802       1803       1814       1813       1923       1924       1935       1934  
      1803       1804       1815       1814       1924       1925       1936       1935  
      1816       1817       1828       1827       1937       1938       1949       1948  
      1817       1818       1829       1828       1938       1939       1950       1949  
      1818       1819       1830       1829       1939       1940       1951       1950  
      1819       1820       1831       1830       1940       1941       1952       1951  
      1820       1821       1832       1831       1941       1942       1953       1952  
      1821       1822       1833       1832       1942       1943       1954       1953  
      1822       1823       1834       1833       1943       1944       1955       1954  
      1823       1824       1835       1834       1944       1945       1956       1955  
      1824       1825       1836       1835       1945       1946       1957       1956  
      1825       1826       1837       1836       1946       1947       1958       1957  
      1827       1828       1839       1838       1948       1949       1960       1959  
      1828       1829       1840       1839       1949       1950       1961       1960  
      1829       1830       1841       1840       1950       1951       1962       1961  
      1830       1831       1842       1841       1951       1952       1963       1962  
      1831       1832       1843       1842       1952       1953       1964       1963  
      1832       1833       1844       1843       1953       1954       1965       1964  
      1833       1834       1845       1844       1954       1955       1966       1965  
      1834       1835       1846       1845       1955       1956       1967       1966  
      1835       1836       1847       1846       1956       1957       1968       1967  
      1836       1837       1848       1847       1957       1958       1969       1968  
      1838       1839       1850       1849       1959       1960       1971       1970  
      1839       1840       1851       1850       1960       1961       1972       1971  
      1840       1841       1852       1851       1961       1962       1973       1972  
      1841       1842       1853       1852       1962       1963       1974       1973  
      1842       1843       1854       1853       1963       1964       1975       1974  
      1843       1844       1855       1854       1964       1965       1976       1975  
      1844       1845       1856       1855       1965       1966       1977       1976  
      1845       1846       1857       1856       1966       1967       1978       1977  
      1846       1847       1858       1857       1967       1968       1979       1978  
      1847       1848       1859       1858       1968       1969       1980       1979  
      1849       1850       1861       1860       1970       1971       1982       1981  
      1850       1851       1862       1861       1971       1972       1983       1982  
      1851       1852       1863       1862       1972       1973       1984       1983  
      1852       1853       1864       1863       1973       1974       1985       1984  
      1853       1854       1865       1864       1974       1975       1986       1985  
      1854       1855       1866       1865       1975       1976       1987       1986  
      1855       1856       1867       1866       1976       1977       1988       1987  
      1856       1857       1868       1867       1977       1978       1989       1988  
      1857       1858       1869       1868       1978       1979       1990       1989  
      1858       1859       1870       1869       1979       1980       1991       1990  
      1860       1861       1872       1871       1981       1982       1993       1992  
      1861       1862       1873       1872       1982       1983       1994       1993  
      1862       1863       1874       1873       1983       1984       1995       1994  
      1863       1864       1875       1874       1984       1985       1996       1995  
      1864       1865       1876       1875       1985       1986       1997       1996  
      1865       1866       1877       1876       1986       1987       1998       1997  
      1866       1867       1878       1877       1987       1988       1999       1998  
      1867       1868       1879       1878       1988       1989       2000       1999  
      1868       1869       1880       1879       1989       1990       2001       2000  
      1869       1870       1881       1880       1990       1991       2002       2001  
      1871       1872       1883       1882       1992       1993       2004       2003  
      1872       1873       1884       1883       1993       1994       2005       2004  
      1873       1874       1885       1884       1994       1995       2006       2005  
      1874       1875       1886       1885       1995       1996       2007       2006  
      1875       1876       1887       1886       1996       1997       2008       2007  
      1876       1877       1888       1887       1997       1998       2009       2008  
      1877       1878       1889       1888       1998       1999       2010       2009  
      1878       1879       1890       1889       1999       2000       2011       2010  
      1879       1880       1891       1890       2000       2001       2012       2011  
      1880       1881       1892       1891       2001       2002       2013       2012  
      1882       1883       1894       1893       2003       2004       2015       2014  
      1883       1884       1895       1894       2004       2005       2016       2015  
      1884       1885       1896       1895       2005       2006       2017       2016  
      1885       1886       1897       1896       2006       2007       2018       2017  
      1886       1887       1898       1897       2007       2008       2019       2018  
      1887       1888       1899       1898       2008       2009       2020       2019  
      1888       1889       1900       1899       2009       2010       2021       2020  
      1889       1890       1901       1900       2010       2011       2022       2021  
      1890       1891       1902       1901       2011       2012       2023       2022  
      1891       1892       1903       1902       2012       2013       2024       2023  
      1893       1894       1905       1904       2014       2015       2026       2025  
      1894       1895       1906       1905       2015       2016       2027       2026  
      1895       1896       1907       1906       2016       2017       2028       2027  
      1896       1897       1908       1907       2017       2018       2029       2028  
      1897       1898       1909       1908       2018       2019       2030       2029  
      1898       1899       1910       1909       2019       2020       2031       2030  
      1899       1900       1911       1910       2020       2021       2032       2031  
      1900       1901       1912       1911       2021       2022       2033       2032  
      1901       1902       1913       1912       2022       2023       2034       2033  
      1902       1903       1914       1913       2023       2024       2035       2034  
      1904       1905       1916       1915       2025       2026       2037       2036  
      1905       1906       1917       1916       2026       2027       2038       2037  
      1906       1907       1918       1917       2027       2028       2039       2038  
      1907       1908       1919       1918       2028       2029       2040       2039  
      1908       1909       1920       1919       2029       2030       2041       2040  
      1909       1910       1921       1920       2030       2031       2042       2041  
      1910       1911       1922       1921       2031       2032       2043       2042  
      1911       1912       1923       1922       2032       2033       2044       2043  
      1912       1913       1924       1923       2033       2034       2045       2044  
      1913       1914       1925       1924       2034       2035       2046       2045  
      1915       1916       1927       1926       2036       2037       2048       2047  
      1916       1917       1928       1927       2037       2038       2049       2048  
      1917       1918       1929       1928       2038       2039       2050       2049  
      1918       1919       1930       1929       2039       2040       2051       2050  
      1919       1920       1931       1930       2040       2041       2052       2051  
      1920       1921       1932       1931       2041       2042       2053       2052  
      1921       1922       1933       1932       2042       2043       2054       2053  
      1922       1923       1934       1933       2043       2044       2055       2054  
      1923       1924       1935       1934       2044       2045       2056       2055  
      1924       1925       1936       1935       2045       2046       2057       2056  
      1937       1938       1949       1948       2058       2059       2070       2069  
      1938       1939       1950       1949       2059       2060       2071       2070  
      1939       1940       1951       1950       2060       2061       2072       2071  
      1940       1941       1952       1951       2061       2062       2073       2072  
      1941       1942       1953       1952       2062       2063       2074       2073  
      1942       1943       1954       1953       2063       2064       2075       2074  
      1943       1944       1955       1954       2064       2065       2076       2075  
      1944       1945       1956       1955       2065       2066       2077       2076  
      1945       1946       1957       1956       2066       2067       2078       2077  
      1946       1947       1958       1957       2067       2068       2079       2078  
      1948       1949       1960       1959       2069       2070       2081       2080  
      1949       1950       1961       1960       2070       2071       2082       2081  
      1950       1951       1962       1961       2071       2072       2083       2082  
      1951       1952       1963       1962       2072       2073       2084       2083  
      1952       1953       1964       1963       2073       2074       2085       2084  
      1953       1954       1965       1964       2074       2075       2086       2085  
      1954       1955       1966       1965       2075       2076       2087       2086  
      1955       1956       1967       1966       2076       2077       2088       2087  
      1956       1957       1968       1967       2077       2078       2089       2088  
      1957       1958       1969       1968       2078       2079       2090       2089  
      1959       1960       1971       1970       2080       2081       2092       2091  
      1960       1961       1972       1971       2081       2082       2093       2092  
      1961       1962       1973       1972       2082       2083       2094       2093  
      1962       1963       1974       1973       2083       2084       2095       2094  
      1963       1964       1975       1974       2084       2085       2096       2095  
      1964       1965       1976       1975       2085       2086       2097       2096  
      1965       1966       1977       1976       2086       2087       2098       2097  
      1966       1967       1978       1977       2087       2088       2099       2098  
      1967       1968       1979       1978       2088       2089       2100       2099  
      1968       1969       1980       1979       2089       2090       2101       2100  
      1970       1971       1982       1981       2091       2092       2103       2102  
      1971       1972       1983       1982       2092       2093       2104       2103  
      1972       1973       1984       1983       2093       2094       2105       2104  
      1973       1974       1985       1984       2094       2095       2106       2105  
      1974       1975       1986       1985       2095       2096       2107       2106  
      1975       1976       1987       1986       2096       2097       2108       2107  
      1976       1977       1988       1987       2097       2098       2109       2108  
      1977       1978       1989       1988       2098       2099       2110       2109  
      1978       1979       1990       1989       2099       2100       2111       2110  
      1979       1980       1991       1990       2100       2101       2112       2111  
      1981       1982       1993       1992       2102       2103       2114       2113  
      1982       1983       1994       1993       2103       2104       2115       2114  
      1983       1984       1995       1994       2104       2105       2116       2115  
      1984       1985       1996       1995       2105       2106       2117       2116  
      1985       1986       1997       1996       2106       2107       2118       2117  
      1986       1987       1998       1997       2107       2108       2119       2118  
      1987       1988       1999       1998       2108       2109       2120       2119  
      1988       1989       2000       1999       2109       2110       2121       2120  
      1989       1990       2001       2000       2110       2111       2122       2121  
      1990       1991       2002       2001       2111       2112       2123       2122  
      1992       1993       2004       2003       2113       2114       2125       2124  
      1993       1994       2005       2004       2114       2115       2126       2125  
      1994       1995       2006       2005       2115       2116       2127       2126  
      1995       1996       2007       2006       2116       2117       2128       2127  
      1996       1997       2008       2007       2117       2118       2129       2128  
      1997       1998       2009       2008       2118       2119       2130       2129  
      1998       1999       2010       2009       2119       2120       2131       2130  
      1999       2000       2011       2010       2120       2121       2132       2131  
      2000       2001       2012       2011       2121       2122       2133       2132  
      2001       2002       2013       2012       2122       2123       2134       2133  
      2003       2004       2015       2014       2124       2125       2136       2135  
      2004       2005       2016       2015       2125       2126       2137       2136  
      2005       2006       2017       2016       2126       2127       2138       2137  
      2006       2007       2018       2017       2127       2128       2139       2138  
      2007       2008       2019       2018       2128       2129       2140       2139  
      2008       2009       2020       2019       2129       2130       2141       2140  
      2009       2010       2021       2020       2130       2131       2142       2141  
      2010       2011       2022       2021       2131       2132       2143       2142  
      2011       2012       2023       2022       2132       2133       2144       2143  
      2012       2013       2024       2023       2133       2134       2145       2144  
      2014       2015       2026       2025       2135       2136       2147       2146  
      2015       2016       2027       2026       2136       2137       2148       2147  
      2016       2017       2028       2027       2137       2138       2149       2148  
      2017       2018       2029       2028       2138       2139       2150       2149  
      2018       2019       2030       2029       2139       2140       2151       2150  
      2019       2020       2031       2030       2140       2141       2152       2151  
      2020       2021       2032       2031       2141       2142       2153       2152  
      2021       2022       2033       2032       2142       2143       2154       2153  
      2022       2023       2034       2033       2143       2144       2155       2154  
      2023       2024       2035       2034       2144       2145       2156       2155  
      2025       2026       2037       2036       2146       2147       2158       2157  
      2026       2027       2038       2037       2147       2148       2159       2158  
      2027       2028       2039       2038       2148       2149       2160       2159  
      2028       2029       2040       2039       2149       2150       2161       2160  
      2029       2030       2041       2040       2150       2151       2162       2161  
      2030       2031       2042       2041       2151       2152       2163       2162  
      2031       2032       2043       2042       2152       2153       2164       2163  
      2032       2033       2044       2043       2153       2154       2165       2164  
      2033       2034       2045       2044       2154       2155       2166       2165  
      2034       2035       2046       2045       2155       2156       2167       2166  
      2036       2037       2048       2047       2157       2158       2169       2168  
      2037       2038       2049       2048       2158       2159       2170       2169  
      2038       2039       2050       2049       2159       2160       2171       2170  
      2039       2040       2051       2050       2160       2161       2172       2171  
      2040       2041       2052       2051       2161       2162       2173       2172  
      2041       2042       2053       2052       2162       2163       2174       2173  
      2042       2043       2054       2053       2163       2164       2175       2174  
      2043       2044       2055       2054       2164       2165       2176       2175  
      2044       2045       2056       2055       2165       2166       2177       2176  
      2045       2046       2057       2056       2166       2167       2178       2177  
      2058       2059       2070       2069       2179       2180       2191       2190  
      2059       2060       2071       2070       2180       2181       2192       2191  
      2060       2061       2072       2071       2181       2182       2193       2192  
      2061       2062       2073       2072       2182       2183       2194       2193  
      2062       2063       2074       2073       2183       2184       2195       2194  
      2063       2064       2075       2074       2184       2185       2196       2195  
      2064       2065       2076       2075       2185       2186       2197       2196  
      2065       2066       2077       2076       2186       2187       2198       2197  
      2066       2067       2078       2077       2187       2188       2199       2198  
      2067       2068       2079       2078       2188       2189       2200       2199  
      2069       2070       2081       2080       2190       2191       2202       2201  
      2070       2071       2082       2081       2191       2192       2203       2202  
      2071       2072       2083       2082       2192       2193       2204       2203  
      2072       2073       2084       2083       2193       2194       2205       2204  
      2073       2074       2085       2084       2194       2195       2206       2205  
      2074       2075       2086       2085       2195       2196       2207       2206  
      2075       2076       2087       2086       2196       2197       2208       2207  
      2076       2077       2088       2087       2197       2198       2209       2208  
      2077       2078       2089       2088       2198       2199       2210       2209  
      2078       2079       2090       2089       2199       2200       2211       2210  
      2080       2081       2092       2091       2201       2202       2213       2212  
      2081       2082       2093       2092       2202       2203       2214       2213  
      2082       2083       2094       2093       2203       2204       2215       2214  
      2083       2084       2095       2094       2204       2205       2216       2215  
      2084       2085       2096       2095       2205       2206       2217       2216  
      2085       2086       2097       2096       2206       2207       2218       2217  
      2086       2087       2098       2097       2207       2208       2219       2218  
      2087       2088       2099       2098       2208       2209       2220       2219  
      2088       2089       2100       2099       2209       2210       2221       2220  
      2089       2090       2101       2100       2210       2211       2222       2221  
      2091       2092       2103       2102       2212       2213       2224       2223  
      2092       2093       2104       2103       2213       2214       2225       2224  
      2093       2094       2105       2104       2214       2215       2226       2225  
      2094       2095       2106       2105       2215       2216       2227       2226  
      2095       2096       2107       2106       2216       2217       2228       2227  
      2096       2097       2108       2107       2217       2218       2229       2228  
      2097       2098       2109       2108       2218       2219       2230       2229  
      2098       2099       2110       2109       2219       2220       2231       2230  
      2099       2100       2111       2110       2220       2221       2232       2231  
      2100       2101       2112       2111       2221       2222       2233       2232  
      2102       2103       2114       2113       2223       2224       2235       2234  
      2103       2104       2115       2114       2224       2225       2236       2235  
      2104       2105       2116       2115       2225       2226       2237       2236  
      2105       2106       2117       2116       2226       2227       2238       2237  
      2106       2107       2118       2117       2227       2228       2239       2238  
      2107       2108       2119       2118       2228       2229       2240       2239  
      2108       2109       2120       2119       2229       2230       2241       2240  
      2109       2110       2121       2120       2230       2231       2242       2241  
      2110       2111       2122       2121       2231       2232       2243       2242  
      2111       2112       2123       2122       2232       2233       2244       2243  
      2113       2114       2125       2124       2234       2235       2246       2245  
      2114       2115       2126       2125       2235       2236       2247       2246  
      2115       2116       2127       2126       2236       2237       2248       2247  
      2116       2117       2128       2127       2237       2238       2249       2248  
      2117       2118       2129       2128       2238       2239       2250       2249  
      2118       2119       2130       2129       2239       2240       2251       2250  
      2119       2120       2131       2130       2240       2241       2252       2251  
      2120       2121       2132       2131       2241       2242       2253       2252  
      2121       2122       2133       2132       2242       2243       2254       2253  
      2122       2123       2134       2133       2243       2244       2255       2254  
      2124       2125       2136       2135       2245       2246       2257       2256  
      2125       2126       2137       2136       2246       2247       2258       2257  
      2126       2127       2138       2137       2247       2248       2259       2258  
      2127       2128       2139       2138       2248       2249       2260       2259  
      2128       2129       2140       2139       2249       2250       2261       2260  
      2129       2130       2141       2140       2250       2251       2262       2261  
      2130       2131       2142       2141       2251       2252       2263       2262  
      2131       2132       2143       2142       2252       2253       2264       2263  
      2132       2133       2144       2143       2253       2254       2265       2264  
      2133       2134       2145       2144       2254       2255       2266       2265  
      2135       2136       2147       2146       2256       2257       2268       2267  
      2136       2137       2148       2147       2257       2258       2269       2268  
      2137       2138       2149       2148       2258       2259       2270       2269  
      2138       2139       2150       2149       2259       2260       2271       2270  
      2139       2140       2151       2150       2260       2261       2272       2271  
      2140       2141       2152       2151       2261       2262       2273       2272  
      2141       2142       2153       2152       2262       2263       2274       2273  
      2142       2143       2154       2153       2263       2264       2275       2274  
      2143       2144       2155       2154       2264       2265       2276       2275  
      2144       2145       2156       2155       2265       2266       2277       2276  
      2146       2147       2158       2157       2267       2268       2279       2278  
      2147       2148       2159       2158       2268       2269       2280       2279  
      2148       2149       2160       2159       2269       2270       2281       2280  
      2149       2150       2161       2160       2270       2271       2282       2281  
      2150       2151       2162       2161       2271       2272       2283       2282  
      2151       2152       2163       2162       2272       2273       2284       2283  
      2152       2153       2164       2163       2273       2274       2285       2284  
      2153       2154       2165       2164       2274       2275       2286       2285  
      2154       2155       2166       2165       2275       2276       2287       2286  
      2155       2156       2167       2166       2276       2277       2288       2287  
      2157       2158       2169       2168       2278       2279       2290       2289  
      2158       2159       2170       2169       2279       2280       2291       2290  
      2159       2160       2171       2170       2280       2281       2292       2291  
      2160       2161       2172       2171       2281       2282       2293       2292  
      2161       2162       2173       2172       2282       2283       2294       2293  
      2162       2163       2174       2173       2283       2284       2295       2294  
      2163       2164       2175       2174       2284       2285       2296       2295  
      2164       2165       2176       2175       2285       2286       2297       2296  
      2165       2166       2177       2176       2286       2287       2298       2297  
      2166       2167       2178       2177       2287       2288       2299       2298  
      2179       2180       2191       2190       2300       2301       2312       2311  
      2180       2181       2192       2191       2301       2302       2313       2312  
      2181       2182       2193       2192       2302       2303       2314       2313  
      2182       2183       2194       2193       2303       2304       2315       2314  
      2183       2184       2195       2194       2304       2305       2316       2315  
      2184       2185       2196       2195       2305       2306       2317       2316  
      2185       2186       2197       2196       2306       2307       2318       2317  
      2186       2187       2198       2197       2307       2308       2319       2318  
      2187       2188       2199       2198       2308       2309       2320       2319  
      2188       2189       2200       2199       2309       2310       2321       2320  
      2190       2191       2202       2201       2311       2312       2323       2322  
      2191       2192       2203       2202       2312       2313       2324       2323  
      2192       2193       2204       2203       2313       2314       2325       2324  
      2193       2194       2205       2204       2314       2315       2326       2325  
      2194       2195       2206       2205       2315       2316       2327       2326  
      2195       2196       2207       2206       2316       2317       2328       2327  
      2196       2197       2208       2207       2317       2318       2329       2328  
      2197       2198       2209       2208       2318       2319       2330       2329  
      2198       2199       2210       2209       2319       2320       2331       2330  
      2199       2200       2211       2210       2320       2321       2332       2331  
      2201       2202       2213       2212       2322       2323       2334       2333  
      2202       2203       2214       2213       2323       2324       2335       2334  
      2203       2204       2215       2214       2324       2325       2336       2335  
      2204       2205       2216       2215       2325       2326       2337       2336  
      2205       2206       2217       2216       2326       2327       2338       2337  
      2206       2207       2218       2217       2327       2328       2339       2338  
      2207       2208       2219       2218       2328       2329       2340       2339  
      2208       2209       2220       2219       2329       2330       2341       2340  
      2209       2210       2221       2220       2330       2331       2342       2341  
      2210       2211       2222       2221       2331       2332       2343       2342  
      2212       2213       2224       2223       2333       2334       2345       2344  
      2213       2214       2225       2224       2334       2335       2346       2345  
      2214       2215       2226       2225       2335       2336       2347       2346  
      2215       2216       2227       2226       2336       2337       2348       2347  
      2216       2217       2228       2227       2337       2338       2349       2348  
      2217       2218       2229       2228       2338       2339       2350       2349  
      2218       2219       2230       2229       2339       2340       2351       2350  
      2219       2220       2231       2230       2340       2341       2352       2351  
      2220       2221       2232       2231       2341       2342       2353       2352  
      2221       2222       2233       2232       2342       2343       2354       2353  
      2223       2224       2235       2234       2344       2345       2356       2355  
      2224       2225       2236       2235       2345       2346       2357       2356  
      2225       2226       2237       2236       2346       2347       2358       2357  
      2226       2227       2238       2237       2347       2348       2359       2358  
      2227       2228       2239       2238       2348       2349       2360       2359  
      2228       2229       2240       2239       2349       2350       2361       2360  
      2229       2230       2241       2240       2350       2351       2362       2361  
      2230       2231       2242       2241       2351       2352       2363       2362  
      2231       2232       2243       2242       2352       2353       2364       2363  
      2232       2233       2244       2243       2353       2354       2365       2364  
      2234       2235       2246       2245       2355       2356       2367       2366  
      2235       2236       2247       2246       2356       2357       2368       2367  
      2236       2237       2248       2247       2357       2358       2369       2368  
      2237       2238       2249       2248       2358       2359       2370       2369  
      2238       2239       2250       2249       2359       2360       2371       2370  
      2239       2240       2251       2250       2360       2361       2372       2371  
      2240       2241       2252       2251       2361       2362       2373       2372  
      2241       2242       2253       2252       2362       2363       2374       2373  
      2242       2243       2254       2253       2363       2364       2375       2374  
      2243       2244       2255       2254       2364       2365       2376       2375  
      2245       2246       2257       2256       2366       2367       2378       2377  
      2246       2247       2258       2257       2367       2368       2379       2378  
      2247       2248       2259       2258       2368       2369       2380       2379  
      2248       2249       2260       2259       2369       2370       2381       2380  
      2249       2250       2261       2260       2370       2371       2382       2381  
      2250       2251       2262       2261       2371       2372       2383       2382  
      2251       2252       2263       2262       2372       2373       2384       2383  
      2252       2253       2264       2263       2373       2374       2385       2384  
      2253       2254       2265       2264       2374       2375       2386       2385  
      2254       2255       2266       2265       2375       2376       2387       2386  
      2256       2257       2268       2267       2377       2378       2389       2388  
      2257       2258       2269       2268       2378       2379       2390       2389  
      2258       2259       2270       2269       2379       2380       2391       2390  
      2259       2260       2271       2270       2380       2381       2392       2391  
      2260       2261       2272       2271       2381       2382       2393       2392  
      2261       2262       2273       2272       2382       2383       2394       2393  
      2262       2263       2274       2273       2383       2384       2395       2394  
      2263       2264       2275       2274       2384       2385       2396       2395  
      2264       2265       2276       2275       2385       2386       2397       2396  
      2265       2266       2277       2276       2386       2387       2398       2397  
      2267       2268       2279       2278       2388       2389       2400       2399  
      2268       2269       2280       2279       2389       2390       2401       2400  
      2269       2270       2281       2280       2390       2391       2402       2401  
      2270       2271       2282       2281       2391       2392       2403       2402  
      2271       2272       2283       2282       2392       2393       2404       2403  
      2272       2273       2284       2283       2393       2394       2405       2404  
      2273       2274       2285       2284       2394       2395       2406       2405  
      2274       2275       2286       2285       2395       2396       2407       2406  
      2275       2276       2287       2286       2396       2397       2408       2407  
      2276       2277       2288       2287       2397       2398       2409       2408  
      2278       2279       2290       2289       2399       2400       2411       2410  
      2279       2280       2291       2290       2400       2401       2412       2411  
      2280       2281       2292       2291       2401       2402       2413       2412  
      2281       2282       2293       2292       2402       2403       2414       2413  
      2282       2283       2294       2293       2403       2404       2415       2414  
      2283       2284       2295       2294       2404       2405       2416       2415  
      2284       2285       2296       2295       2405       2406       2417       2416  
      2285       2286       2297       2296       2406       2407       2418       2417  
      2286       2287       2298       2297       2407       2408       2419       2418  
      2287       2288       2299       2298       2408       2409       2420       2419  
      2300       2301       2312       2311       2421       2422       2433       2432  
      2301       2302       2313       2312       2422       2423       2434       2433  
      2302       2303       2314       2313       2423       2424       2435       2434  
      2303       2304       2315       2314       2424       2425       2436       2435  
      2304       2305       2316       2315       2425       2426       2437       2436  
      2305       2306       2317       2316       2426       2427       2438       2437  
      2306       2307       2318       2317       2427       2428       2439       2438  
      2307       2308       2319       2318       2428       2429       2440       2439  
      2308       2309       2320       2319       2429       2430       2441       2440  
      2309       2310       2321       2320       2430       2431       2442       2441  
      2311       2312       2323       2322       2432       2433       2444       2443  
      2312       2313       2324       2323       2433       2434       2445       2444  
      2313       2314       2325       2324       2434       2435       2446       2445  
      2314       2315       2326       2325       2435       2436       2447       2446  
      2315       2316       2327       2326       2436       2437       2448       2447  
      2316       2317       2328       2327       2437       2438       2449       2448  
      2317       2318       2329       2328       2438       2439       2450       2449  
      2318       2319       2330       2329       2439       2440       2451       2450  
      2319       2320       2331       2330       2440       2441       2452       2451  
      2320       2321       2332       2331       2441       2442       2453       2452  
      2322       2323       2334       2333       2443       2444       2455       2454  
      2323       2324       2335       2334       2444       2445       2456       2455  
      2324       2325       2336       2335       2445       2446       2457       2456  
      2325       2326       2337       2336       2446       2447       2458       2457  
      2326       2327       2338       2337       2447       2448       2459       2458  
      2327       2328       2339       2338       2448       2449       2460       2459  
      2328       2329       2340       2339       2449       2450       2461       2460  
      2329       2330       2341       2340       2450       2451       2462       2461  
      2330       2331       2342       2341       2451       2452       2463       2462  
      2331       2332       2343       2342       2452       2453       2464       2463  
      2333       2334       2345       2344       2454       2455       2466       2465  
      2334       2335       2346       2345       2455       2456       2467       2466  
      2335       2336       2347       2346       2456       2457       2468       2467  
      2336       2337       2348       2347       2457       2458       2469       2468  
      2337       2338       2349       2348       2458       2459       2470       2469  
      2338       2339       2350       2349       2459       2460       2471       2470  
      2339       2340       2351       2350       2460       2461       2472       2471  
      2340       2341       2352       2351       2461       2462       2473       2472  
      2341       2342       2353       2352       2462       2463       2474       2473  
      2342       2343       2354       2353       2463       2464       2475       2474  
      2344       2345       2356       2355       2465       2466       2477       2476  
      2345       2346       2357       2356       2466       2467       2478       2477  
      2346       2347       2358       2357       2467       2468       2479       2478  
      2347       2348       2359       2358       2468       2469       2480       2479  
      2348       2349       2360       2359       2469       2470       2481       2480  
      2349       2350       2361       2360       2470       2471       2482       2481  
      2350       2351       2362       2361       2471       2472       2483       2482  
      2351       2352       2363       2362       2472       2473       2484       2483  
      2352       2353       2364       2363       2473       2474       2485       2484  
      2353       2354       2365       2364       2474       2475       2486       2485  
      2355       2356       2367       2366       2476       2477       2488       2487  
      2356       2357       2368       2367       2477       2478       2489       2488  
      2357       2358       2369       2368       2478       2479       2490       2489  
      2358       2359       2370       2369       2479       2480       2491       2490  
      2359       2360       2371       2370       2480       2481       2492       2491  
      2360       2361       2372       2371       2481       2482       2493       2492  
      2361       2362       2373       2372       2482       2483       2494       2493  
      2362       2363       2374       2373       2483       2484       2495       2494  
      2363       2364       2375       2374       2484       2485       2496       2495  
      2364       2365       2376       2375       2485       2486       2497       2496  
      2366       2367       2378       2377       2487       2488       2499       2498  
      2367       2368       2379       2378       2488       2489       2500       2499  
      2368       2369       2380       2379       2489       2490       2501       2500  
      2369       2370       2381       2380       2490       2491       2502       2501  
      2370       2371       2382       2381       2491       2492       2503       2502  
      2371       2372       2383       2382       2492       2493       2504       2503  
      2372       2373       2384       2383       2493       2494       2505       2504  
      2373       2374       2385       2384       2494       2495       2506       2505  
      2374       2375       2386       2385       2495       2496       2507       2506  
      2375       2376       2387       2386       2496       2497       2508       2507  
      2377       2378       2389       2388       2498       2499       2510       2509  
      2378       2379       2390       2389       2499       2500       2511       2510  
      2379       2380       2391       2390       2500       2501       2512       2511  
      2380       2381       2392       2391       2501       2502       2513       2512  
      2381       2382       2393       2392       2502       2503       2514       2513  
      2382       2383       2394       2393       2503       2504       2515       2514  
      2383       2384       2395       2394       2504       2505       2516       2515  
      2384       2385       2396       2395       2505       2506       2517       2516  
      2385       2386       2397       2396       2506       2507       2518       2517  
      2386       2387       2398       2397       2507       2508       2519       2518  
      2388       2389       2400       2399       2509       2510       2521       2520  
      2389       2390       2401       2400       2510       2511       2522       2521  
      2390       2391       2402       2401       2511       2512       2523       2522  
      2391       2392       2403       2402       2512       2513       2524       2523  
      2392       2393       2404       2403       2513       2514       2525       2524  
      2393       2394       2405       2404       2514       2515       2526       2525  
      2394       2395       2406       2405       2515       2516       2527       2526  
      2395       2396       2407       2406       2516       2517       2528       2527  
      2396       2397       2408       2407       2517       2518       2529       2528  
      2397       2398       2409       2408       2518       2519       2530       2529  
      2399       2400       2411       2410       2520       2521       2532       2531  
      2400       2401       2412       2411       2521       2522       2533       2532  
      2401       2402       2413       2412       2522       2523       2534       2533  
      2402       2403       2414       2413       2523       2524       2535       2534  
      2403       2404       2415       2414       2524       2525       2536       2535  
      2404       2405       2416       2415       2525       2526       2537       2536  
      2405       2406       2417       2416       2526       2527       2538       2537  
      2406       2407       2418       2417       2527       2528       2539       2538  
      2407       2408       2419       2418       2528       2529       2540       2539  
      2408       2409       2420       2419       2529       2530       2541       2540  
      2421       2422       2433       2432       2542       2543       2554       2553  
      2422       2423       2434       2433       2543       2544       2555       2554  
      2423       2424       2435       2434       2544       2545       2556       2555  
      2424       2425       2436       2435       2545       2546       2557       2556  
      2425       2426       2437       2436       2546       2547       2558       2557  
      2426       2427       2438       2437       2547       2548       2559       2558  
      2427       2428       2439       2438       2548       2549       2560       2559  
      2428       2429       2440       2439       2549       2550       2561       2560  
      2429       2430       2441       2440       2550       2551       2562       2561  
      2430       2431       2442       2441       2551       2552       2563       2562  
      2432       2433       2444       2443       2553       2554       2565       2564  
      2433       2434       2445       2444       2554       2555       2566       2565  
      2434       2435       2446       2445       2555       2556       2567       2566  
      2435       2436       2447       2446       2556       2557       2568       2567  
      2436       2437       2448       2447       2557       2558       2569       2568  
      2437       2438       2449       2448       2558       2559       2570       2569  
      2438       2439       2450       2449       2559       2560       2571       2570  
      2439       2440       2451       2450       2560       2561       2572       2571  
      2440       2441       2452       2451       2561       2562       2573       2572  
      2441       2442       2453       2452       2562       2563       2574       2573  
      2443       2444       2455       2454       2564       2565       2576       2575  
      2444       2445       2456       2455       2565       2566       2577       2576  
      2445       2446       2457       2456       2566       2567       2578       2577  
      2446       2447       2458       2457       2567       2568       2579       2578  
      2447       2448       2459       2458       2568       2569       2580       2579  
      2448       2449       2460       2459       2569       2570       2581       2580  
      2449       2450       2461       2460       2570       2571       2582       2581  
      2450       2451       2462       2461       2571       2572       2583       2582  
      2451       2452       2463       2462       2572       2573       2584       2583  
      2452       2453       2464       2463       2573       2574       2585       2584  
      2454       2455       2466       2465       2575       2576       2587       2586  
      2455       2456       2467       2466       2576       2577       2588       2587  
      2456       2457       2468       2467       2577       2578       2589       2588  
      2457       2458       2469       2468       2578       2579       2590       2589  
      2458       2459       2470       2469       2579       2580       2591       2590  
      2459       2460       2471       2470       2580       2581       2592       2591  
      2460       2461       2472       2471       2581       2582       2593       2592  
      2461       2462       2473       2472       2582       2583       2594       2593  
      2462       2463       2474       2473       2583       2584       2595       2594  
      2463       2464       2475       2474       2584       2585       2596       2595  
      2465       2466       2477       2476       2586       2587       2598       2597  
      2466       2467       2478       2477       2587       2588       2599       2598  
      2467       2468       2479       2478       2588       2589       2600       2599  
      2468       2469       2480       2479       2589       2590       2601       2600  
      2469       2470       2481       2480       2590       2591       2602       2601  
      2470       2471       2482       2481       2591       2592       2603       2602  
      2471       2472       2483       2482       2592       2593       2604       2603  
      2472       2473       2484       2483       2593       2594       2605       2604  
      2473       2474       2485       2484       2594       2595       2606       2605  
      2474       2475       2486       2485       2595       2596       2607       2606  
      2476       2477       2488       2487       2597       2598       2609       2608  
      2477       2478       2489       2488       2598       2599       2610       2609  
      2478       2479       2490       2489       2599       2600       2611       2610  
      2479       2480       2491       2490       2600       2601       2612       2611  
      2480       2481       2492       2491       2601       2602       2613       2612  
      2481       2482       2493       2492       2602       2603       2614       2613  
      2482       2483       2494       2493       2603       2604       2615       2614  
      2483       2484       2495       2494       2604       2605       2616       2615  
      2484       2485       2496       2495       2605       2606       2617       2616  
      2485       2486       2497       2496       2606       2607       2618       2617  
      2487       2488       2499       2498       2608       2609       2620       2619  
      2488       2489       2500       2499       2609       2610       2621       2620  
      2489       2490       2501       2500       2610       2611       2622       2621  
      2490       2491       2502       2501       2611       2612       2623       2622  
      2491       2492       2503       2502       2612       2613       2624       2623  
      2492       2493       2504       2503       2613       2614       2625       2624  
      2493       2494       2505       2504       2614       2615       2626       2625  
      2494       2495       2506       2505       2615       2616       2627       2626  
      2495       2496       2507       2506       2616       2617       2628       2627  
      2496       2497       2508       2507       2617       2618       2629       2628  
      2498       2499       2510       2509       2619       2620       2631       2630  
      2499       2500       2511       2510       2620       2621       2632       2631  
      2500       2501       2512       2511       2621       2622       2633       2632  
      2501       2502       2513       2512       2622       2623       2634       2633  
      2502       2503       2514       2513       2623       2624       2635       2634  
      2503       2504       2515       2514       2624       2625       2636       2635  
      2504       2505       2516       2515       2625       2626       2637       2636  
      2505       2506       2517       2516       2626       2627       2638       2637  
      2506       2507       2518       2517       2627       2628       2639       2638  
      2507       2508       2519       2518       2628       2629       2640       2639  
      2509       2510       2521       2520       2630       2631       2642       2641  
      2510       2511       2522       2521       2631       2632       2643       2642  
      2511       2512       2523       2522       2632       2633       2644       2643  
      2512       2513       2524       2523       2633       2634       2645       2644  
      2513       2514       2525       2524       2634       2635       2646       2645  
      2514       2515       2526       2525       2635       2636       2647       2646  
      2515       2516       2527       2526       2636       2637       2648       2647  
      2516       2517       2528       2527       2637       2638       2649       2648  
      2517       2518       2529       2528       2638       2639       2650       2649  
      2518       2519       2530       2529       2639       2640       2651       2650  
      2520       2521       2532       2531       2641       2642       2653       2652  
      2521       2522       2533       2532       2642       2643       2654       2653  
      2522       2523       2534       2533       2643       2644       2655       2654  
      2523       2524       2535       2534       2644       2645       2656       2655  
      2524       2525       2536       2535       2645       2646       2657       2656  
      2525       2526       2537       2536       2646       2647       2658       2657  
      2526       2527       2538       2537       2647       2648       2659       2658  
      2527       2528       2539       2538       2648       2649       2660       2659  
      2528       2529       2540       2539       2649       2650       2661       2660  
      2529       2530       2541       2540       2650       2651       2662       2661  
      2542       2543       2554       2553       2663       2664       2675       2674  
      2543       2544       2555       2554       2664       2665       2676       2675  
      2544       2545       2556       2555       2665       2666       2677       2676  
      2545       2546       2557       2556       2666       2667       2678       2677  
      2546       2547       2558       2557       2667       2668       2679       2678  
      2547       2548       2559       2558       2668       2669       2680       2679  
      2548       2549       2560       2559       2669       2670       2681       2680  
      2549       2550       2561       2560       2670       2671       2682       2681  
      2550       2551       2562       2561       2671       2672       2683       2682  
      2551       2552       2563       2562       2672       2673       2684       2683  
      2553       2554       2565       2564       2674       2675       2686       2685  
      2554       2555       2566       2565       2675       2676       2687       2686  
      2555       2556       2567       2566       2676       2677       2688       2687  
      2556       2557       2568       2567       2677       2678       2689       2688  
      2557       2558       2569       2568       2678       2679       2690       2689  
      2558       2559       2570       2569       2679       2680       2691       2690  
      2559       2560       2571       2570       2680       2681       2692       2691  
      2560       2561       2572       2571       2681       2682       2693       2692  
      2561       2562       2573       2572       2682       2683       2694       2693  
      2562       2563       2574       2573       2683       2684       2695       2694  
      2564       2565       2576       2575       2685       2686       2697       2696  
      2565       2566       2577       2576       2686       2687       2698       2697  
      2566       2567       2578       2577       2687       2688       2699       2698  
      2567       2568       2579       2578       2688       2689       2700       2699  
      2568       2569       2580       2579       2689       2690       2701       2700  
      2569       2570       2581       2580       2690       2691       2702       2701  
      2570       2571       2582       2581       2691       2692       2703       2702  
      2571       2572       2583       2582       2692       2693       2704       2703  
      2572       2573       2584       2583       2693       2694       2705       2704  
      2573       2574       2585       2584       2694       2695       2706       2705  
      2575       2576       2587       2586       2696       2697       2708       2707  
      2576       2577       2588       2587       2697       2698       2709       2708  
      2577       2578       2589       2588       2698       2699       2710       2709  
      2578       2579       2590       2589       2699       2700       2711       2710  
      2579       2580       2591       2590       2700       2701       2712       2711  
      2580       2581       2592       2591       2701       2702       2713       2712  
      2581       2582       2593       2592       2702       2703       2714       2713  
      2582       2583       2594       2593       2703       2704       2715       2714  
      2583       2584       2595       2594       2704       2705       2716       2715  
      2584       2585       2596       2595       2705       2706       2717       2716  
      2586       2587       2598       2597       2707       2708       2719       2718  
      2587       2588       2599       2598       2708       2709       2720       2719  
      2588       2589       2600       2599       2709       2710       2721       2720  
      2589       2590       2601       2600       2710       2711       2722       2721  
      2590       2591       2602       2601       2711       2712       2723       2722  
      2591       2592       2603       2602       2712       2713       2724       2723  
      2592       2593       2604       2603       2713       2714       2725       2724  
      2593       2594       2605       2604       2714       2715       2726       2725  
      2594       2595       2606       2605       2715       2716       2727       2726  
      2595       2596       2607       2606       2716       2717       2728       2727  
      2597       2598       2609       2608       2718       2719       2730       2729  
      2598       2599       2610       2609       2719       2720       2731       2730  
      2599       2600       2611       2610       2720       2721       2732       2731  
      2600       2601       2612       2611       2721       2722       2733       2732  
      2601       2602       2613       2612       2722       2723       2734       2733  
      2602       2603       2614       2613       2723       2724       2735       2734  
      2603       2604       2615       2614       2724       2725       2736       2735  
      2604       2605       2616       2615       2725       2726       2737       2736  
      2605       2606       2617       2616       2726       2727       2738       2737  
      2606       2607       2618       2617       2727       2728       2739       2738  
      2608       2609       2620       2619       2729       2730       2741       2740  
      2609       2610       2621       2620       2730       2731       2742       2741  
      2610       2611       2622       2621       2731       2732       2743       2742  
      2611       2612       2623       2622       2732       2733       2744       2743  
      2612       2613       2624       2623       2733       2734       2745       2744  
      2613       2614       2625       2624       2734       2735       2746       2745  
      2614       2615       2626       2625       2735       2736       2747       2746  
      2615       2616       2627       2626       2736       2737       2748       2747  
      2616       2617       2628       2627       2737       2738       2749       2748  
      2617       2618       2629       2628       2738       2739       2750       2749  
      2619       2620       2631       2630       2740       2741       2752       2751  
      2620       2621       2632       2631       2741       2742       2753       2752  
      2621       2622       2633       2632       2742       2743       2754       2753  
      2622       2623       2634       2633       2743       2744       2755       2754  
      2623       2624       2635       2634       2744       2745       2756       2755  
      2624       2625       2636       2635       2745       2746       2757       2756  
      2625       2626       2637       2636       2746       2747       2758       2757  
      2626       2627       2638       2637       2747       2748       2759       2758  
      2627       2628       2639       2638       2748       2749       2760       2759  
      2628       2629       2640       2639       2749       2750       2761       2760  
      2630       2631       2642       2641       2751       2752       2763       2762  
      2631       2632       2643       2642       2752       2753       2764       2763  
      2632       2633       2644       2643       2753       2754       2765       2764  
      2633       2634       2645       2644       2754       2755       2766       2765  
      2634       2635       2646       2645       2755       2756       2767       2766  
      2635       2636       2647       2646       2756       2757       2768       2767  
      2636       2637       2648       2647       2757       2758       2769       2768  
      2637       2638       2649       2648       2758       2759       2770       2769  
      2638       2639       2650       2649       2759       2760       2771       2770  
      2639       2640       2651       2650       2760       2761       2772       2771  
      2641       2642       2653       2652       2762       2763       2774       2773  
      2642       2643       2654       2653       2763       2764       2775       2774  
      2643       2644       2655       2654       2764       2765       2776       2775  
      2644       2645       2656       2655       2765       2766       2777       2776  
      2645       2646       2657       2656       2766       2767       2778       2777  
      2646       2647       2658       2657       2767       2768       2779       2778  
      2647       2648       2659       2658       2768       2769       2780       2779  
      2648       2649       2660       2659       2769       2770       2781       2780  
      2649       2650       2661       2660       2770       2771       2782       2781  
      2650       2651       2662       2661       2771       2772       2783       2782  
      2663       2664       2675       2674       2784       2785       2796       2795  
      2664       2665       2676       2675       2785       2786       2797       2796  
      2665       2666       2677       2676       2786       2787       2798       2797  
      2666       2667       2678       2677       2787       2788       2799       2798  
      2667       2668       2679       2678       2788       2789       2800       2799  
      2668       2669       2680       2679       2789       2790       2801       2800  
      2669       2670       2681       2680       2790       2791       2802       2801  
      2670       2671       2682       2681       2791       2792       2803       2802  
      2671       2672       2683       2682       2792       2793       2804       2803  
      2672       2673       2684       2683       2793       2794       2805       2804  
      2674       2675       2686       2685       2795       2796       2807       2806  
      2675       2676       2687       2686       2796       2797       2808       2807  
      2676       2677       2688       2687       2797       2798       2809       2808  
      2677       2678       2689       2688       2798       2799       2810       2809  
      2678       2679       2690       2689       2799       2800       2811       2810  
      2679       2680       2691       2690       2800       2801       2812       2811  
      2680       2681       2692       2691       2801       2802       2813       2812  
      2681       2682       2693       2692       2802       2803       2814       2813  
      2682       2683       2694       2693       2803       2804       2815       2814  
      2683       2684       2695       2694       2804       2805       2816       2815  
      2685       2686       2697       2696       2806       2807       2818       2817  
      2686       2687       2698       2697       2807       2808       2819       2818  
      2687       2688       2699       2698       2808       2809       2820       2819  
      2688       2689       2700       2699       2809       2810       2821       2820  
      2689       2690       2701       2700       2810       2811       2822       2821  
      2690       2691       2702       2701       2811       2812       2823       2822  
      2691       2692       2703       2702       2812       2813       2824       2823  
      2692       2693       2704       2703       2813       2814       2825       2824  
      2693       2694       2705       2704       2814       2815       2826       2825  
      2694       2695       2706       2705       2815       2816       2827       2826  
      2696       2697       2708       2707       2817       2818       2829       2828  
      2697       2698       2709       2708       2818       2819       2830       2829  
      2698       2699       2710       2709       2819       2820       2831       2830  
      2699       2700       2711       2710       2820       2821       2832       2831  
      2700       2701       2712       2711       2821       2822       2833       2832  
      2701       2702       2713       2712       2822       2823       2834       2833  
      2702       2703       2714       2713       2823       2824       2835       2834  
      2703       2704       2715       2714       2824       2825       2836       2835  
      2704       2705       2716       2715       2825       2826       2837       2836  
      2705       2706       2717       2716       2826       2827       2838       2837  
      2707       2708       2719       2718       2828       2829       2840       2839  
      2708       2709       2720       2719       2829       2830       2841       2840  
      2709       2710       2721       2720       2830       2831       2842       2841  
      2710       2711       2722       2721       2831       2832       2843       2842  
      2711       2712       2723       2722       2832       2833       2844       2843  
      2712       2713       2724       2723       2833       2834       2845       2844  
      2713       2714       2725       2724       2834       2835       2846       2845  
      2714       2715       2726       2725       2835       2836       2847       2846  
      2715       2716       2727       2726       2836       2837       2848       2847  
      2716       2717       2728       2727       2837       2838       2849       2848  
      2718       2719       2730       2729       2839       2840       2851       2850  
      2719       2720       2731       2730       2840       2841       2852       2851  
      2720       2721       2732       2731       2841       2842       2853       2852  
      2721       2722       2733       2732       2842       2843       2854       2853  
      2722       2723       2734       2733       2843       2844       2855       2854  
      2723       2724       2735       2734       2844       2845       2856       2855  
      2724       2725       2736       2735       2845       2846       2857       2856  
      2725       2726       2737       2736       2846       2847       2858       2857  
      2726       2727       2738       2737       2847       2848       2859       2858  
      2727       2728       2739       2738       2848       2849       2860       2859  
      2729       2730       2741       2740       2850       2851       2862       2861  
      2730       2731       2742       2741       2851       2852       2863       2862  
      2731       2732       2743       2742       2852       2853       2864       2863  
      2732       2733       2744       2743       2853       2854       2865       2864  
      2733       2734       2745       2744       2854       2855       2866       2865  
      2734       2735       2746       2745       2855       2856       2867       2866  
      2735       2736       2747       2746       2856       2857       2868       2867  
      2736       2737       2748       2747       2857       2858       2869       2868  
      2737       2738       2749       2748       2858       2859       2870       2869  
      2738       2739       2750       2749       2859       2860       2871       2870  
      2740       2741       2752       2751       2861       2862       2873       2872  
      2741       2742       2753       2752       2862       2863       2874       2873  
      2742       2743       2754       2753       2863       2864       2875       2874  
      2743       2744       2755       2754       2864       2865       2876       2875  
      2744       2745       2756       2755       2865       2866       2877       2876  
      2745       2746       2757       2756       2866       2867       2878       2877  
      2746       2747       2758       2757       2867       2868       2879       2878  
      2747       2748       2759       2758       2868       2869       2880       2879  
      2748       2749       2760       2759       2869       2870       2881       2880  
      2749       2750       2761       2760       2870       2871       2882       2881  
      2751       2752       2763       2762       2872       2873       2884       2883  
      2752       2753       2764       2763       2873       2874       2885       2884  
      2753       2754       2765       2764       2874       2875       2886       2885  
      2754       2755       2766       2765       2875       2876       2887       2886  
      2755       2756       2767       2766       2876       2877       2888       2887  
      2756       2757       2768       2767       2877       2878       2889       2888  
      2757       2758       2769       2768       2878       2879       2890       2889  
      2758       2759       2770       2769       2879       2880       2891       2890  
      2759       2760       2771       2770       2880       2881       2892       2891  
      2760       2761       2772       2771       2881       2882       2893       2892  
      2762       2763       2774       2773       2883       2884       2895       2894  
      2763       2764       2775       2774       2884       2885       2896       2895  
      2764       2765       2776       2775       2885       2886       2897       2896  
      2765       2766       2777       2776       2886       2887       2898       2897  
      2766       2767       2778       2777       2887       2888       2899       2898  
      2767       2768       2779       2778       2888       2889       2900       2899  
      2768       2769       2780       2779       2889       2890       2901       2900  
      2769       2770       2781       2780       2890       2891       2902       2901  
      2770       2771       2782       2781       2891       2892       2903       2902  
      2771       2772       2783       2782       2892       2893       2904       2903  
      2784       2785       2796       2795       2905       2906       2917       2916  
      2785       2786       2797       2796       2906       2907       2918       2917  
      2786       2787       2798       2797       2907       2908       2919       2918  
      2787       2788       2799       2798       2908       2909       2920       2919  
      2788       2789       2800       2799       2909       2910       2921       2920  
      2789       2790       2801       2800       2910       2911       2922       2921  
      2790       2791       2802       2801       2911       2912       2923       2922  
      2791       2792       2803       2802       2912       2913       2924       2923  
      2792       2793       2804       2803       2913       2914       2925       2924  
      2793       2794       2805       2804       2914       2915       2926       2925  
      2795       2796       2807       2806       2916       2917       2928       2927  
      2796       2797       2808       2807       2917       2918       2929       2928  
      2797       2798       2809       2808       2918       2919       2930       2929  
      2798       2799       2810       2809       2919       2920       2931       2930  
      2799       2800       2811       2810       2920       2921       2932       2931  
      2800       2801       2812       2811       2921       2922       2933       2932  
      2801       2802       2813       2812       2922       2923       2934       2933  
      2802       2803       2814       2813       2923       2924       2935       2934  
      2803       2804       2815       2814       2924       2925       2936       2935  
      2804       2805       2816       2815       2925       2926       2937       2936  
      2806       2807       2818       2817       2927       2928       2939       2938  
      2807       2808       2819       2818       2928       2929       2940       2939  
      2808       2809       2820       2819       2929       2930       2941       2940  
      2809       2810       2821       2820       2930       2931       2942       2941  
      2810       2811       2822       2821       2931       2932       2943       2942  
      2811       2812       2823       2822       2932       2933       2944       2943  
      2812       2813       2824       2823       2933       2934       2945       2944  
      2813       2814       2825       2824       2934       2935       2946       2945  
      2814       2815       2826       2825       2935       2936       2947       2946  
      2815       2816       2827       2826       2936       2937       2948       2947  
      2817       2818       2829       2828       2938       2939       2950       2949  
      2818       2819       2830       2829       2939       2940       2951       2950  
      2819       2820       2831       2830       2940       2941       2952       2951  
      2820       2821       2832       2831       2941       2942       2953       2952  
      2821       2822       2833       2832       2942       2943       2954       2953  
      2822       2823       2834       2833       2943       2944       2955       2954  
      2823       2824       2835       2834       2944       2945       2956       2955  
      2824       2825       2836       2835       2945       2946       2957       2956  
      2825       2826       2837       2836       2946       2947       2958       2957  
      2826       2827       2838       2837       2947       2948       2959       2958  
      2828       2829       2840       2839       2949       2950       2961       2960  
      2829       2830       2841       2840       2950       2951       2962       2961  
      2830       2831       2842       2841       2951       2952       2963       2962  
      2831       2832       2843       2842       2952       2953       2964       2963  
      2832       2833       2844       2843       2953       2954       2965       2964  
      2833       2834       2845       2844       2954       2955       2966       2965  
      2834       2835       2846       2845       2955       2956       2967       2966  
      2835       2836       2847       2846       2956       2957       2968       2967  
      2836       2837       2848       2847       2957       2958       2969       2968  
      2837       2838       2849       2848       2958       2959       2970       2969  
      2839       2840       2851       2850       2960       2961       2972       2971  
      2840       2841       2852       2851       2961       2962       2973       2972  
      2841       2842       2853       2852       2962       2963       2974       2973  
      2842       2843       2854       2853       2963       2964       2975       2974  
      2843       2844       2855       2854       2964       2965       2976       2975  
      2844       2845       2856       2855       2965       2966       2977       2976  
      2845       2846       2857       2856       2966       2967       2978       2977  
      2846       2847       2858       2857       2967       2968       2979       2978  
      2847       2848       2859       2858       2968       2969       2980       2979  
      2848       2849       2860       2859       2969       2970       2981       2980  
      2850       2851       2862       2861       2971       2972       2983       2982  
      2851       2852       2863       2862       2972       2973       2984       2983  
      2852       2853       2864       2863       2973       2974       2985       2984  
      2853       2854       2865       2864       2974       2975       2986       2985  
      2854       2855       2866       2865       2975       2976       2987       2986  
      2855       2856       2867       2866       2976       2977       2988       2987  
      2856       2857       2868       2867       2977       2978       2989       2988  
      2857       2858       2869       2868       2978       2979       2990       2989  
      2858       2859       2870       2869       2979       2980       2991       2990  
      2859       2860       2871       2870       2980       2981       2992       2991  
      2861       2862       2873       2872       2982       2983       2994       2993  
      2862       2863       2874       2873       2983       2984       2995       2994  
      2863       2864       2875       2874       2984       2985       2996       2995  
      2864       2865       2876       2875       2985       2986       2997       2996  
      2865       2866       2877       2876       2986       2987       2998       2997  
      2866       2867       2878       2877       2987       2988       2999       2998  
      2867       2868       2879       2878       2988       2989       3000       2999  
      2868       2869       2880       2879       2989       2990       3001       3000  
      2869       2870       2881       2880       2990       2991       3002       3001  
      2870       2871       2882       2881       2991       2992       3003       3002  
      2872       2873       2884       2883       2993       2994       3005       3004  
      2873       2874       2885       2884       2994       2995       3006       3005  
      2874       2875       2886       2885       2995       2996       3007       3006  
      2875       2876       2887       2886       2996       2997       3008       3007  
      2876       2877       2888       2887       2997       2998       3009       3008  
      2877       2878       2889       2888       2998       2999       3010       3009  
      2878       2879       2890       2889       2999       3000       3011       3010  
      2879       2880       2891       2890       3000       3001       3012       3011  
      2880       2881       2892       2891       3001       3002       3013       3012  
      2881       2882       2893       2892       3002       3003       3014       3013  
      2883       2884       2895       2894       3004       3005       3016       3015  
      2884       2885       2896       2895       3005       3006       3017       3016  
      2885       2886       2897       2896       3006       3007       3018       3017  
      2886       2887       2898       2897       3007       3008       3019       3018  
      2887       2888       2899       2898       3008       3009       3020       3019  
      2888       2889       2900       2899       3009       3010       3021       3020  
      2889       2890       2901       2900       3010       3011       3022       3021  
      2890       2891       2902       2901       3011       3012       3023       3022  
      2891       2892       2903       2902       3012       3013       3024       3023  
      2892       2893       2904       2903       3013       3014       3025       3024  
      2905       2906       2917       2916       3026       3027       3038       3037  
      2906       2907       2918       2917       3027       3028       3039       3038  
      2907       2908       2919       2918       3028       3029       3040       3039  
      2908       2909       2920       2919       3029       3030       3041       3040  
      2909       2910       2921       2920       3030       3031       3042       3041  
      2910       2911       2922       2921       3031       3032       3043       3042  
      2911       2912       2923       2922       3032       3033       3044       3043  
      2912       2913       2924       2923       3033       3034       3045       3044  
      2913       2914       2925       2924       3034       3035       3046       3045  
      2914       2915       2926       2925       3035       3036       3047       3046  
      2916       2917       2928       2927       3037       3038       3049       3048  
      2917       2918       2929       2928       3038       3039       3050       3049  
      2918       2919       2930       2929       3039       3040       3051       3050  
      2919       2920       2931       2930       3040       3041       3052       3051  
      2920       2921       2932       2931       3041       3042       3053       3052  
      2921       2922       2933       2932       3042       3043       3054       3053  
      2922       2923       2934       2933       3043       3044       3055       3054  
      2923       2924       2935       2934       3044       3045       3056       3055  
      2924       2925       2936       2935       3045       3046       3057       3056  
      2925       2926       2937       2936       3046       3047       3058       3057  
      2927       2928       2939       2938       3048       3049       3060       3059  
      2928       2929       2940       2939       3049       3050       3061       3060  
      2929       2930       2941       2940       3050       3051       3062       3061  
      2930       2931       2942       2941       3051       3052       3063       3062  
      2931       2932       2943       2942       3052       3053       3064       3063  
      2932       2933       2944       2943       3053       3054       3065       3064  
      2933       2934       2945       2944       3054       3055       3066       3065  
      2934       2935       2946       2945       3055       3056       3067       3066  
      2935       2936       2947       2946       3056       3057       3068       3067  
      2936       2937       2948       2947       3057       3058       3069       3068  
      2938       2939       2950       2949       3059       3060       3071       3070  
      2939       2940       2951       2950       3060       3061       3072       3071  
      2940       2941       2952       2951       3061       3062       3073       3072  
      2941       2942       2953       2952       3062       3063       3074       3073  
      2942       2943       2954       2953       3063       3064       3075       3074  
      2943       2944       2955       2954       3064       3065       3076       3075  
      2944       2945       2956       2955       3065       3066       3077       3076  
      2945       2946       2957       2956       3066       3067       3078       3077  
      2946       2947       2958       2957       3067       3068       3079       3078  
      2947       2948       2959       2958       3068       3069       3080       3079  
      2949       2950       2961       2960       3070       3071       3082       3081  
      2950       2951       2962       2961       3071       3072       3083       3082  
      2951       2952       2963       2962       3072       3073       3084       3083  
      2952       2953       2964       2963       3073       3074       3085       3084  
      2953       2954       2965       2964       3074       3075       3086       3085  
      2954       2955       2966       2965       3075       3076       3087       3086  
      2955       2956       2967       2966       3076       3077       3088       3087  
      2956       2957       2968       2967       3077       3078       3089       3088  
      2957       2958       2969       2968       3078       3079       3090       3089  
      2958       2959       2970       2969       3079       3080       3091       3090  
      2960       2961       2972       2971       3081       3082       3093       3092  
      2961       2962       2973       2972       3082       3083       3094       3093  
      2962       2963       2974       2973       3083       3084       3095       3094  
      2963       2964       2975       2974       3084       3085       3096       3095  
      2964       2965       2976       2975       3085       3086       3097       3096  
      2965       2966       2977       2976       3086       3087       3098       3097  
      2966       2967       2978       2977       3087       3088       3099       3098  
      2967       2968       2979       2978       3088       3089       3100       3099  
      2968       2969       2980       2979       3089       3090       3101       3100  
      2969       2970       2981       2980       3090       3091       3102       3101  
      2971       2972       2983       2982       3092       3093       3104       3103  
      2972       2973       2984       2983       3093       3094       3105       3104  
      2973       2974       2985       2984       3094       3095       3106       3105  
      2974       2975       2986       2985       3095       3096       3107       3106  
      2975       2976       2987       2986       3096       3097       3108       3107  
      2976       2977       2988       2987       3097       3098       3109       3108  
      2977       2978       2989       2988       3098       3099       3110       3109  
      2978       2979       2990       2989       3099       3100       3111       3110  
      2979       2980       2991       2990       3100       3101       3112       3111  
      2980       2981       2992       2991       3101       3102       3113       3112  
      2982       2983       2994       2993       3103       3104       3115       3114  
      2983       2984       2995       2994       3104       3105       3116       3115  
      2984       2985       2996       2995       3105       3106       3117       3116  
      2985       2986       2997       2996       3106       3107       3118       3117  
      2986       2987       2998       2997       3107       3108       3119       3118  
      2987       2988       2999       2998       3108       3109       3120       3119  
      2988       2989       3000       2999       3109       3110       3121       3120  
      2989       2990       3001       3000       3110       3111       3122       3121  
      2990       2991       3002       3001       3111       3112       3123       3122  
      2991       2992       3003       3002       3112       3113       3124       3123  
      2993       2994       3005       3004       3114       3115       3126       3125  
      2994       2995       3006       3005       3115       3116       3127       3126  
      2995       2996       3007       3006       3116       3117       3128       3127  
      2996       2997       3008       3007       3117       3118       3129       3128  
      2997       2998       3009       3008       3118       3119       3130       3129  
      2998       2999       3010       3009       3119       3120       3131       3130  
      2999       3000       3011       3010       3120       3121       3132       3131  
      3000       3001       3012       3011       3121       3122       3133       3132  
      3001       3002       3013       3012       3122       3123       3134       3133  
      3002       3003       3014       3013       3123       3124       3135       3134  
      3004       3005       3016       3015       3125       3126       3137       3136  
      3005       3006       3017       3016       3126       3127       3138       3137  
      3006       3007       3018       3017       3127       3128       3139       3138  
      3007       3008       3019       3018       3128       3129       3140       3139  
      3008       3009       3020       3019       3129       3130       3141       3140  
      3009       3010       3021       3020       3130       3131       3142       3141  
      3010       3011       3022       3021       3131       3132       3143       3142  
      3011       3012       3023       3022       3132       3133       3144       3143  
      3012       3013       3024       3023       3133       3134       3145       3144  
      3013       3014       3025       3024       3134       3135       3146       3145  
      3026       3027       3038       3037       3147       3148       3159       3158  
      3027       3028       3039       3038       3148       3149       3160       3159  
      3028       3029       3040       3039       3149       3150       3161       3160  
      3029       3030       3041       3040       3150       3151       3162       3161  
      3030       3031       3042       3041       3151       3152       3163       3162  
      3031       3032       3043       3042       3152       3153       3164       3163  
      3032       3033       3044       3043       3153       3154       3165       3164  
      3033       3034       3045       3044       3154       3155       3166       3165  
      3034       3035       3046       3045       3155       3156       3167       3166  
      3035       3036       3047       3046       3156       3157       3168       3167  
      3037       3038       3049       3048       3158       3159       3170       3169  
      3038       3039       3050       3049       3159       3160       3171       3170  
      3039       3040       3051       3050       3160       3161       3172       3171  
      3040       3041       3052       3051       3161       3162       3173       3172  
      3041       3042       3053       3052       3162       3163       3174       3173  
      3042       3043       3054       3053       3163       3164       3175       3174  
      3043       3044       3055       3054       3164       3165       3176       3175  
      3044       3045       3056       3055       3165       3166       3177       3176  
      3045       3046       3057       3056       3166       3167       3178       3177  
      3046       3047       3058       3057       3167       3168       3179       3178  
      3048       3049       3060       3059       3169       3170       3181       3180  
      3049       3050       3061       3060       3170       3171       3182       3181  
      3050       3051       3062       3061       3171       3172       3183       3182  
      3051       3052       3063       3062       3172       3173       3184       3183  
      3052       3053       3064       3063       3173       3174       3185       3184  
      3053       3054       3065       3064       3174       3175       3186       3185  
      3054       3055       3066       3065       3175       3176       3187       3186  
      3055       3056       3067       3066       3176       3177       3188       3187  
      3056       3057       3068       3067       3177       3178       3189       3188  
      3057       3058       3069       3068       3178       3179       3190       3189  
      3059       3060       3071       3070       3180       3181       3192       3191  
      3060       3061       3072       3071       3181       3182       3193       3192  
      3061       3062       3073       3072       3182       3183       3194       3193  
      3062       3063       3074       3073       3183       3184       3195       3194  
      3063       3064       3075       3074       3184       3185       3196       3195  
      3064       3065       3076       3075       3185       3186       3197       3196  
      3065       3066       3077       3076       3186       3187       3198       3197  
      3066       3067       3078       3077       3187       3188       3199       3198  
      3067       3068       3079       3078       3188       3189       3200       3199  
      3068       3069       3080       3079       3189       3190       3201       3200  
      3070       3071       3082       3081       3191       3192       3203       3202  
      3071       3072       3083       3082       3192       3193       3204       3203  
      3072       3073       3084       3083       3193       3194       3205       3204  
      3073       3074       3085       3084       3194       3195       3206       3205  
      3074       3075       3086       3085       3195       3196       3207       3206  
      3075       3076       3087       3086       3196       3197       3208       3207  
      3076       3077       3088       3087       3197       3198       3209       3208  
      3077       3078       3089       3088       3198       3199       3210       3209  
      3078       3079       3090       3089       3199       3200       3211       3210  
      3079       3080       3091       3090       3200       3201       3212       3211  
      3081       3082       3093       3092       3202       3203       3214       3213  
      3082       3083       3094       3093       3203       3204       3215       3214  
      3083       3084       3095       3094       3204       3205       3216       3215  
      3084       3085       3096       3095       3205       3206       3217       3216  
      3085       3086       3097       3096       3206       3207       3218       3217  
      3086       3087       3098       3097       3207       3208       3219       3218  
      3087       3088       3099       3098       3208       3209       3220       3219  
      3088       3089       3100       3099       3209       3210       3221       3220  
      3089       3090       3101       3100       3210       3211       3222       3221  
      3090       3091       3102       3101       3211       3212       3223       3222  
      3092       3093       3104       3103       3213       3214       3225       3224  
      3093       3094       3105       3104       3214       3215       3226       3225  
      3094       3095       3106       3105       3215       3216       3227       3226  
      3095       3096       3107       3106       3216       3217       3228       3227  
      3096       3097       3108       3107       3217       3218       3229       3228  
      3097       3098       3109       3108       3218       3219       3230       3229  
      3098       3099       3110       3109       3219       3220       3231       3230  
      3099       3100       3111       3110       3220       3221       3232       3231  
      3100       3101       3112       3111       3221       3222       3233       3232  
      3101       3102       3113       3112       3222       3223       3234       3233  
      3103       3104       3115       3114       3224       3225       3236       3235  
      3104       3105       3116       3115       3225       3226       3237       3236  
      3105       3106       3117       3116       3226       3227       3238       3237  
      3106       3107       3118       3117       3227       3228       3239       3238  
      3107       3108       3119       3118       3228       3229       3240       3239  
      3108       3109       3120       3119       3229       3230       3241       3240  
      3109       3110       3121       3120       3230       3231       3242       3241  
      3110       3111       3122       3121       3231       3232       3243       3242  
      3111       3112       3123       3122       3232       3233       3244       3243  
      3112       3113       3124       3123       3233       3234       3245       3244  
      3114       3115       3126       3125       3235       3236       3247       3246  
      3115       3116       3127       3126       3236       3237       3248       3247  
      3116       3117       3128       3127       3237       3238       3249       3248  
      3117       3118       3129       3128       3238       3239       3250       3249  
      3118       3119       3130       3129       3239       3240       3251       3250  
      3119       3120       3131       3130       3240       3241       3252       3251  
      3120       3121       3132       3131       3241       3242       3253       3252  
      3121       3122       3133       3132       3242       3243       3254       3253  
      3122       3123       3134       3133       3243       3244       3255       3254  
      3123       3124       3135       3134       3244       3245       3256       3255  
      3125       3126       3137       3136       3246       3247       3258       3257  
      3126       3127       3138       3137       3247       3248       3259       3258  
      3127       3128       3139       3138       3248       3249       3260       3259  
      3128       3129       3140       3139       3249       3250       3261       3260  
      3129       3130       3141       3140       3250       3251       3262       3261  
      3130       3131       3142       3141       3251       3252       3263       3262  
      3131       3132       3143       3142       3252       3253       3264       3263  
      3132       3133       3144       3143       3253       3254       3265       3264  
      3133       3134       3145       3144       3254       3255       3266       3265  
      3134       3135       3146       3145       3255       3256       3267       3266  
      3147       3148       3159       3158       3268       3269       3280       3279  
      3148       3149       3160       3159       3269       3270       3281       3280  
      3149       3150       3161       3160       3270       3271       3282       3281  
      3150       3151       3162       3161       3271       3272       3283       3282  
      3151       3152       3163       3162       3272       3273       3284       3283  
      3152       3153       3164       3163       3273       3274       3285       3284  
      3153       3154       3165       3164       3274       3275       3286       3285  
      3154       3155       3166       3165       3275       3276       3287       3286  
      3155       3156       3167       3166       3276       3277       3288       3287  
      3156       3157       3168       3167       3277       3278       3289       3288  
      3158       3159       3170       3169       3279       3280       3291       3290  
      3159       3160       3171       3170       3280       3281       3292       3291  
      3160       3161       3172       3171       3281       3282       3293       3292  
      3161       3162       3173       3172       3282       3283       3294       3293  
      3162       3163       3174       3173       3283       3284       3295       3294  
      3163       3164       3175       3174       3284       3285       3296       3295  
      3164       3165       3176       3175       3285       3286       3297       3296  
      3165       3166       3177       3176       3286       3287       3298       3297  
      3166       3167       3178       3177       3287       3288       3299       3298  
      3167       3168       3179       3178       3288       3289       3300       3299  
      3169       3170       3181       3180       3290       3291       3302       3301  
      3170       3171       3182       3181       3291       3292       3303       3302  
      3171       3172       3183       3182       3292       3293       3304       3303  
      3172       3173       3184       3183       3293       3294       3305       3304  
      3173       3174       3185       3184       3294       3295       3306       3305  
      3174       3175       3186       3185       3295       3296       3307       3306  
      3175       3176       3187       3186       3296       3297       3308       3307  
      3176       3177       3188       3187       3297       3298       3309       3308  
      3177       3178       3189       3188       3298       3299       3310       3309  
      3178       3179       3190       3189       3299       3300       3311       3310  
      3180       3181       3192       3191       3301       3302       3313       3312  
      3181       3182       3193       3192       3302       3303       3314       3313  
      3182       3183       3194       3193       3303       3304       3315       3314  
      3183       3184       3195       3194       3304       3305       3316       3315  
      3184       3185       3196       3195       3305       3306       3317       3316  
      3185       3186       3197       3196       3306       3307       3318       3317  
      3186       3187       3198       3197       3307       3308       3319       3318  
      3187       3188       3199       3198       3308       3309       3320       3319  
      3188       3189       3200       3199       3309       3310       3321       3320  
      3189       3190       3201       3200       3310       3311       3322       3321  
      3191       3192       3203       3202       3312       3313       3324       3323  
      3192       3193       3204       3203       3313       3314       3325       3324  
      3193       3194       3205       3204       3314       3315       3326       3325  
      3194       3195       3206       3205       3315       3316       3327       3326  
      3195       3196       3207       3206       3316       3317       3328       3327  
      3196       3197       3208       3207       3317       3318       3329       3328  
      3197       3198       3209       3208       3318       3319       3330       3329  
      3198       3199       3210       3209       3319       3320       3331       3330  
      3199       3200       3211       3210       3320       3321       3332       3331  
      3200       3201       3212       3211       3321       3322       3333       3332  
      3202       3203       3214       3213       3323       3324       3335       3334  
      3203       3204       3215       3214       3324       3325       3336       3335  
      3204       3205       3216       3215       3325       3326       3337       3336  
      3205       3206       3217       3216       3326       3327       3338       3337  
      3206       3207       3218       3217       3327       3328       3339       3338  
      3207       3208       3219       3218       3328       3329       3340       3339  
      3208       3209       3220       3219       3329       3330       3341       3340  
      3209       3210       3221       3220       3330       3331       3342       3341  
      3210       3211       3222       3221       3331       3332       3343       3342  
      3211       3212       3223       3222       3332       3333       3344       3343  
      3213       3214       3225       3224       3334       3335       3346       3345  
      3214       3215       3226       3225       3335       3336       3347       3346  
      3215       3216       3227       3226       3336       3337       3348       3347  
      3216       3217       3228       3227       3337       3338       3349       3348  
      3217       3218       3229       3228       3338       3339       3350       3349  
      3218       3219       3230       3229       3339       3340       3351       3350  
      3219       3220       3231       3230       3340       3341       3352       3351  
      3220       3221       3232       3231       3341       3342       3353       3352  
      3221       3222       3233       3232       3342       3343       3354       3353  
      3222       3223       3234       3233       3343       3344       3355       3354  
      3224       3225       3236       3235       3345       3346       3357       3356  
      3225       3226       3237       3236       3346       3347       3358       3357  
      3226       3227       3238       3237       3347       3348       3359       3358  
      3227       3228       3239       3238       3348       3349       3360       3359  
      3228       3229       3240       3239       3349       3350       3361       3360  
      3229       3230       3241       3240       3350       3351       3362       3361  
      3230       3231       3242       3241       3351       3352       3363       3362  
      3231       3232       3243       3242       3352       3353       3364       3363  
      3232       3233       3244       3243       3353       3354       3365       3364  
      3233       3234       3245       3244       3354       3355       3366       3365  
      3235       3236       3247       3246       3356       3357       3368       3367  
      3236       3237       3248       3247       3357       3358       3369       3368  
      3237       3238       3249       3248       3358       3359       3370       3369  
      3238       3239       3250       3249       3359       3360       3371       3370  
      3239       3240       3251       3250       3360       3361       3372       3371  
      3240       3241       3252       3251       3361       3362       3373       3372  
      3241       3242       3253       3252       3362       3363       3374       3373  
      3242       3243       3254       3253       3363       3364       3375       3374  
      3243       3244       3255       3254       3364       3365       3376       3375  
      3244       3245       3256       3255       3365       3366       3377       3376  
      3246       3247       3258       3257       3367       3368       3379       3378  
      3247       3248       3259       3258       3368       3369       3380       3379  
      3248       3249       3260       3259       3369       3370       3381       3380  
      3249       3250       3261       3260       3370       3371       3382       3381  
      3250       3251       3262       3261       3371       3372       3383       3382  
      3251       3252       3263       3262       3372       3373       3384       3383  
      3252       3253       3264       3263       3373       3374       3385       3384  
      3253       3254       3265       3264       3374       3375       3386       3385  
      3254       3255       3266       3265       3375       3376       3387       3386  
      3255       3256       3267       3266       3376       3377       3388       3387  
      3268       3269       3280       3279       3389       3390       3401       3400  
      3269       3270       3281       3280       3390       3391       3402       3401  
      3270       3271       3282       3281       3391       3392       3403       3402  
      3271       3272       3283       3282       3392       3393       3404       3403  
      3272       3273       3284       3283       3393       3394       3405       3404  
      3273       3274       3285       3284       3394       3395       3406       3405  
      3274       3275       3286       3285       3395       3396       3407       3406  
      3275       3276       3287       3286       3396       3397       3408       3407  
      3276       3277       3288       3287       3397       3398       3409       3408  
      3277       3278       3289       3288       3398       3399       3410       3409  
      3279       3280       3291       3290       3400       3401       3412       3411  
      3280       3281       3292       3291       3401       3402       3413       3412  
      3281       3282       3293       3292       3402       3403       3414       3413  
      3282       3283       3294       3293       3403       3404       3415       3414  
      3283       3284       3295       3294       3404       3405       3416       3415  
      3284       3285       3296       3295       3405       3406       3417       3416  
      3285       3286       3297       3296       3406       3407       3418       3417  
      3286       3287       3298       3297       3407       3408       3419       3418  
      3287       3288       3299       3298       3408       3409       3420       3419  
      3288       3289       3300       3299       3409       3410       3421       3420  
      3290       3291       3302       3301       3411       3412       3423       3422  
      3291       3292       3303       3302       3412       3413       3424       3423  
      3292       3293       3304       3303       3413       3414       3425       3424  
      3293       3294       3305       3304       3414       3415       3426       3425  
      3294       3295       3306       3305       3415       3416       3427       3426  
      3295       3296       3307       3306       3416       3417       3428       3427  
      3296       3297       3308       3307       3417       3418       3429       3428  
      3297       3298       3309       3308       3418       3419       3430       3429  
      3298       3299       3310       3309       3419       3420       3431       3430  
      3299       3300       3311       3310       3420       3421       3432       3431  
      3301       3302       3313       3312       3422       3423       3434       3433  
      3302       3303       3314       3313       3423       3424       3435       3434  
      3303       3304       3315       3314       3424       3425       3436       3435  
      3304       3305       3316       3315       3425       3426       3437       3436  
      3305       3306       3317       3316       3426       3427       3438       3437  
      3306       3307       3318       3317       3427       3428       3439       3438  
      3307       3308       3319       3318       3428       3429       3440       3439  
      3308       3309       3320       3319       3429       3430       3441       3440  
      3309       3310       3321       3320       3430       3431       3442       3441  
      3310       3311       3322       3321       3431       3432       3443       3442  
      3312       3313       3324       3323       3433       3434       3445       3444  
      3313       3314       3325       3324       3434       3435       3446       3445  
      3314       3315       3326       3325       3435       3436       3447       3446  
      3315       3316       3327       3326       3436       3437       3448       3447  
      3316       3317       3328       3327       3437       3438       3449       3448  
      3317       3318       3329       3328       3438       3439       3450       3449  
      3318       3319       3330       3329       3439       3440       3451       3450  
      3319       3320       3331       3330       3440       3441       3452       3451  
      3320       3321       3332       3331       3441       3442       3453       3452  
      3321       3322       3333       3332       3442       3443       3454       3453  
      3323       3324       3335       3334       3444       3445       3456       3455  
      3324       3325       3336       3335       3445       3446       3457       3456  
      3325       3326       3337       3336       3446       3447       3458       3457  
      3326       3327       3338       3337       3447       3448       3459       3458  
      3327       3328       3339       3338       3448       3449       3460       3459  
      3328       3329       3340       3339       3449       3450       3461       3460  
      3329       3330       3341       3340       3450       3451       3462       3461  
      3330       3331       3342       3341       3451       3452       3463       3462  
      3331       3332       3343       3342       3452       3453       3464       3463  
      3332       3333       3344       3343       3453       3454       3465       3464  
      3334       3335       3346       3345       3455       3456       3467       3466  
      3335       3336       3347       3346       3456       3457       3468       3467  
      3336       3337       3348       3347       3457       3458       3469       3468  
      3337       3338       3349       3348       3458       3459       3470       3469  
      3338       3339       3350       3349       3459       3460       3471       3470  
      3339       3340       3351       3350       3460       3461       3472       3471  
      3340       3341       3352       3351       3461       3462       3473       3472  
      3341       3342       3353       3352       3462       3463       3474       3473  
      3342       3343       3354       3353       3463       3464       3475       3474  
      3343       3344       3355       3354       3464       3465       3476       3475  
      3345       3346       3357       3356       3466       3467       3478       3477  
      3346       3347       3358       3357       3467       3468       3479       3478  
      3347       3348       3359       3358       3468       3469       3480       3479  
      3348       3349       3360       3359       3469       3470       3481       3480  
      3349       3350       3361       3360       3470       3471       3482       3481  
      3350       3351       3362       3361       3471       3472       3483       3482  
      3351       3352       3363       3362       3472       3473       3484       3483  
      3352       3353       3364       3363       3473       3474       3485       3484  
      3353       3354       3365       3364       3474       3475       3486       3485  
      3354       3355       3366       3365       3475       3476       3487       3486  
      3356       3357       3368       3367       3477       3478       3489       3488  
      3357       3358       3369       3368       3478       3479       3490       3489  
      3358       3359       3370       3369       3479       3480       3491       3490  
      3359       3360       3371       3370       3480       3481       3492       3491  
      3360       3361       3372       3371       3481       3482       3493       3492  
      3361       3362       3373       3372       3482       3483       3494       3493  
      3362       3363       3374       3373       3483       3484       3495       3494  
      3363       3364       3375       3374       3484       3485       3496       3495  
      3364       3365       3376       3375       3485       3486       3497       3496  
      3365       3366       3377       3376       3486       3487       3498       3497  
      3367       3368       3379       3378       3488       3489       3500       3499  
      3368       3369       3380       3379       3489       3490       3501       3500  
      3369       3370       3381       3380       3490       3491       3502       3501  
      3370       3371       3382       3381       3491       3492       3503       3502  
      3371       3372       3383       3382       3492       3493       3504       3503  
      3372       3373       3384       3383       3493       3494       3505       3504  
      3373       3374       3385       3384       3494       3495       3506       3505  
      3374       3375       3386       3385       3495       3496       3507       3506  
      3375       3376       3387       3386       3496       3497       3508       3507  
      3376       3377       3388       3387       3497       3498       3509       3508  
      3389       3390       3401       3400       3510       3511       3522       3521  
      3390       3391       3402       3401       3511       3512       3523       3522  
      3391       3392       3403       3402       3512       3513       3524       3523  
      3392       3393       3404       3403       3513       3514       3525       3524  
      3393       3394       3405       3404       3514       3515       3526       3525  
      3394       3395       3406       3405       3515       3516       3527       3526  
      3395       3396       3407       3406       3516       3517       3528       3527  
      3396       3397       3408       3407       3517       3518       3529       3528  
      3397       3398       3409       3408       3518       3519       3530       3529  
      3398       3399       3410       3409       3519       3520       3531       3530  
      3400       3401       3412       3411       3521       3522       3533       3532  
      3401       3402       3413       3412       3522       3523       3534       3533  
      3402       3403       3414       3413       3523       3524       3535       3534  
      3403       3404       3415       3414       3524       3525       3536       3535  
      3404       3405       3416       3415       3525       3526       3537       3536  
      3405       3406       3417       3416       3526       3527       3538       3537  
      3406       3407       3418       3417       3527       3528       3539       3538  
      3407       3408       3419       3418       3528       3529       3540       3539  
      3408       3409       3420       3419       3529       3530       3541       3540  
      3409       3410       3421       3420       3530       3531       3542       3541  
      3411       3412       3423       3422       3532       3533       3544       3543  
      3412       3413       3424       3423       3533       3534       3545       3544  
      3413       3414       3425       3424       3534       3535       3546       3545  
      3414       3415       3426       3425       3535       3536       3547       3546  
      3415       3416       3427       3426       3536       3537       3548       3547  
      3416       3417       3428       3427       3537       3538       3549       3548  
      3417       3418       3429       3428       3538       3539       3550       3549  
      3418       3419       3430       3429       3539       3540       3551       3550  
      3419       3420       3431       3430       3540       3541       3552       3551  
      3420       3421       3432       3431       3541       3542       3553       3552  
      3422       3423       3434       3433       3543       3544       3555       3554  
      3423       3424       3435       3434       3544       3545       3556       3555  
      3424       3425       3436       3435       3545       3546       3557       3556  
      3425       3426       3437       3436       3546       3547       3558       3557  
      3426       3427       3438       3437       3547       3548       3559       3558  
      3427       3428       3439       3438       3548       3549       3560       3559  
      3428       3429       3440       3439       3549       3550       3561       3560  
      3429       3430       3441       3440       3550       3551       3562       3561  
      3430       3431       3442       3441       3551       3552       3563       3562  
      3431       3432       3443       3442       3552       3553       3564       3563  
      3433       3434       3445       3444       3554       3555       3566       3565  
      3434       3435       3446       3445       3555       3556       3567       3566  
      3435       3436       3447       3446       3556       3557       3568       3567  
      3436       3437       3448       3447       3557       3558       3569       3568  
      3437       3438       3449       3448       3558       3559       3570       3569  
      3438       3439       3450       3449       3559       3560       3571       3570  
      3439       3440       3451       3450       3560       3561       3572       3571  
      3440       3441       3452       3451       3561       3562       3573       3572  
      3441       3442       3453       3452       3562       3563       3574       3573  
      3442       3443       3454       3453       3563       3564       3575       3574  
      3444       3445       3456       3455       3565       3566       3577       3576  
      3445       3446       3457       3456       3566       3567       3578       3577  
      3446       3447       3458       3457       3567       3568       3579       3578  
      3447       3448       3459       3458       3568       3569       3580       3579  
      3448       3449       3460       3459       3569       3570       3581       3580  
      3449       3450       3461       3460       3570       3571       3582       3581  
      3450       3451       3462       3461       3571       3572       3583       3582  
      3451       3452       3463       3462       3572       3573       3584       3583  
      3452       3453       3464       3463       3573       3574       3585       3584  
      3453       3454       3465       3464       3574       3575       3586       3585  
      3455       3456       3467       3466       3576       3577       3588       3587  
      3456       3457       3468       3467       3577       3578       3589       3588  
      3457       3458       3469       3468       3578       3579       3590       3589  
      3458       3459       3470       3469       3579       3580       3591       3590  
      3459       3460       3471       3470       3580       3581       3592       3591  
      3460       3461       3472       3471       3581       3582       3593       3592  
      3461       3462       3473       3472       3582       3583       3594       3593  
      3462       3463       3474       3473       3583       3584       3595       3594  
      3463       3464       3475       3474       3584       3585       3596       3595  
      3464       3465       3476       3475       3585       3586       3597       3596  
      3466       3467       3478       3477       3587       3588       3599       3598  
      3467       3468       3479       3478       3588       3589       3600       3599  
      3468       3469       3480       3479       3589       3590       3601       3600  
      3469       3470       3481       3480       3590       3591       3602       3601  
      3470       3471       3482       3481       3591       3592       3603       3602  
      3471       3472       3483       3482       3592       3593       3604       3603  
      3472       3473       3484       3483       3593       3594       3605       3604  
      3473       3474       3485       3484       3594       3595       3606       3605  
      3474       3475       3486       3485       3595       3596       3607       3606  
      3475       3476       3487       3486       3596       3597       3608       3607  
      3477       3478       3489       3488       3598       3599       3610       3609  
      3478       3479       3490       3489       3599       3600       3611       3610  
      3479       3480       3491       3490       3600       3601       3612       3611  
      3480       3481       3492       3491       3601       3602       3613       3612  
      3481       3482       3493       3492       3602       3603       3614       3613  
      3482       3483       3494       3493       3603       3604       3615       3614  
      3483       3484       3495       3494       3604       3605       3616       3615  
      3484       3485       3496       3495       3605       3606       3617       3616  
      3485       3486       3497       3496       3606       3607       3618       3617  
      3486       3487       3498       3497       3607       3608       3619       3618  
      3488       3489       3500       3499       3609       3610       3621       3620  
      3489       3490       3501       3500       3610       3611       3622       3621  
      3490       3491       3502       3501       3611       3612       3623       3622  
      3491       3492       3503       3502       3612       3613       3624       3623  
      3492       3493       3504       3503       3613       3614       3625       3624  
      3493       3494       3505       3504       3614       3615       3626       3625  
      3494       3495       3506       3505       3615       3616       3627       3626  
      3495       3496       3507       3506       3616       3617       3628       3627  
      3496       3497       3508       3507       3617       3618       3629       3628  
      3497       3498       3509       3508       3618       3619       3630       3629  
      3510       3511       3522       3521       3631       3632       3643       3642  
      3511       3512       3523       3522       3632       3633       3644       3643  
      3512       3513       3524       3523       3633       3634       3645       3644  
      3513       3514       3525       3524       3634       3635       3646       3645  
      3514       3515       3526       3525       3635       3636       3647       3646  
      3515       3516       3527       3526       3636       3637       3648       3647  
      3516       3517       3528       3527       3637       3638       3649       3648  
      3517       3518       3529       3528       3638       3639       3650       3649  
      3518       3519       3530       3529       3639       3640       3651       3650  
      3519       3520       3531       3530       3640       3641       3652       3651  
      3521       3522       3533       3532       3642       3643       3654       3653  
      3522       3523       3534       3533       3643       3644       3655       3654  
      3523       3524       3535       3534       3644       3645       3656       3655  
      3524       3525       3536       3535       3645       3646       3657       3656  
      3525       3526       3537       3536       3646       3647       3658       3657  
      3526       3527       3538       3537       3647       3648       3659       3658  
      3527       3528       3539       3538       3648       3649       3660       3659  
      3528       3529       3540       3539       3649       3650       3661       3660  
      3529       3530       3541       3540       3650       3651       3662       3661  
      3530       3531       3542       3541       3651       3652       3663       3662  
      3532       3533       3544       3543       3653       3654       3665       3664  
      3533       3534       3545       3544       3654       3655       3666       3665  
      3534       3535       3546       3545       3655       3656       3667       3666  
      3535       3536       3547       3546       3656       3657       3668       3667  
      3536       3537       3548       3547       3657       3658       3669       3668  
      3537       3538       3549       3548       3658       3659       3670       3669  
      3538       3539       3550       3549       3659       3660       3671       3670  
      3539       3540       3551       3550       3660       3661       3672       3671  
      3540       3541       3552       3551       3661       3662       3673       3672  
      3541       3542       3553       3552       3662       3663       3674       3673  
      3543       3544       3555       3554       3664       3665       3676       3675  
      3544       3545       3556       3555       3665       3666       3677       3676  
      3545       3546       3557       3556       3666       3667       3678       3677  
      3546       3547       3558       3557       3667       3668       3679       3678  
      3547       3548       3559       3558       3668       3669       3680       3679  
      3548       3549       3560       3559       3669       3670       3681       3680  
      3549       3550       3561       3560       3670       3671       3682       3681  
      3550       3551       3562       3561       3671       3672       3683       3682  
      3551       3552       3563       3562       3672       3673       3684       3683  
      3552       3553       3564       3563       3673       3674       3685       3684  
      3554       3555       3566       3565       3675       3676       3687       3686  
      3555       3556       3567       3566       3676       3677       3688       3687  
      3556       3557       3568       3567       3677       3678       3689       3688  
      3557       3558       3569       3568       3678       3679       3690       3689  
      3558       3559       3570       3569       3679       3680       3691       3690  
      3559       3560       3571       3570       3680       3681       3692       3691  
      3560       3561       3572       3571       3681       3682       3693       3692  
      3561       3562       3573       3572       3682       3683       3694       3693  
      3562       3563       3574       3573       3683       3684       3695       3694  
      3563       3564       3575       3574       3684       3685       3696       3695  
      3565       3566       3577       3576       3686       3687       3698       3697  
      3566       3567       3578       3577       3687       3688       3699       3698  
      3567       3568       3579       3578       3688       3689       3700       3699  
      3568       3569       3580       3579       3689       3690       3701       3700  
      3569       3570       3581       3580       3690       3691       3702       3701  
      3570       3571       3582       3581       3691       3692       3703       3702  
      3571       3572       3583       3582       3692       3693       3704       3703  
      3572       3573       3584       3583       3693       3694       3705       3704  
      3573       3574       3585       3584       3694       3695       3706       3705  
      3574       3575       3586       3585       3695       3696       3707       3706  
      3576       3577       3588       3587       3697       3698       3709       3708  
      3577       3578       3589       3588       3698       3699       3710       3709  
      3578       3579       3590       3589       3699       3700       3711       3710  
      3579       3580       3591       3590       3700       3701       3712       3711  
      3580       3581       3592       3591       3701       3702       3713       3712  
      3581       3582       3593       3592       3702       3703       3714       3713  
      3582       3583       3594       3593       3703       3704       3715       3714  
      3583       3584       3595       3594       3704       3705       3716       3715  
      3584       3585       3596       3595       3705       3706       3717       3716  
      3585       3586       3597       3596       3706       3707       3718       3717  
      3587       3588       3599       3598       3708       3709       3720       3719  
      3588       3589       3600       3599       3709       3710       3721       3720  
      3589       3590       3601       3600       3710       3711       3722       3721  
      3590       3591       3602       3601       3711       3712       3723       3722  
      3591       3592       3603       3602       3712       3713       3724       3723  
      3592       3593       3604       3603       3713       3714       3725       3724  
      3593       3594       3605       3604       3714       3715       3726       3725  
      3594       3595       3606       3605       3715       3716       3727       3726  
      3595       3596       3607       3606       3716       3717       3728       3727  
      3596       3597       3608       3607       3717       3718       3729       3728  
      3598       3599       3610       3609       3719       3720       3731       3730  
      3599       3600       3611       3610       3720       3721       3732       3731  
      3600       3601       3612       3611       3721       3722       3733       3732  
      3601       3602       3613       3612       3722       3723       3734       3733  
      3602       3603       3614       3613       3723       3724       3735       3734  
      3603       3604       3615       3614       3724       3725       3736       3735  
      3604       3605       3616       3615       3725       3726       3737       3736  
      3605       3606       3617       3616       3726       3727       3738       3737  
      3606       3607       3618       3617       3727       3728       3739       3738  
      3607       3608       3619       3618       3728       3729       3740       3739  
      3609       3610       3621       3620       3730       3731       3742       3741  
      3610       3611       3622       3621       3731       3732       3743       3742  
      3611       3612       3623       3622       3732       3733       3744       3743  
      3612       3613       3624       3623       3733       3734       3745       3744  
      3613       3614       3625       3624       3734       3735       3746       3745  
      3614       3615       3626       3625       3735       3736       3747       3746  
      3615       3616       3627       3626       3736       3737       3748       3747  
      3616       3617       3628       3627       3737       3738       3749       3748  
      3617       3618       3629       3628       3738       3739       3750       3749  
      3618       3619       3630       3629       3739       3740       3751       3750  
      3631       3632       3643       3642       3752       3753       3764       3763  
      3632       3633       3644       3643       3753       3754       3765       3764  
      3633       3634       3645       3644       3754       3755       3766       3765  
      3634       3635       3646       3645       3755       3756       3767       3766  
      3635       3636       3647       3646       3756       3757       3768       3767  
      3636       3637       3648       3647       3757       3758       3769       3768  
      3637       3638       3649       3648       3758       3759       3770       3769  
      3638       3639       3650       3649       3759       3760       3771       3770  
      3639       3640       3651       3650       3760       3761       3772       3771  
      3640       3641       3652       3651       3761       3762       3773       3772  
      3642       3643       3654       3653       3763       3764       3775       3774  
      3643       3644       3655       3654       3764       3765       3776       3775  
      3644       3645       3656       3655       3765       3766       3777       3776  
      3645       3646       3657       3656       3766       3767       3778       3777  
      3646       3647       3658       3657       3767       3768       3779       3778  
      3647       3648       3659       3658       3768       3769       3780       3779  
      3648       3649       3660       3659       3769       3770       3781       3780  
      3649       3650       3661       3660       3770       3771       3782       3781  
      3650       3651       3662       3661       3771       3772       3783       3782  
      3651       3652       3663       3662       3772       3773       3784       3783  
      3653       3654       3665       3664       3774       3775       3786       3785  
      3654       3655       3666       3665       3775       3776       3787       3786  
      3655       3656       3667       3666       3776       3777       3788       3787  
      3656       3657       3668       3667       3777       3778       3789       3788  
      3657       3658       3669       3668       3778       3779       3790       3789  
      3658       3659       3670       3669       3779       3780       3791       3790  
      3659       3660       3671       3670       3780       3781       3792       3791  
      3660       3661       3672       3671       3781       3782       3793       3792  
      3661       3662       3673       3672       3782       3783       3794       3793  
      3662       3663       3674       3673       3783       3784       3795       3794  
      3664       3665       3676       3675       3785       3786       3797       3796  
      3665       3666       3677       3676       3786       3787       3798       3797  
      3666       3667       3678       3677       3787       3788       3799       3798  
      3667       3668       3679       3678       3788       3789       3800       3799  
      3668       3669       3680       3679       3789       3790       3801       3800  
      3669       3670       3681       3680       3790       3791       3802       3801  
      3670       3671       3682       3681       3791       3792       3803       3802  
      3671       3672       3683       3682       3792       3793       3804       3803  
      3672       3673       3684       3683       3793       3794       3805       3804  
      3673       3674       3685       3684       3794       3795       3806       3805  
      3675       3676       3687       3686       3796       3797       3808       3807  
      3676       3677       3688       3687       3797       3798       3809       3808  
      3677       3678       3689       3688       3798       3799       3810       3809  
      3678       3679       3690       3689       3799       3800       3811       3810  
      3679       3680       3691       3690       3800       3801       3812       3811  
      3680       3681       3692       3691       3801       3802       3813       3812  
      3681       3682       3693       3692       3802       3803       3814       3813  
      3682       3683       3694       3693       3803       3804       3815       3814  
      3683       3684       3695       3694       3804       3805       3816       3815  
      3684       3685       3696       3695       3805       3806       3817       3816  
      3686       3687       3698       3697       3807       3808       3819       3818  
      3687       3688       3699       3698       3808       3809       3820       3819  
      3688       3689       3700       3699       3809       3810       3821       3820  
      3689       3690       3701       3700       3810       3811       3822       3821  
      3690       3691       3702       3701       3811       3812       3823       3822  
      3691       3692       3703       3702       3812       3813       3824       3823  
      3692       3693       3704       3703       3813       3814       3825       3824  
      3693       3694       3705       3704       3814       3815       3826       3825  
      3694       3695       3706       3705       3815       3816       3827       3826  
      3695       3696       3707       3706       3816       3817       3828       3827  
      3697       3698       3709       3708       3818       3819       3830       3829  
      3698       3699       3710       3709       3819       3820       3831       3830  
      3699       3700       3711       3710       3820       3821       3832       3831  
      3700       3701       3712       3711       3821       3822       3833       3832  
      3701       3702       3713       3712       3822       3823       3834       3833  
      3702       3703       3714       3713       3823       3824       3835       3834  
      3703       3704       3715       3714       3824       3825       3836       3835  
      3704       3705       3716       3715       3825       3826       3837       3836  
      3705       3706       3717       3716       3826       3827       3838       3837  
      3706       3707       3718       3717       3827       3828       3839       3838  
      3708       3709       3720       3719       3829       3830       3841       3840  
      3709       3710       3721       3720       3830       3831       3842       3841  
      3710       3711       3722       3721       3831       3832       3843       3842  
      3711       3712       3723       3722       3832       3833       3844       3843  
      3712       3713       3724       3723       3833       3834       3845       3844  
      3713       3714       3725       3724       3834       3835       3846       3845  
      3714       3715       3726       3725       3835       3836       3847       3846  
      3715       3716       3727       3726       3836       3837       3848       3847  
      3716       3717       3728       3727       3837       3838       3849       3848  
      3717       3718       3729       3728       3838       3839       3850       3849  
      3719       3720       3731       3730       3840       3841       3852       3851  
      3720       3721       3732       3731       3841       3842       3853       3852  
      3721       3722       3733       3732       3842       3843       3854       3853  
      3722       3723       3734       3733       3843       3844       3855       3854  
      3723       3724       3735       3734       3844       3845       3856       3855  
      3724       3725       3736       3735       3845       3846       3857       3856  
      3725       3726       3737       3736       3846       3847       3858       3857  
      3726       3727       3738       3737       3847       3848       3859       3858  
      3727       3728       3739       3738       3848       3849       3860       3859  
      3728       3729       3740       3739       3849       3850       3861       3860  
      3730       3731       3742       3741       3851       3852       3863       3862  
      3731       3732       3743       3742       3852       3853       3864       3863  
      3732       3733       3744       3743       3853       3854       3865       3864  
      3733       3734       3745       3744       3854       3855       3866       3865  
      3734       3735       3746       3745       3855       3856       3867       3866  
      3735       3736       3747       3746       3856       3857       3868       3867  
      3736       3737       3748       3747       3857       3858       3869       3868  
      3737       3738       3749       3748       3858       3859       3870       3869  
      3738       3739       3750       3749       3859       3860       3871       3870  
      3739       3740       3751       3750       3860       3861       3872       3871  
      3752       3753       3764       3763       3873       3874       3885       3884  
      3753       3754       3765       3764       3874       3875       3886       3885  
      3754       3755       3766       3765       3875       3876       3887       3886  
      3755       3756       3767       3766       3876       3877       3888       3887  
      3756       3757       3768       3767       3877       3878       3889       3888  
      3757       3758       3769       3768       3878       3879       3890       3889  
      3758       3759       3770       3769       3879       3880       3891       3890  
      3759       3760       3771       3770       3880       3881       3892       3891  
      3760       3761       3772       3771       3881       3882       3893       3892  
      3761       3762       3773       3772       3882       3883       3894       3893  
      3763       3764       3775       3774       3884       3885       3896       3895  
      3764       3765       3776       3775       3885       3886       3897       3896  
      3765       3766       3777       3776       3886       3887       3898       3897  
      3766       3767       3778       3777       3887       3888       3899       3898  
      3767       3768       3779       3778       3888       3889       3900       3899  
      3768       3769       3780       3779       3889       3890       3901       3900  
      3769       3770       3781       3780       3890       3891       3902       3901  
      3770       3771       3782       3781       3891       3892       3903       3902  
      3771       3772       3783       3782       3892       3893       3904       3903  
      3772       3773       3784       3783       3893       3894       3905       3904  
      3774       3775       3786       3785       3895       3896       3907       3906  
      3775       3776       3787       3786       3896       3897       3908       3907  
      3776       3777       3788       3787       3897       3898       3909       3908  
      3777       3778       3789       3788       3898       3899       3910       3909  
      3778       3779       3790       3789       3899       3900       3911       3910  
      3779       3780       3791       3790       3900       3901       3912       3911  
      3780       3781       3792       3791       3901       3902       3913       3912  
      3781       3782       3793       3792       3902       3903       3914       3913  
      3782       3783       3794       3793       3903       3904       3915       3914  
      3783       3784       3795       3794       3904       3905       3916       3915  
      3785       3786       3797       3796       3906       3907       3918       3917  
      3786       3787       3798       3797       3907       3908       3919       3918  
      3787       3788       3799       3798       3908       3909       3920       3919  
      3788       3789       3800       3799       3909       3910       3921       3920  
      3789       3790       3801       3800       3910       3911       3922       3921  
      3790       3791       3802       3801       3911       3912       3923       3922  
      3791       3792       3803       3802       3912       3913       3924       3923  
      3792       3793       3804       3803       3913       3914       3925       3924  
      3793       3794       3805       3804       3914       3915       3926       3925  
      3794       3795       3806       3805       3915       3916       3927       3926  
      3796       3797       3808       3807       3917       3918       3929       3928  
      3797       3798       3809       3808       3918       3919       3930       3929  
      3798       3799       3810       3809       3919       3920       3931       3930  
      3799       3800       3811       3810       3920       3921       3932       3931  
      3800       3801       3812       3811       3921       3922       3933       3932  
      3801       3802       3813       3812       3922       3923       3934       3933  
      3802       3803       3814       3813       3923       3924       3935       3934  
      3803       3804       3815       3814       3924       3925       3936       3935  
      3804       3805       3816       3815       3925       3926       3937       3936  
      3805       3806       3817       3816       3926       3927       3938       3937  
      3807       3808       3819       3818       3928       3929       3940       3939  
      3808       3809       3820       3819       3929       3930       3941       3940  
      3809       3810       3821       3820       3930       3931       3942       3941  
      3810       3811       3822       3821       3931       3932       3943       3942  
      3811       3812       3823       3822       3932       3933       3944       3943  
      3812       3813       3824       3823       3933       3934       3945       3944  
      3813       3814       3825       3824       3934       3935       3946       3945  
      3814       3815       3826       3825       3935       3936       3947       3946  
      3815       3816       3827       3826       3936       3937       3948       3947  
      3816       3817       3828       3827       3937       3938       3949       3948  
      3818       3819       3830       3829       3939       3940       3951       3950  
      3819       3820       3831       3830       3940       3941       3952       3951  
      3820       3821       3832       3831       3941       3942       3953       3952  
      3821       3822       3833       3832       3942       3943       3954       3953  
      3822       3823       3834       3833       3943       3944       3955       3954  
      3823       3824       3835       3834       3944       3945       3956       3955  
      3824       3825       3836       3835       3945       3946       3957       3956  
      3825       3826       3837       3836       3946       3947       3958       3957  
      3826       3827       3838       3837       3947       3948       3959       3958  
      3827       3828       3839       3838       3948       3949       3960       3959  
      3829       3830       3841       3840       3950       3951       3962       3961  
      3830       3831       3842       3841       3951       3952       3963       3962  
      3831       3832       3843       3842       3952       3953       3964       3963  
      3832       3833       3844       3843       3953       3954       3965       3964  
      3833       3834       3845       3844       3954       3955       3966       3965  
      3834       3835       3846       3845       3955       3956       3967       3966  
      3835       3836       3847       3846       3956       3957       3968       3967  
      3836       3837       3848       3847       3957       3958       3969       3968  
      3837       3838       3849       3848       3958       3959       3970       3969  
      3838       3839       3850       3849       3959       3960       3971       3970  
      3840       3841       3852       3851       3961       3962       3973       3972  
      3841       3842       3853       3852       3962       3963       3974       3973  
      3842       3843       3854       3853       3963       3964       3975       3974  
      3843       3844       3855       3854       3964       3965       3976       3975  
      3844       3845       3856       3855       3965       3966       3977       3976  
      3845       3846       3857       3856       3966       3967       3978       3977  
      3846       3847       3858       3857       3967       3968       3979       3978  
      3847       3848       3859       3858       3968       3969       3980       3979  
      3848       3849       3860       3859       3969       3970       3981       3980  
      3849       3850       3861       3860       3970       3971       3982       3981  
      3851       3852       3863       3862       3972       3973       3984       3983  
      3852       3853       3864       3863       3973       3974       3985       3984  
      3853       3854       3865       3864       3974       3975       3986       3985  
      3854       3855       3866       3865       3975       3976       3987       3986  
      3855       3856       3867       3866       3976       3977       3988       3987  
      3856       3857       3868       3867       3977       3978       3989       3988  
      3857       3858       3869       3868       3978       3979       3990       3989  
      3858       3859       3870       3869       3979       3980       3991       3990  
      3859       3860       3871       3870       3980       3981       3992       3991  
      3860       3861       3872       3871       3981       3982       3993       3992  
      3873       3874       3885       3884       3994       3995       4006       4005  
      3874       3875       3886       3885       3995       3996       4007       4006  
      3875       3876       3887       3886       3996       3997       4008       4007  
      3876       3877       3888       3887       3997       3998       4009       4008  
      3877       3878       3889       3888       3998       3999       4010       4009  
      3878       3879       3890       3889       3999       4000       4011       4010  
      3879       3880       3891       3890       4000       4001       4012       4011  
      3880       3881       3892       3891       4001       4002       4013       4012  
      3881       3882       3893       3892       4002       4003       4014       4013  
      3882       3883       3894       3893       4003       4004       4015       4014  
      3884       3885       3896       3895       4005       4006       4017       4016  
      3885       3886       3897       3896       4006       4007       4018       4017  
      3886       3887       3898       3897       4007       4008       4019       4018  
      3887       3888       3899       3898       4008       4009       4020       4019  
      3888       3889       3900       3899       4009       4010       4021       4020  
      3889       3890       3901       3900       4010       4011       4022       4021  
      3890       3891       3902       3901       4011       4012       4023       4022  
      3891       3892       3903       3902       4012       4013       4024       4023  
      3892       3893       3904       3903       4013       4014       4025       4024  
      3893       3894       3905       3904       4014       4015       4026       4025  
      3895       3896       3907       3906       4016       4017       4028       4027  
      3896       3897       3908       3907       4017       4018       4029       4028  
      3897       3898       3909       3908       4018       4019       4030       4029  
      3898       3899       3910       3909       4019       4020       4031       4030  
      3899       3900       3911       3910       4020       4021       4032       4031  
      3900       3901       3912       3911       4021       4022       4033       4032  
      3901       3902       3913       3912       4022       4023       4034       4033  
      3902       3903       3914       3913       4023       4024       4035       4034  
      3903       3904       3915       3914       4024       4025       4036       4035  
      3904       3905       3916       3915       4025       4026       4037       4036  
      3906       3907       3918       3917       4027       4028       4039       4038  
      3907       3908       3919       3918       4028       4029       4040       4039  
      3908       3909       3920       3919       4029       4030       4041       4040  
      3909       3910       3921       3920       4030       4031       4042       4041  
      3910       3911       3922       3921       4031       4032       4043       4042  
      3911       3912       3923       3922       4032       4033       4044       4043  
      3912       3913       3924       3923       4033       4034       4045       4044  
      3913       3914       3925       3924       4034       4035       4046       4045  
      3914       3915       3926       3925       4035       4036       4047       4046  
      3915       3916       3927       3926       4036       4037       4048       4047  
      3917       3918       3929       3928       4038       4039       4050       4049  
      3918       3919       3930       3929       4039       4040       4051       4050  
      3919       3920       3931       3930       4040       4041       4052       4051  
      3920       3921       3932       3931       4041       4042       4053       4052  
      3921       3922       3933       3932       4042       4043       4054       4053  
      3922       3923       3934       3933       4043       4044       4055       4054  
      3923       3924       3935       3934       4044       4045       4056       4055  
      3924       3925       3936       3935       4045       4046       4057       4056  
      3925       3926       3937       3936       4046       4047       4058       4057  
      3926       3927       3938       3937       4047       4048       4059       4058  
      3928       3929       3940       3939       4049       4050       4061       4060  
      3929       3930       3941       3940       4050       4051       4062       4061  
      3930       3931       3942       3941       4051       4052       4063       4062  
      3931       3932       3943       3942       4052       4053       4064       4063  
      3932       3933       3944       3943       4053       4054       4065       4064  
      3933       3934       3945       3944       4054       4055       4066       4065  
      3934       3935       3946       3945       4055       4056       4067       4066  
      3935       3936       3947       3946       4056       4057       4068       4067  
      3936       3937       3948       3947       4057       4058       4069       4068  
      3937       3938       3949       3948       4058       4059       4070       4069  
      3939       3940       3951       3950       4060       4061       4072       4071  
      3940       3941       3952       3951       4061       4062       4073       4072  
      3941       3942       3953       3952       4062       4063       4074       4073  
      3942       3943       3954       3953       4063       4064       4075       4074  
      3943       3944       3955       3954       4064       4065       4076       4075  
      3944       3945       3956       3955       4065       4066       4077       4076  
      3945       3946       3957       3956       4066       4067       4078       4077  
      3946       3947       3958       3957       4067       4068       4079       4078  
      3947       3948       3959       3958       4068       4069       4080       4079  
      3948       3949       3960       3959       4069       4070       4081       4080  
      3950       3951       3962       3961       4071       4072       4083       4082  
      3951       3952       3963       3962       4072       4073       4084       4083  
      3952       3953       3964       3963       4073       4074       4085       4084  
      3953       3954       3965       3964       4074       4075       4086       4085  
      3954       3955       3966       3965       4075       4076       4087       4086  
      3955       3956       3967       3966       4076       4077       4088       4087  
      3956       3957       3968       3967       4077       4078       4089       4088  
      3957       3958       3969       3968       4078       4079       4090       4089  
      3958       3959       3970       3969       4079       4080       4091       4090  
      3959       3960       3971       3970       4080       4081       4092       4091  
      3961       3962       3973       3972       4082       4083       4094       4093  
      3962       3963       3974       3973       4083       4084       4095       4094  
      3963       3964       3975       3974       4084       4085       4096       4095  
      3964       3965       3976       3975       4085       4086       4097       4096  
      3965       3966       3977       3976       4086       4087       4098       4097  
      3966       3967       3978       3977       4087       4088       4099       4098  
      3967       3968       3979       3978       4088       4089       4100       4099  
      3968       3969       3980       3979       4089       4090       4101       4100  
      3969       3970       3981       3980       4090       4091       4102       4101  
      3970       3971       3982       3981       4091       4092       4103       4102  
      3972       3973       3984       3983       4093       4094       4105       4104  
      3973       3974       3985       3984       4094       4095       4106       4105  
      3974       3975       3986       3985       4095       4096       4107       4106  
      3975       3976       3987       3986       4096       4097       4108       4107  
      3976       3977       3988       3987       4097       4098       4109       4108  
      3977       3978       3989       3988       4098       4099       4110       4109  
      3978       3979       3990       3989       4099       4100       4111       4110  
      3979       3980       3991       3990       4100       4101       4112       4111  
      3980       3981       3992       3991       4101       4102       4113       4112  
      3981       3982       3993       3992       4102       4103       4114       4113  
      3994       3995       4006       4005       4115       4116       4127       4126  
      3995       3996       4007       4006       4116       4117       4128       4127  
      3996       3997       4008       4007       4117       4118       4129       4128  
      3997       3998       4009       4008       4118       4119       4130       4129  
      3998       3999       4010       4009       4119       4120       4131       4130  
      3999       4000       4011       4010       4120       4121       4132       4131  
      4000       4001       4012       4011       4121       4122       4133       4132  
      4001       4002       4013       4012       4122       4123       4134       4133  
      4002       4003       4014       4013       4123       4124       4135       4134  
      4003       4004       4015       4014       4124       4125       4136       4135  
      4005       4006       4017       4016       4126       4127       4138       4137  
      4006       4007       4018       4017       4127       4128       4139       4138  
      4007       4008       4019       4018       4128       4129       4140       4139  
      4008       4009       4020       4019       4129       4130       4141       4140  
      4009       4010       4021       4020       4130       4131       4142       4141  
      4010       4011       4022       4021       4131       4132       4143       4142  
      4011       4012       4023       4022       4132       4133       4144       4143  
      4012       4013       4024       4023       4133       4134       4145       4144  
      4013       4014       4025       4024       4134       4135       4146       4145  
      4014       4015       4026       4025       4135       4136       4147       4146  
      4016       4017       4028       4027       4137       4138       4149       4148  
      4017       4018       4029       4028       4138       4139       4150       4149  
      4018       4019       4030       4029       4139       4140       4151       4150  
      4019       4020       4031       4030       4140       4141       4152       4151  
      4020       4021       4032       4031       4141       4142       4153       4152  
      4021       4022       4033       4032       4142       4143       4154       4153  
      4022       4023       4034       4033       4143       4144       4155       4154  
      4023       4024       4035       4034       4144       4145       4156       4155  
      4024       4025       4036       4035       4145       4146       4157       4156  
      4025       4026       4037       4036       4146       4147       4158       4157  
      4027       4028       4039       4038       4148       4149       4160       4159  
      4028       4029       4040       4039       4149       4150       4161       4160  
      4029       4030       4041       4040       4150       4151       4162       4161  
      4030       4031       4042       4041       4151       4152       4163       4162  
      4031       4032       4043       4042       4152       4153       4164       4163  
      4032       4033       4044       4043       4153       4154       4165       4164  
      4033       4034       4045       4044       4154       4155       4166       4165  
      4034       4035       4046       4045       4155       4156       4167       4166  
      4035       4036       4047       4046       4156       4157       4168       4167  
      4036       4037       4048       4047       4157       4158       4169       4168  
      4038       4039       4050       4049       4159       4160       4171       4170  
      4039       4040       4051       4050       4160       4161       4172       4171  
      4040       4041       4052       4051       4161       4162       4173       4172  
      4041       4042       4053       4052       4162       4163       4174       4173  
      4042       4043       4054       4053       4163       4164       4175       4174  
      4043       4044       4055       4054       4164       4165       4176       4175  
      4044       4045       4056       4055       4165       4166       4177       4176  
      4045       4046       4057       4056       4166       4167       4178       4177  
      4046       4047       4058       4057       4167       4168       4179       4178  
      4047       4048       4059       4058       4168       4169       4180       4179  
      4049       4050       4061       4060       4170       4171       4182       4181  
      4050       4051       4062       4061       4171       4172       4183       4182  
      4051       4052       4063       4062       4172       4173       4184       4183  
      4052       4053       4064       4063       4173       4174       4185       4184  
      4053       4054       4065       4064       4174       4175       4186       4185  
      4054       4055       4066       4065       4175       4176       4187       4186  
      4055       4056       4067       4066       4176       4177       4188       4187  
      4056       4057       4068       4067       4177       4178       4189       4188  
      4057       4058       4069       4068       4178       4179       4190       4189  
      4058       4059       4070       4069       4179       4180       4191       4190  
      4060       4061       4072       4071       4181       4182       4193       4192  
      4061       4062       4073       4072       4182       4183       4194       4193  
      4062       4063       4074       4073       4183       4184       4195       4194  
      4063       4064       4075       4074       4184       4185       4196       4195  
      4064       4065       4076       4075       4185       4186       4197       4196  
      4065       4066       4077       4076       4186       4187       4198       4197  
      4066       4067       4078       4077       4187       4188       4199       4198  
      4067       4068       4079       4078       4188       4189       4200       4199  
      4068       4069       4080       4079       4189       4190       4201       4200  
      4069       4070       4081       4080       4190       4191       4202       4201  
      4071       4072       4083       4082       4192       4193       4204       4203  
      4072       4073       4084       4083       4193       4194       4205       4204  
      4073       4074       4085       4084       4194       4195       4206       4205  
      4074       4075       4086       4085       4195       4196       4207       4206  
      4075       4076       4087       4086       4196       4197       4208       4207  
      4076       4077       4088       4087       4197       4198       4209       4208  
      4077       4078       4089       4088       4198       4199       4210       4209  
      4078       4079       4090       4089       4199       4200       4211       4210  
      4079       4080       4091       4090       4200       4201       4212       4211  
      4080       4081       4092       4091       4201       4202       4213       4212  
      4082       4083       4094       4093       4203       4204       4215       4214  
      4083       4084       4095       4094       4204       4205       4216       4215  
      4084       4085       4096       4095       4205       4206       4217       4216  
      4085       4086       4097       4096       4206       4207       4218       4217  
      4086       4087       4098       4097       4207       4208       4219       4218  
      4087       4088       4099       4098       4208       4209       4220       4219  
      4088       4089       4100       4099       4209       4210       4221       4220  
      4089       4090       4101       4100       4210       4211       4222       4221  
      4090       4091       4102       4101       4211       4212       4223       4222  
      4091       4092       4103       4102       4212       4213       4224       4223  
      4093       4094       4105       4104       4214       4215       4226       4225  
      4094       4095       4106       4105       4215       4216       4227       4226  
      4095       4096       4107       4106       4216       4217       4228       4227  
      4096       4097       4108       4107       4217       4218       4229       4228  
      4097       4098       4109       4108       4218       4219       4230       4229  
      4098       4099       4110       4109       4219       4220       4231       4230  
      4099       4100       4111       4110       4220       4221       4232       4231  
      4100       4101       4112       4111       4221       4222       4233       4232  
      4101       4102       4113       4112       4222       4223       4234       4233  
      4102       4103       4114       4113       4223       4224       4235       4234  
      4115       4116       4127       4126       4236       4237       4248       4247  
      4116       4117       4128       4127       4237       4238       4249       4248  
      4117       4118       4129       4128       4238       4239       4250       4249  
      4118       4119       4130       4129       4239       4240       4251       4250  
      4119       4120       4131       4130       4240       4241       4252       4251  
      4120       4121       4132       4131       4241       4242       4253       4252  
      4121       4122       4133       4132       4242       4243       4254       4253  
      4122       4123       4134       4133       4243       4244       4255       4254  
      4123       4124       4135       4134       4244       4245       4256       4255  
      4124       4125       4136       4135       4245       4246       4257       4256  
      4126       4127       4138       4137       4247       4248       4259       4258  
      4127       4128       4139       4138       4248       4249       4260       4259  
      4128       4129       4140       4139       4249       4250       4261       4260  
      4129       4130       4141       4140       4250       4251       4262       4261  
      4130       4131       4142       4141       4251       4252       4263       4262  
      4131       4132       4143       4142       4252       4253       4264       4263  
      4132       4133       4144       4143       4253       4254       4265       4264  
      4133       4134       4145       4144       4254       4255       4266       4265  
      4134       4135       4146       4145       4255       4256       4267       4266  
      4135       4136       4147       4146       4256       4257       4268       4267  
      4137       4138       4149       4148       4258       4259       4270       4269  
      4138       4139       4150       4149       4259       4260       4271       4270  
      4139       4140       4151       4150       4260       4261       4272       4271  
      4140       4141       4152       4151       4261       4262       4273       4272  
      4141       4142       4153       4152       4262       4263       4274       4273  
      4142       4143       4154       4153       4263       4264       4275       4274  
      4143       4144       4155       4154       4264       4265       4276       4275  
      4144       4145       4156       4155       4265       4266       4277       4276  
      4145       4146       4157       4156       4266       4267       4278       4277  
      4146       4147       4158       4157       4267       4268       4279       4278  
      4148       4149       4160       4159       4269       4270       4281       4280  
      4149       4150       4161       4160       4270       4271       4282       4281  
      4150       4151       4162       4161       4271       4272       4283       4282  
      4151       4152       4163       4162       4272       4273       4284       4283  
      4152       4153       4164       4163       4273       4274       4285       4284  
      4153       4154       4165       4164       4274       4275       4286       4285  
      4154       4155       4166       4165       4275       4276       4287       4286  
      4155       4156       4167       4166       4276       4277       4288       4287  
      4156       4157       4168       4167       4277       4278       4289       4288  
      4157       4158       4169       4168       4278       4279       4290       4289  
      4159       4160       4171       4170       4280       4281       4292       4291  
      4160       4161       4172       4171       4281       4282       4293       4292  
      4161       4162       4173       4172       4282       4283       4294       4293  
      4162       4163       4174       4173       4283       4284       4295       4294  
      4163       4164       4175       4174       4284       4285       4296       4295  
      4164       4165       4176       4175       4285       4286       4297       4296  
      4165       4166       4177       4176       4286       4287       4298       4297  
      4166       4167       4178       4177       4287       4288       4299       4298  
      4167       4168       4179       4178       4288       4289       4300       4299  
      4168       4169       4180       4179       4289       4290       4301       4300  
      4170       4171       4182       4181       4291       4292       4303       4302  
      4171       4172       4183       4182       4292       4293       4304       4303  
      4172       4173       4184       4183       4293       4294       4305       4304  
      4173       4174       4185       4184       4294       4295       4306       4305  
      4174       4175       4186       4185       4295       4296       4307       4306  
      4175       4176       4187       4186       4296       4297       4308       4307  
      4176       4177       4188       4187       4297       4298       4309       4308  
      4177       4178       4189       4188       4298       4299       4310       4309  
      4178       4179       4190       4189       4299       4300       4311       4310  
      4179       4180       4191       4190       4300       4301       4312       4311  
      4181       4182       4193       4192       4302       4303       4314       4313  
      4182       4183       4194       4193       4303       4304       4315       4314  
      4183       4184       4195       4194       4304       4305       4316       4315  
      4184       4185       4196       4195       4305       4306       4317       4316  
      4185       4186       4197       4196       4306       4307       4318       4317  
      4186       4187       4198       4197       4307       4308       4319       4318  
      4187       4188       4199       4198       4308       4309       4320       4319  
      4188       4189       4200       4199       4309       4310       4321       4320  
      4189       4190       4201       4200       4310       4311       4322       4321  
      4190       4191       4202       4201       4311       4312       4323       4322  
      4192       4193       4204       4203       4313       4314       4325       4324  
      4193       4194       4205       4204       4314       4315       4326       4325  
      4194       4195       4206       4205       4315       4316       4327       4326  
      4195       4196       4207       4206       4316       4317       4328       4327  
      4196       4197       4208       4207       4317       4318       4329       4328  
      4197       4198       4209       4208       4318       4319       4330       4329  
      4198       4199       4210       4209       4319       4320       4331       4330  
      4199       4200       4211       4210       4320       4321       4332       4331  
      4200       4201       4212       4211       4321       4322       4333       4332  
      4201       4202       4213       4212       4322       4323       4334       4333  
      4203       4204       4215       4214       4324       4325       4336       4335  
      4204       4205       4216       4215       4325       4326       4337       4336  
      4205       4206       4217       4216       4326       4327       4338       4337  
      4206       4207       4218       4217       4327       4328       4339       4338  
      4207       4208       4219       4218       4328       4329       4340       4339  
      4208       4209       4220       4219       4329       4330       4341       4340  
      4209       4210       4221       4220       4330       4331       4342       4341  
      4210       4211       4222       4221       4331       4332       4343       4342  
      4211       4212       4223       4222       4332       4333       4344       4343  
      4212       4213       4224       4223       4333       4334       4345       4344  
      4214       4215       4226       4225       4335       4336       4347       4346  
      4215       4216       4227       4226       4336       4337       4348       4347  
      4216       4217       4228       4227       4337       4338       4349       4348  
      4217       4218       4229       4228       4338       4339       4350       4349  
      4218       4219       4230       4229       4339       4340       4351       4350  
      4219       4220       4231       4230       4340       4341       4352       4351  
      4220       4221       4232       4231       4341       4342       4353       4352  
      4221       4222       4233       4232       4342       4343       4354       4353  
      4222       4223       4234       4233       4343       4344       4355       4354  
      4223       4224       4235       4234       4344       4345       4356       4355  
      4236       4237       4248       4247       4357       4358       4369       4368  
      4237       4238       4249       4248       4358       4359       4370       4369  
      4238       4239       4250       4249       4359       4360       4371       4370  
      4239       4240       4251       4250       4360       4361       4372       4371  
      4240       4241       4252       4251       4361       4362       4373       4372  
      4241       4242       4253       4252       4362       4363       4374       4373  
      4242       4243       4254       4253       4363       4364       4375       4374  
      4243       4244       4255       4254       4364       4365       4376       4375  
      4244       4245       4256       4255       4365       4366       4377       4376  
      4245       4246       4257       4256       4366       4367       4378       4377  
      4247       4248       4259       4258       4368       4369       4380       4379  
      4248       4249       4260       4259       4369       4370       4381       4380  
      4249       4250       4261       4260       4370       4371       4382       4381  
      4250       4251       4262       4261       4371       4372       4383       4382  
      4251       4252       4263       4262       4372       4373       4384       4383  
      4252       4253       4264       4263       4373       4374       4385       4384  
      4253       4254       4265       4264       4374       4375       4386       4385  
      4254       4255       4266       4265       4375       4376       4387       4386  
      4255       4256       4267       4266       4376       4377       4388       4387  
      4256       4257       4268       4267       4377       4378       4389       4388  
      4258       4259       4270       4269       4379       4380       4391       4390  
      4259       4260       4271       4270       4380       4381       4392       4391  
      4260       4261       4272       4271       4381       4382       4393       4392  
      4261       4262       4273       4272       4382       4383       4394       4393  
      4262       4263       4274       4273       4383       4384       4395       4394  
      4263       4264       4275       4274       4384       4385       4396       4395  
      4264       4265       4276       4275       4385       4386       4397       4396  
      4265       4266       4277       4276       4386       4387       4398       4397  
      4266       4267       4278       4277       4387       4388       4399       4398  
      4267       4268       4279       4278       4388       4389       4400       4399  
      4269       4270       4281       4280       4390       4391       4402       4401  
      4270       4271       4282       4281       4391       4392       4403       4402  
      4271       4272       4283       4282       4392       4393       4404       4403  
      4272       4273       4284       4283       4393       4394       4405       4404  
      4273       4274       4285       4284       4394       4395       4406       4405  
      4274       4275       4286       4285       4395       4396       4407       4406  
      4275       4276       4287       4286       4396       4397       4408       4407  
      4276       4277       4288       4287       4397       4398       4409       4408  
      4277       4278       4289       4288       4398       4399       4410       4409  
      4278       4279       4290       4289       4399       4400       4411       4410  
      4280       4281       4292       4291       4401       4402       4413       4412  
      4281       4282       4293       4292       4402       4403       4414       4413  
      4282       4283       4294       4293       4403       4404       4415       4414  
      4283       4284       4295       4294       4404       4405       4416       4415  
      4284       4285       4296       4295       4405       4406       4417       4416  
      4285       4286       4297       4296       4406       4407       4418       4417  
      4286       4287       4298       4297       4407       4408       4419       4418  
      4287       4288       4299       4298       4408       4409       4420       4419  
      4288       4289       4300       4299       4409       4410       4421       4420  
      4289       4290       4301       4300       4410       4411       4422       4421  
      4291       4292       4303       4302       4412       4413       4424       4423  
      4292       4293       4304       4303       4413       4414       4425       4424  
      4293       4294       4305       4304       4414       4415       4426       4425  
      4294       4295       4306       4305       4415       4416       4427       4426  
      4295       4296       4307       4306       4416       4417       4428       4427  
      4296       4297       4308       4307       4417       4418       4429       4428  
      4297       4298       4309       4308       4418       4419       4430       4429  
      4298       4299       4310       4309       4419       4420       4431       4430  
      4299       4300       4311       4310       4420       4421       4432       4431  
      4300       4301       4312       4311       4421       4422       4433       4432  
      4302       4303       4314       4313       4423       4424       4435       4434  
      4303       4304       4315       4314       4424       4425       4436       4435  
      4304       4305       4316       4315       4425       4426       4437       4436  
      4305       4306       4317       4316       4426       4427       4438       4437  
      4306       4307       4318       4317       4427       4428       4439       4438  
      4307       4308       4319       4318       4428       4429       4440       4439  
      4308       4309       4320       4319       4429       4430       4441       4440  
      4309       4310       4321       4320       4430       4431       4442       4441  
      4310       4311       4322       4321       4431       4432       4443       4442  
      4311       4312       4323       4322       4432       4433       4444       4443  
      4313       4314       4325       4324       4434       4435       4446       4445  
      4314       4315       4326       4325       4435       4436       4447       4446  
      4315       4316       4327       4326       4436       4437       4448       4447  
      4316       4317       4328       4327       4437       4438       4449       4448  
      4317       4318       4329       4328       4438       4439       4450       4449  
      4318       4319       4330       4329       4439       4440       4451       4450  
      4319       4320       4331       4330       4440       4441       4452       4451  
      4320       4321       4332       4331       4441       4442       4453       4452  
      4321       4322       4333       4332       4442       4443       4454       4453  
      4322       4323       4334       4333       4443       4444       4455       4454  
      4324       4325       4336       4335       4445       4446       4457       4456  
      4325       4326       4337       4336       4446       4447       4458       4457  
      4326       4327       4338       4337       4447       4448       4459       4458  
      4327       4328       4339       4338       4448       4449       4460       4459  
      4328       4329       4340       4339       4449       4450       4461       4460  
      4329       4330       4341       4340       4450       4451       4462       4461  
      4330       4331       4342       4341       4451       4452       4463       4462  
      4331       4332       4343       4342       4452       4453       4464       4463  
      4332       4333       4344       4343       4453       4454       4465       4464  
      4333       4334       4345       4344       4454       4455       4466       4465  
      4335       4336       4347       4346       4456       4457       4468       4467  
      4336       4337       4348       4347       4457       4458       4469       4468  
      4337       4338       4349       4348       4458       4459       4470       4469  
      4338       4339       4350       4349       4459       4460       4471       4470  
      4339       4340       4351       4350       4460       4461       4472       4471  
      4340       4341       4352       4351       4461       4462       4473       4472  
      4341       4342       4353       4352       4462       4463       4474       4473  
      4342       4343       4354       4353       4463       4464       4475       4474  
      4343       4344       4355       4354       4464       4465       4476       4475  
      4344       4345       4356       4355       4465       4466       4477       4476  
      4357       4358       4369       4368       4478       4479       4490       4489  
      4358       4359       4370       4369       4479       4480       4491       4490  
      4359       4360       4371       4370       4480       4481       4492       4491  
      4360       4361       4372       4371       4481       4482       4493       4492  
      4361       4362       4373       4372       4482       4483       4494       4493  
      4362       4363       4374       4373       4483       4484       4495       4494  
      4363       4364       4375       4374       4484       4485       4496       4495  
      4364       4365       4376       4375       4485       4486       4497       4496  
      4365       4366       4377       4376       4486       4487       4498       4497  
      4366       4367       4378       4377       4487       4488       4499       4498  
      4368       4369       4380       4379       4489       4490       4501       4500  
      4369       4370       4381       4380       4490       4491       4502       4501  
      4370       4371       4382       4381       4491       4492       4503       4502  
      4371       4372       4383       4382       4492       4493       4504       4503  
      4372       4373       4384       4383       4493       4494       4505       4504  
      4373       4374       4385       4384       4494       4495       4506       4505  
      4374       4375       4386       4385       4495       4496       4507       4506  
      4375       4376       4387       4386       4496       4497       4508       4507  
      4376       4377       4388       4387       4497       4498       4509       4508  
      4377       4378       4389       4388       4498       4499       4510       4509  
      4379       4380       4391       4390       4500       4501       4512       4511  
      4380       4381       4392       4391       4501       4502       4513       4512  
      4381       4382       4393       4392       4502       4503       4514       4513  
      4382       4383       4394       4393       4503       4504       4515       4514  
      4383       4384       4395       4394       4504       4505       4516       4515  
      4384       4385       4396       4395       4505       4506       4517       4516  
      4385       4386       4397       4396       4506       4507       4518       4517  
      4386       4387       4398       4397       4507       4508       4519       4518  
      4387       4388       4399       4398       4508       4509       4520       4519  
      4388       4389       4400       4399       4509       4510       4521       4520  
      4390       4391       4402       4401       4511       4512       4523       4522  
      4391       4392       4403       4402       4512       4513       4524       4523  
      4392       4393       4404       4403       4513       4514       4525       4524  
      4393       4394       4405       4404       4514       4515       4526       4525  
      4394       4395       4406       4405       4515       4516       4527       4526  
      4395       4396       4407       4406       4516       4517       4528       4527  
      4396       4397       4408       4407       4517       4518       4529       4528  
      4397       4398       4409       4408       4518       4519       4530       4529  
      4398       4399       4410       4409       4519       4520       4531       4530  
      4399       4400       4411       4410       4520       4521       4532       4531  
      4401       4402       4413       4412       4522       4523       4534       4533  
      4402       4403       4414       4413       4523       4524       4535       4534  
      4403       4404       4415       4414       4524       4525       4536       4535  
      4404       4405       4416       4415       4525       4526       4537       4536  
      4405       4406       4417       4416       4526       4527       4538       4537  
      4406       4407       4418       4417       4527       4528       4539       4538  
      4407       4408       4419       4418       4528       4529       4540       4539  
      4408       4409       4420       4419       4529       4530       4541       4540  
      4409       4410       4421       4420       4530       4531       4542       4541  
      4410       4411       4422       4421       4531       4532       4543       4542  
      4412       4413       4424       4423       4533       4534       4545       4544  
      4413       4414       4425       4424       4534       4535       4546       4545  
      4414       4415       4426       4425       4535       4536       4547       4546  
      4415       4416       4427       4426       4536       4537       4548       4547  
      4416       4417       4428       4427       4537       4538       4549       4548  
      4417       4418       4429       4428       4538       4539       4550       4549  
      4418       4419       4430       4429       4539       4540       4551       4550  
      4419       4420       4431       4430       4540       4541       4552       4551  
      4420       4421       4432       4431       4541       4542       4553       4552  
      4421       4422       4433       4432       4542       4543       4554       4553  
      4423       4424       4435       4434       4544       4545       4556       4555  
      4424       4425       4436       4435       4545       4546       4557       4556  
      4425       4426       4437       4436       4546       4547       4558       4557  
      4426       4427       4438       4437       4547       4548       4559       4558  
      4427       4428       4439       4438       4548       4549       4560       4559  
      4428       4429       4440       4439       4549       4550       4561       4560  
      4429       4430       4441       4440       4550       4551       4562       4561  
      4430       4431       4442       4441       4551       4552       4563       4562  
      4431       4432       4443       4442       4552       4553       4564       4563  
      4432       4433       4444       4443       4553       4554       4565       4564  
      4434       4435       4446       4445       4555       4556       4567       4566  
      4435       4436       4447       4446       4556       4557       4568       4567  
      4436       4437       4448       4447       4557       4558       4569       4568  
      4437       4438       4449       4448       4558       4559       4570       4569  
      4438       4439       4450       4449       4559       4560       4571       4570  
      4439       4440       4451       4450       4560       4561       4572       4571  
      4440       4441       4452       4451       4561       4562       4573       4572  
      4441       4442       4453       4452       4562       4563       4574       4573  
      4442       4443       4454       4453       4563       4564       4575       4574  
      4443       4444       4455       4454       4564       4565       4576       4575  
      4445       4446       4457       4456       4566       4567       4578       4577  
      4446       4447       4458       4457       4567       4568       4579       4578  
      4447       4448       4459       4458       4568       4569       4580       4579  
      4448       4449       4460       4459       4569       4570       4581       4580  
      4449       4450       4461       4460       4570       4571       4582       4581  
      4450       4451       4462       4461       4571       4572       4583       4582  
      4451       4452       4463       4462       4572       4573       4584       4583  
      4452       4453       4464       4463       4573       4574       4585       4584  
      4453       4454       4465       4464       4574       4575       4586       4585  
      4454       4455       4466       4465       4575       4576       4587       4586  
      4456       4457       4468       4467       4577       4578       4589       4588  
      4457       4458       4469       4468       4578       4579       4590       4589  
      4458       4459       4470       4469       4579       4580       4591       4590  
      4459       4460       4471       4470       4580       4581       4592       4591  
      4460       4461       4472       4471       4581       4582       4593       4592  
      4461       4462       4473       4472       4582       4583       4594       4593  
      4462       4463       4474       4473       4583       4584       4595       4594  
      4463       4464       4475       4474       4584       4585       4596       4595  
      4464       4465       4476       4475       4585       4586       4597       4596  
      4465       4466       4477       4476       4586       4587       4598       4597  
      4478       4479       4490       4489       4599       4600       4611       4610  
      4479       4480       4491       4490       4600       4601       4612       4611  
      4480       4481       4492       4491       4601       4602       4613       4612  
      4481       4482       4493       4492       4602       4603       4614       4613  
      4482       4483       4494       4493       4603       4604       4615       4614  
      4483       4484       4495       4494       4604       4605       4616       4615  
      4484       4485       4496       4495       4605       4606       4617       4616  
      4485       4486       4497       4496       4606       4607       4618       4617  
      4486       4487       4498       4497       4607       4608       4619       4618  
      4487       4488       4499       4498       4608       4609       4620       4619  
      4489       4490       4501       4500       4610       4611       4622       4621  
      4490       4491       4502       4501       4611       4612       4623       4622  
      4491       4492       4503       4502       4612       4613       4624       4623  
      4492       4493       4504       4503       4613       4614       4625       4624  
      4493       4494       4505       4504       4614       4615       4626       4625  
      4494       4495       4506       4505       4615       4616       4627       4626  
      4495       4496       4507       4506       4616       4617       4628       4627  
      4496       4497       4508       4507       4617       4618       4629       4628  
      4497       4498       4509       4508       4618       4619       4630       4629  
      4498       4499       4510       4509       4619       4620       4631       4630  
      4500       4501       4512       4511       4621       4622       4633       4632  
      4501       4502       4513       4512       4622       4623       4634       4633  
      4502       4503       4514       4513       4623       4624       4635       4634  
      4503       4504       4515       4514       4624       4625       4636       4635  
      4504       4505       4516       4515       4625       4626       4637       4636  
      4505       4506       4517       4516       4626       4627       4638       4637  
      4506       4507       4518       4517       4627       4628       4639       4638  
      4507       4508       4519       4518       4628       4629       4640       4639  
      4508       4509       4520       4519       4629       4630       4641       4640  
      4509       4510       4521       4520       4630       4631       4642       4641  
      4511       4512       4523       4522       4632       4633       4644       4643  
      4512       4513       4524       4523       4633       4634       4645       4644  
      4513       4514       4525       4524       4634       4635       4646       4645  
      4514       4515       4526       4525       4635       4636       4647       4646  
      4515       4516       4527       4526       4636       4637       4648       4647  
      4516       4517       4528       4527       4637       4638       4649       4648  
      4517       4518       4529       4528       4638       4639       4650       4649  
      4518       4519       4530       4529       4639       4640       4651       4650  
      4519       4520       4531       4530       4640       4641       4652       4651  
      4520       4521       4532       4531       4641       4642       4653       4652  
      4522       4523       4534       4533       4643       4644       4655       4654  
      4523       4524       4535       4534       4644       4645       4656       4655  
      4524       4525       4536       4535       4645       4646       4657       4656  
      4525       4526       4537       4536       4646       4647       4658       4657  
      4526       4527       4538       4537       4647       4648       4659       4658  
      4527       4528       4539       4538       4648       4649       4660       4659  
      4528       4529       4540       4539       4649       4650       4661       4660  
      4529       4530       4541       4540       4650       4651       4662       4661  
      4530       4531       4542       4541       4651       4652       4663       4662  
      4531       4532       4543       4542       4652       4653       4664       4663  
      4533       4534       4545       4544       4654       4655       4666       4665  
      4534       4535       4546       4545       4655       4656       4667       4666  
      4535       4536       4547       4546       4656       4657       4668       4667  
      4536       4537       4548       4547       4657       4658       4669       4668  
      4537       4538       4549       4548       4658       4659       4670       4669  
      4538       4539       4550       4549       4659       4660       4671       4670  
      4539       4540       4551       4550       4660       4661       4672       4671  
      4540       4541       4552       4551       4661       4662       4673       4672  
      4541       4542       4553       4552       4662       4663       4674       4673  
      4542       4543       4554       4553       4663       4664       4675       4674  
      4544       4545       4556       4555       4665       4666       4677       4676  
      4545       4546       4557       4556       4666       4667       4678       4677  
      4546       4547       4558       4557       4667       4668       4679       4678  
      4547       4548       4559       4558       4668       4669       4680       4679  
      4548       4549       4560       4559       4669       4670       4681       4680  
      4549       4550       4561       4560       4670       4671       4682       4681  
      4550       4551       4562       4561       4671       4672       4683       4682  
      4551       4552       4563       4562       4672       4673       4684       4683  
      4552       4553       4564       4563       4673       4674       4685       4684  
      4553       4554       4565       4564       4674       4675       4686       4685  
      4555       4556       4567       4566       4676       4677       4688       4687  
      4556       4557       4568       4567       4677       4678       4689       4688  
      4557       4558       4569       4568       4678       4679       4690       4689  
      4558       4559       4570       4569       4679       4680       4691       4690  
      4559       4560       4571       4570       4680       4681       4692       4691  
      4560       4561       4572       4571       4681       4682       4693       4692  
      4561       4562       4573       4572       4682       4683       4694       4693  
      4562       4563       4574       4573       4683       4684       4695       4694  
      4563       4564       4575       4574       4684       4685       4696       4695  
      4564       4565       4576       4575       4685       4686       4697       4696  
      4566       4567       4578       4577       4687       4688       4699       4698  
      4567       4568       4579       4578       4688       4689       4700       4699  
      4568       4569       4580       4579       4689       4690       4701       4700  
      4569       4570       4581       4580       4690       4691       4702       4701  
      4570       4571       4582       4581       4691       4692       4703       4702  
      4571       4572       4583       4582       4692       4693       4704       4703  
      4572       4573       4584       4583       4693       4694       4705       4704  
      4573       4574       4585       4584       4694       4695       4706       4705  
      4574       4575       4586       4585       4695       4696       4707       4706  
      4575       4576       4587       4586       4696       4697       4708       4707  
      4577       4578       4589       4588       4698       4699       4710       4709  
      4578       4579       4590       4589       4699       4700       4711       4710  
      4579       4580       4591       4590       4700       4701       4712       4711  
      4580       4581       4592       4591       4701       4702       4713       4712  
      4581       4582       4593       4592       4702       4703       4714       4713  
      4582       4583       4594       4593       4703       4704       4715       4714  
      4583       4584       4595       4594       4704       4705       4716       4715  
      4584       4585       4596       4595       4705       4706       4717       4716  
      4585       4586       4597       4596       4706       4707       4718       4717  
      4586       4587       4598       4597       4707       4708       4719       4718  
      4599       4600       4611       4610       4720       4721       4732       4731  
      4600       4601       4612       4611       4721       4722       4733       4732  
      4601       4602       4613       4612       4722       4723       4734       4733  
      4602       4603       4614       4613       4723       4724       4735       4734  
      4603       4604       4615       4614       4724       4725       4736       4735  
      4604       4605       4616       4615       4725       4726       4737       4736  
      4605       4606       4617       4616       4726       4727       4738       4737  
      4606       4607       4618       4617       4727       4728       4739       4738  
      4607       4608       4619       4618       4728       4729       4740       4739  
      4608       4609       4620       4619       4729       4730       4741       4740  
      4610       4611       4622       4621       4731       4732       4743       4742  
      4611       4612       4623       4622       4732       4733       4744       4743  
      4612       4613       4624       4623       4733       4734       4745       4744  
      4613       4614       4625       4624       4734       4735       4746       4745  
      4614       4615       4626       4625       4735       4736       4747       4746  
      4615       4616       4627       4626       4736       4737       4748       4747  
      4616       4617       4628       4627       4737       4738       4749       4748  
      4617       4618       4629       4628       4738       4739       4750       4749  
      4618       4619       4630       4629       4739       4740       4751       4750  
      4619       4620       4631       4630       4740       4741       4752       4751  
      4621       4622       4633       4632       4742       4743       4754       4753  
      4622       4623       4634       4633       4743       4744       4755       4754  
      4623       4624       4635       4634       4744       4745       4756       4755  
      4624       4625       4636       4635       4745       4746       4757       4756  
      4625       4626       4637       4636       4746       4747       4758       4757  
      4626       4627       4638       4637       4747       4748       4759       4758  
      4627       4628       4639       4638       4748       4749       4760       4759  
      4628       4629       4640       4639       4749       4750       4761       4760  
      4629       4630       4641       4640       4750       4751       4762       4761  
      4630       4631       4642       4641       4751       4752       4763       4762  
      4632       4633       4644       4643       4753       4754       4765       4764  
      4633       4634       4645       4644       4754       4755       4766       4765  
      4634       4635       4646       4645       4755       4756       4767       4766  
      4635       4636       4647       4646       4756       4757       4768       4767  
      4636       4637       4648       4647       4757       4758       4769       4768  
      4637       4638       4649       4648       4758       4759       4770       4769  
      4638       4639       4650       4649       4759       4760       4771       4770  
      4639       4640       4651       4650       4760       4761       4772       4771  
      4640       4641       4652       4651       4761       4762       4773       4772  
      4641       4642       4653       4652       4762       4763       4774       4773  
      4643       4644       4655       4654       4764       4765       4776       4775  
      4644       4645       4656       4655       4765       4766       4777       4776  
      4645       4646       4657       4656       4766       4767       4778       4777  
      4646       4647       4658       4657       4767       4768       4779       4778  
      4647       4648       4659       4658       4768       4769       4780       4779  
      4648       4649       4660       4659       4769       4770       4781       4780  
      4649       4650       4661       4660       4770       4771       4782       4781  
      4650       4651       4662       4661       4771       4772       4783       4782  
      4651       4652       4663       4662       4772       4773       4784       4783  
      4652       4653       4664       4663       4773       4774       4785       4784  
      4654       4655       4666       4665       4775       4776       4787       4786  
      4655       4656       4667       4666       4776       4777       4788       4787  
      4656       4657       4668       4667       4777       4778       4789       4788  
      4657       4658       4669       4668       4778       4779       4790       4789  
      4658       4659       4670       4669       4779       4780       4791       4790  
      4659       4660       4671       4670       4780       4781       4792       4791  
      4660       4661       4672       4671       4781       4782       4793       4792  
      4661       4662       4673       4672       4782       4783       4794       4793  
      4662       4663       4674       4673       4783       4784       4795       4794  
      4663       4664       4675       4674       4784       4785       4796       4795  
      4665       4666       4677       4676       4786       4787       4798       4797  
      4666       4667       4678       4677       4787       4788       4799       4798  
      4667       4668       4679       4678       4788       4789       4800       4799  
      4668       4669       4680       4679       4789       4790       4801       4800  
      4669       4670       4681       4680       4790       4791       4802       4801  
      4670       4671       4682       4681       4791       4792       4803       4802  
      4671       4672       4683       4682       4792       4793       4804       4803  
      4672       4673       4684       4683       4793       4794       4805       4804  
      4673       4674       4685       4684       4794       4795       4806       4805  
      4674       4675       4686       4685       4795       4796       4807       4806  
      4676       4677       4688       4687       4797       4798       4809       4808  
      4677       4678       4689       4688       4798       4799       4810       4809  
      4678       4679       4690       4689       4799       4800       4811       4810  
      4679       4680       4691       4690       4800       4801       4812       4811  
      4680       4681       4692       4691       4801       4802       4813       4812  
      4681       4682       4693       4692       4802       4803       4814       4813  
      4682       4683       4694       4693       4803       4804       4815       4814  
      4683       4684       4695       4694       4804       4805       4816       4815  
      4684       4685       4696       4695       4805       4806       4817       4816  
      4685       4686       4697       4696       4806       4807       4818       4817  
      4687       4688       4699       4698       4808       4809       4820       4819  
      4688       4689       4700       4699       4809       4810       4821       4820  
      4689       4690       4701       4700       4810       4811       4822       4821  
      4690       4691       4702       4701       4811       4812       4823       4822  
      4691       4692       4703       4702       4812       4813       4824       4823  
      4692       4693       4704       4703       4813       4814       4825       4824  
      4693       4694       4705       4704       4814       4815       4826       4825  
      4694       4695       4706       4705       4815       4816       4827       4826  
      4695       4696       4707       4706       4816       4817       4828       4827  
      4696       4697       4708       4707       4817       4818       4829       4828  
      4698       4699       4710       4709       4819       4820       4831       4830  
      4699       4700       4711       4710       4820       4821       4832       4831  
      4700       4701       4712       4711       4821       4822       4833       4832  
      4701       4702       4713       4712       4822       4823       4834       4833  
      4702       4703       4714       4713       4823       4824       4835       4834  
      4703       4704       4715       4714       4824       4825       4836       4835  
      4704       4705       4716       4715       4825       4826       4837       4836  
      4705       4706       4717       4716       4826       4827       4838       4837  
      4706       4707       4718       4717       4827       4828       4839       4838  
      4707       4708       4719       4718       4828       4829       4840       4839  
      4720       4721       4732       4731       4841       4842       4853       4852  
      4721       4722       4733       4732       4842       4843       4854       4853  
      4722       4723       4734       4733       4843       4844       4855       4854  
      4723       4724       4735       4734       4844       4845       4856       4855  
      4724       4725       4736       4735       4845       4846       4857       4856  
      4725       4726       4737       4736       4846       4847       4858       4857  
      4726       4727       4738       4737       4847       4848       4859       4858  
      4727       4728       4739       4738       4848       4849       4860       4859  
      4728       4729       4740       4739       4849       4850       4861       4860  
      4729       4730       4741       4740       4850       4851       4862       4861  
      4731       4732       4743       4742       4852       4853       4864       4863  
      4732       4733       4744       4743       4853       4854       4865       4864  
      4733       4734       4745       4744       4854       4855       4866       4865  
      4734       4735       4746       4745       4855       4856       4867       4866  
      4735       4736       4747       4746       4856       4857       4868       4867  
      4736       4737       4748       4747       4857       4858       4869       4868  
      4737       4738       4749       4748       4858       4859       4870       4869  
      4738       4739       4750       4749       4859       4860       4871       4870  
      4739       4740       4751       4750       4860       4861       4872       4871  
      4740       4741       4752       4751       4861       4862       4873       4872  
      4742       4743       4754       4753       4863       4864       4875       4874  
      4743       4744       4755       4754       4864       4865       4876       4875  
      4744       4745       4756       4755       4865       4866       4877       4876  
      4745       4746       4757       4756       4866       4867       4878       4877  
      4746       4747       4758       4757       4867       4868       4879       4878  
      4747       4748       4759       4758       4868       4869       4880       4879  
      4748       4749       4760       4759       4869       4870       4881       4880  
      4749       4750       4761       4760       4870       4871       4882       4881  
      4750       4751       4762       4761       4871       4872       4883       4882  
      4751       4752       4763       4762       4872       4873       4884       4883  
      4753       4754       4765       4764       4874       4875       4886       4885  
      4754       4755       4766       4765       4875       4876       4887       4886  
      4755       4756       4767       4766       4876       4877       4888       4887  
      4756       4757       4768       4767       4877       4878       4889       4888  
      4757       4758       4769       4768       4878       4879       4890       4889  
      4758       4759       4770       4769       4879       4880       4891       4890  
      4759       4760       4771       4770       4880       4881       4892       4891  
      4760       4761       4772       4771       4881       4882       4893       4892  
      4761       4762       4773       4772       4882       4883       4894       4893  
      4762       4763       4774       4773       4883       4884       4895       4894  
      4764       4765       4776       4775       4885       4886       4897       4896  
      4765       4766       4777       4776       4886       4887       4898       4897  
      4766       4767       4778       4777       4887       4888       4899       4898  
      4767       4768       4779       4778       4888       4889       4900       4899  
      4768       4769       4780       4779       4889       4890       4901       4900  
      4769       4770       4781       4780       4890       4891       4902       4901  
      4770       4771       4782       4781       4891       4892       4903       4902  
      4771       4772       4783       4782       4892       4893       4904       4903  
      4772       4773       4784       4783       4893       4894       4905       4904  
      4773       4774       4785       4784       4894       4895       4906       4905  
      4775       4776       4787       4786       4896       4897       4908       4907  
      4776       4777       4788       4787       4897       4898       4909       4908  
      4777       4778       4789       4788       4898       4899       4910       4909  
      4778       4779       4790       4789       4899       4900       4911       4910  
      4779       4780       4791       4790       4900       4901       4912       4911  
      4780       4781       4792       4791       4901       4902       4913       4912  
      4781       4782       4793       4792       4902       4903       4914       4913  
      4782       4783       4794       4793       4903       4904       4915       4914  
      4783       4784       4795       4794       4904       4905       4916       4915  
      4784       4785       4796       4795       4905       4906       4917       4916  
      4786       4787       4798       4797       4907       4908       4919       4918  
      4787       4788       4799       4798       4908       4909       4920       4919  
      4788       4789       4800       4799       4909       4910       4921       4920  
      4789       4790       4801       4800       4910       4911       4922       4921  
      4790       4791       4802       4801       4911       4912       4923       4922  
      4791       4792       4803       4802       4912       4913       4924       4923  
      4792       4793       4804       4803       4913       4914       4925       4924  
      4793       4794       4805       4804       4914       4915       4926       4925  
      4794       4795       4806       4805       4915       4916       4927       4926  
      4795       4796       4807       4806       4916       4917       4928       4927  
      4797       4798       4809       4808       4918       4919       4930       4929  
      4798       4799       4810       4809       4919       4920       4931       4930  
      4799       4800       4811       4810       4920       4921       4932       4931  
      4800       4801       4812       4811       4921       4922       4933       4932  
      4801       4802       4813       4812       4922       4923       4934       4933  
      4802       4803       4814       4813       4923       4924       4935       4934  
      4803       4804       4815       4814       4924       4925       4936       4935  
      4804       4805       4816       4815       4925       4926       4937       4936  
      4805       4806       4817       4816       4926       4927       4938       4937  
      4806       4807       4818       4817       4927       4928       4939       4938  
      4808       4809       4820       4819       4929       4930       4941       4940  
      4809       4810       4821       4820       4930       4931       4942       4941  
      4810       4811       4822       4821       4931       4932       4943       4942  
      4811       4812       4823       4822       4932       4933       4944       4943  
      4812       4813       4824       4823       4933       4934       4945       4944  
      4813       4814       4825       4824       4934       4935       4946       4945  
      4814       4815       4826       4825       4935       4936       4947       4946  
      4815       4816       4827       4826       4936       4937       4948       4947  
      4816       4817       4828       4827       4937       4938       4949       4948  
      4817       4818       4829       4828       4938       4939       4950       4949  
      4819       4820       4831       4830       4940       4941       4952       4951  
      4820       4821       4832       4831       4941       4942       4953       4952  
      4821       4822       4833       4832       4942       4943       4954       4953  
      4822       4823       4834       4833       4943       4944       4955       4954  
      4823       4824       4835       4834       4944       4945       4956       4955  
      4824       4825       4836       4835       4945       4946       4957       4956  
      4825       4826       4837       4836       4946       4947       4958       4957  
      4826       4827       4838       4837       4947       4948       4959       4958  
      4827       4828       4839       4838       4948       4949       4960       4959  
      4828       4829       4840       4839       4949       4950       4961       4960  
      4841       4842       4853       4852       4962       4963       4974       4973  
      4842       4843       4854       4853       4963       4964       4975       4974  
      4843       4844       4855       4854       4964       4965       4976       4975  
      4844       4845       4856       4855       4965       4966       4977       4976  
      4845       4846       4857       4856       4966       4967       4978       4977  
      4846       4847       4858       4857       4967       4968       4979       4978  
      4847       4848       4859       4858       4968       4969       4980       4979  
      4848       4849       4860       4859       4969       4970       4981       4980  
      4849       4850       4861       4860       4970       4971       4982       4981  
      4850       4851       4862       4861       4971       4972       4983       4982  
      4852       4853       4864       4863       4973       4974       4985       4984  
      4853       4854       4865       4864       4974       4975       4986       4985  
      4854       4855       4866       4865       4975       4976       4987       4986  
      4855       4856       4867       4866       4976       4977       4988       4987  
      4856       4857       4868       4867       4977       4978       4989       4988  
      4857       4858       4869       4868       4978       4979       4990       4989  
      4858       4859       4870       4869       4979       4980       4991       4990  
      4859       4860       4871       4870       4980       4981       4992       4991  
      4860       4861       4872       4871       4981       4982       4993       4992  
      4861       4862       4873       4872       4982       4983       4994       4993  
      4863       4864       4875       4874       4984       4985       4996       4995  
      4864       4865       4876       4875       4985       4986       4997       4996  
      4865       4866       4877       4876       4986       4987       4998       4997  
      4866       4867       4878       4877       4987       4988       4999       4998  
      4867       4868       4879       4878       4988       4989       5000       4999  
      4868       4869       4880       4879       4989       4990       5001       5000  
      4869       4870       4881       4880       4990       4991       5002       5001  
      4870       4871       4882       4881       4991       4992       5003       5002  
      4871       4872       4883       4882       4992       4993       5004       5003  
      4872       4873       4884       4883       4993       4994       5005       5004  
      4874       4875       4886       4885       4995       4996       5007       5006  
      4875       4876       4887       4886       4996       4997       5008       5007  
      4876       4877       4888       4887       4997       4998       5009       5008  
      4877       4878       4889       4888       4998       4999       5010       5009  
      4878       4879       4890       4889       4999       5000       5011       5010  
      4879       4880       4891       4890       5000       5001       5012       5011  
      4880       4881       4892       4891       5001       5002       5013       5012  
      4881       4882       4893       4892       5002       5003       5014       5013  
      4882       4883       4894       4893       5003       5004       5015       5014  
      4883       4884       4895       4894       5004       5005       5016       5015  
      4885       4886       4897       4896       5006       5007       5018       5017  
      4886       4887       4898       4897       5007       5008       5019       5018  
      4887       4888       4899       4898       5008       5009       5020       5019  
      4888       4889       4900       4899       5009       5010       5021       5020  
      4889       4890       4901       4900       5010       5011       5022       5021  
      4890       4891       4902       4901       5011       5012       5023       5022  
      4891       4892       4903       4902       5012       5013       5024       5023  
      4892       4893       4904       4903       5013       5014       5025       5024  
      4893       4894       4905       4904       5014       5015       5026       5025  
      4894       4895       4906       4905       5015       5016       5027       5026  
      4896       4897       4908       4907       5017       5018       5029       5028  
      4897       4898       4909       4908       5018       5019       5030       5029  
      4898       4899       4910       4909       5019       5020       5031       5030  
      4899       4900       4911       4910       5020       5021       5032       5031  
      4900       4901       4912       4911       5021       5022       5033       5032  
      4901       4902       4913       4912       5022       5023       5034       5033  
      4902       4903       4914       4913       5023       5024       5035       5034  
      4903       4904       4915       4914       5024       5025       5036       5035  
      4904       4905       4916       4915       5025       5026       5037       5036  
      4905       4906       4917       4916       5026       5027       5038       5037  
      4907       4908       4919       4918       5028       5029       5040       5039  
      4908       4909       4920       4919       5029       5030       5041       5040  
      4909       4910       4921       4920       5030       5031       5042       5041  
      4910       4911       4922       4921       5031       5032       5043       5042  
      4911       4912       4923       4922       5032       5033       5044       5043  
      4912       4913       4924       4923       5033       5034       5045       5044  
      4913       4914       4925       4924       5034       5035       5046       5045  
      4914       4915       4926       4925       5035       5036       5047       5046  
      4915       4916       4927       4926       5036       5037       5048       5047  
      4916       4917       4928       4927       5037       5038       5049       5048  
      4918       4919       4930       4929       5039       5040       5051       5050  
      4919       4920       4931       4930       5040       5041       5052       5051  
      4920       4921       4932       4931       5041       5042       5053       5052  
      4921       4922       4933       4932       5042       5043       5054       5053  
      4922       4923       4934       4933       5043       5044       5055       5054  
      4923       4924       4935       4934       5044       5045       5056       5055  
      4924       4925       4936       4935       5045       5046       5057       5056  
      4925       4926       4937       4936       5046       5047       5058       5057  
      4926       4927       4938       4937       5047       5048       5059       5058  
      4927       4928       4939       4938       5048       5049       5060       5059  
      4929       4930       4941       4940       5050       5051       5062       5061  
      4930       4931       4942       4941       5051       5052       5063       5062  
      4931       4932       4943       4942       5052       5053       5064       5063  
      4932       4933       4944       4943       5053       5054       5065       5064  
      4933       4934       4945       4944       5054       5055       5066       5065  
      4934       4935       4946       4945       5055       5056       5067       5066  
      4935       4936       4947       4946       5056       5057       5068       5067  
      4936       4937       4948       4947       5057       5058       5069       5068  
      4937       4938       4949       4948       5058       5059       5070       5069  
      4938       4939       4950       4949       5059       5060       5071       5070  
      4940       4941       4952       4951       5061       5062       5073       5072  
      4941       4942       4953       4952       5062       5063       5074       5073  
      4942       4943       4954       4953       5063       5064       5075       5074  
      4943       4944       4955       4954       5064       5065       5076       5075  
      4944       4945       4956       4955       5065       5066       5077       5076  
      4945       4946       4957       4956       5066       5067       5078       5077  
      4946       4947       4958       4957       5067       5068       5079       5078  
      4947       4948       4959       4958       5068       5069       5080       5079  
      4948       4949       4960       4959       5069       5070       5081       5080  
      4949       4950       4961       4960       5070       5071       5082       5081  
      4962       4963       4974       4973       5083       5084       5095       5094  
      4963       4964       4975       4974       5084       5085       5096       5095  
      4964       4965       4976       4975       5085       5086       5097       5096  
      4965       4966       4977       4976       5086       5087       5098       5097  
      4966       4967       4978       4977       5087       5088       5099       5098  
      4967       4968       4979       4978       5088       5089       5100       5099  
      4968       4969       4980       4979       5089       5090       5101       5100  
      4969       4970       4981       4980       5090       5091       5102       5101  
      4970       4971       4982       4981       5091       5092       5103       5102  
      4971       4972       4983       4982       5092       5093       5104       5103  
      4973       4974       4985       4984       5094       5095       5106       5105  
      4974       4975       4986       4985       5095       5096       5107       5106  
      4975       4976       4987       4986       5096       5097       5108       5107  
      4976       4977       4988       4987       5097       5098       5109       5108  
      4977       4978       4989       4988       5098       5099       5110       5109  
      4978       4979       4990       4989       5099       5100       5111       5110  
      4979       4980       4991       4990       5100       5101       5112       5111  
      4980       4981       4992       4991       5101       5102       5113       5112  
      4981       4982       4993       4992       5102       5103       5114       5113  
      4982       4983       4994       4993       5103       5104       5115       5114  
      4984       4985       4996       4995       5105       5106       5117       5116  
      4985       4986       4997       4996       5106       5107       5118       5117  
      4986       4987       4998       4997       5107       5108       5119       5118  
      4987       4988       4999       4998       5108       5109       5120       5119  
      4988       4989       5000       4999       5109       5110       5121       5120  
      4989       4990       5001       5000       5110       5111       5122       5121  
      4990       4991       5002       5001       5111       5112       5123       5122  
      4991       4992       5003       5002       5112       5113       5124       5123  
      4992       4993       5004       5003       5113       5114       5125       5124  
      4993       4994       5005       5004       5114       5115       5126       5125  
      4995       4996       5007       5006       5116       5117       5128       5127  
      4996       4997       5008       5007       5117       5118       5129       5128  
      4997       4998       5009       5008       5118       5119       5130       5129  
      4998       4999       5010       5009       5119       5120       5131       5130  
      4999       5000       5011       5010       5120       5121       5132       5131  
      5000       5001       5012       5011       5121       5122       5133       5132  
      5001       5002       5013       5012       5122       5123       5134       5133  
      5002       5003       5014       5013       5123       5124       5135       5134  
      5003       5004       5015       5014       5124       5125       5136       5135  
      5004       5005       5016       5015       5125       5126       5137       5136  
      5006       5007       5018       5017       5127       5128       5139       5138  
      5007       5008       5019       5018       5128       5129       5140       5139  
      5008       5009       5020       5019       5129       5130       5141       5140  
      5009       5010       5021       5020       5130       5131       5142       5141  
      5010       5011       5022       5021       5131       5132       5143       5142  
      5011       5012       5023       5022       5132       5133       5144       5143  
      5012       5013       5024       5023       5133       5134       5145       5144  
      5013       5014       5025       5024       5134       5135       5146       5145  
      5014       5015       5026       5025       5135       5136       5147       5146  
      5015       5016       5027       5026       5136       5137       5148       5147  
      5017       5018       5029       5028       5138       5139       5150       5149  
      5018       5019       5030       5029       5139       5140       5151       5150  
      5019       5020       5031       5030       5140       5141       5152       5151  
      5020       5021       5032       5031       5141       5142       5153       5152  
      5021       5022       5033       5032       5142       5143       5154       5153  
      5022       5023       5034       5033       5143       5144       5155       5154  
      5023       5024       5035       5034       5144       5145       5156       5155  
      5024       5025       5036       5035       5145       5146       5157       5156  
      5025       5026       5037       5036       5146       5147       5158       5157  
      5026       5027       5038       5037       5147       5148       5159       5158  
      5028       5029       5040       5039       5149       5150       5161       5160  
      5029       5030       5041       5040       5150       5151       5162       5161  
      5030       5031       5042       5041       5151       5152       5163       5162  
      5031       5032       5043       5042       5152       5153       5164       5163  
      5032       5033       5044       5043       5153       5154       5165       5164  
      5033       5034       5045       5044       5154       5155       5166       5165  
      5034       5035       5046       5045       5155       5156       5167       5166  
      5035       5036       5047       5046       5156       5157       5168       5167  
      5036       5037       5048       5047       5157       5158       5169       5168  
      5037       5038       5049       5048       5158       5159       5170       5169  
      5039       5040       5051       5050       5160       5161       5172       5171  
      5040       5041       5052       5051       5161       5162       5173       5172  
      5041       5042       5053       5052       5162       5163       5174       5173  
      5042       5043       5054       5053       5163       5164       5175       5174  
      5043       5044       5055       5054       5164       5165       5176       5175  
      5044       5045       5056       5055       5165       5166       5177       5176  
      5045       5046       5057       5056       5166       5167       5178       5177  
      5046       5047       5058       5057       5167       5168       5179       5178  
      5047       5048       5059       5058       5168       5169       5180       5179  
      5048       5049       5060       5059       5169       5170       5181       5180  
      5050       5051       5062       5061       5171       5172       5183       5182  
      5051       5052       5063       5062       5172       5173       5184       5183  
      5052       5053       5064       5063       5173       5174       5185       5184  
      5053       5054       5065       5064       5174       5175       5186       5185  
      5054       5055       5066       5065       5175       5176       5187       5186  
      5055       5056       5067       5066       5176       5177       5188       5187  
      5056       5057       5068       5067       5177       5178       5189       5188  
      5057       5058       5069       5068       5178       5179       5190       5189  
      5058       5059       5070       5069       5179       5180       5191       5190  
      5059       5060       5071       5070       5180       5181       5192       5191  
      5061       5062       5073       5072       5182       5183       5194       5193  
      5062       5063       5074       5073       5183       5184       5195       5194  
      5063       5064       5075       5074       5184       5185       5196       5195  
      5064       5065       5076       5075       5185       5186       5197       5196  
      5065       5066       5077       5076       5186       5187       5198       5197  
      5066       5067       5078       5077       5187       5188       5199       5198  
      5067       5068       5079       5078       5188       5189       5200       5199  
      5068       5069       5080       5079       5189       5190       5201       5200  
      5069       5070       5081       5080       5190       5191       5202       5201  
      5070       5071       5082       5081       5191       5192       5203       5202  
      5083       5084       5095       5094       5204       5205       5216       5215  
      5084       5085       5096       5095       5205       5206       5217       5216  
      5085       5086       5097       5096       5206       5207       5218       5217  
      5086       5087       5098       5097       5207       5208       5219       5218  
      5087       5088       5099       5098       5208       5209       5220       5219  
      5088       5089       5100       5099       5209       5210       5221       5220  
      5089       5090       5101       5100       5210       5211       5222       5221  
      5090       5091       5102       5101       5211       5212       5223       5222  
      5091       5092       5103       5102       5212       5213       5224       5223  
      5092       5093       5104       5103       5213       5214       5225       5224  
      5094       5095       5106       5105       5215       5216       5227       5226  
      5095       5096       5107       5106       5216       5217       5228       5227  
      5096       5097       5108       5107       5217       5218       5229       5228  
      5097       5098       5109       5108       5218       5219       5230       5229  
      5098       5099       5110       5109       5219       5220       5231       5230  
      5099       5100       5111       5110       5220       5221       5232       5231  
      5100       5101       5112       5111       5221       5222       5233       5232  
      5101       5102       5113       5112       5222       5223       5234       5233  
      5102       5103       5114       5113       5223       5224       5235       5234  
      5103       5104       5115       5114       5224       5225       5236       5235  
      5105       5106       5117       5116       5226       5227       5238       5237  
      5106       5107       5118       5117       5227       5228       5239       5238  
      5107       5108       5119       5118       5228       5229       5240       5239  
      5108       5109       5120       5119       5229       5230       5241       5240  
      5109       5110       5121       5120       5230       5231       5242       5241  
      5110       5111       5122       5121       5231       5232       5243       5242  
      5111       5112       5123       5122       5232       5233       5244       5243  
      5112       5113       5124       5123       5233       5234       5245       5244  
      5113       5114       5125       5124       5234       5235       5246       5245  
      5114       5115       5126       5125       5235       5236       5247       5246  
      5116       5117       5128       5127       5237       5238       5249       5248  
      5117       5118       5129       5128       5238       5239       5250       5249  
      5118       5119       5130       5129       5239       5240       5251       5250  
      5119       5120       5131       5130       5240       5241       5252       5251  
      5120       5121       5132       5131       5241       5242       5253       5252  
      5121       5122       5133       5132       5242       5243       5254       5253  
      5122       5123       5134       5133       5243       5244       5255       5254  
      5123       5124       5135       5134       5244       5245       5256       5255  
      5124       5125       5136       5135       5245       5246       5257       5256  
      5125       5126       5137       5136       5246       5247       5258       5257  
      5127       5128       5139       5138       5248       5249       5260       5259  
      5128       5129       5140       5139       5249       5250       5261       5260  
      5129       5130       5141       5140       5250       5251       5262       5261  
      5130       5131       5142       5141       5251       5252       5263       5262  
      5131       5132       5143       5142       5252       5253       5264       5263  
      5132       5133       5144       5143       5253       5254       5265       5264  
      5133       5134       5145       5144       5254       5255       5266       5265  
      5134       5135       5146       5145       5255       5256       5267       5266  
      5135       5136       5147       5146       5256       5257       5268       5267  
      5136       5137       5148       5147       5257       5258       5269       5268  
      5138       5139       5150       5149       5259       5260       5271       5270  
      5139       5140       5151       5150       5260       5261       5272       5271  
      5140       5141       5152       5151       5261       5262       5273       5272  
      5141       5142       5153       5152       5262       5263       5274       5273  
      5142       5143       5154       5153       5263       5264       5275       5274  
      5143       5144       5155       5154       5264       5265       5276       5275  
      5144       5145       5156       5155       5265       5266       5277       5276  
      5145       5146       5157       5156       5266       5267       5278       5277  
      5146       5147       5158       5157       5267       5268       5279       5278  
      5147       5148       5159       5158       5268       5269       5280       5279  
      5149       5150       5161       5160       5270       5271       5282       5281  
      5150       5151       5162       5161       5271       5272       5283       5282  
      5151       5152       5163       5162       5272       5273       5284       5283  
      5152       5153       5164       5163       5273       5274       5285       5284  
      5153       5154       5165       5164       5274       5275       5286       5285  
      5154       5155       5166       5165       5275       5276       5287       5286  
      5155       5156       5167       5166       5276       5277       5288       5287  
      5156       5157       5168       5167       5277       5278       5289       5288  
      5157       5158       5169       5168       5278       5279       5290       5289  
      5158       5159       5170       5169       5279       5280       5291       5290  
      5160       5161       5172       5171       5281       5282       5293       5292  
      5161       5162       5173       5172       5282       5283       5294       5293  
      5162       5163       5174       5173       5283       5284       5295       5294  
      5163       5164       5175       5174       5284       5285       5296       5295  
      5164       5165       5176       5175       5285       5286       5297       5296  
      5165       5166       5177       5176       5286       5287       5298       5297  
      5166       5167       5178       5177       5287       5288       5299       5298  
      5167       5168       5179       5178       5288       5289       5300       5299  
      5168       5169       5180       5179       5289       5290       5301       5300  
      5169       5170       5181       5180       5290       5291       5302       5301  
      5171       5172       5183       5182       5292       5293       5304       5303  
      5172       5173       5184       5183       5293       5294       5305       5304  
      5173       5174       5185       5184       5294       5295       5306       5305  
      5174       5175       5186       5185       5295       5296       5307       5306  
      5175       5176       5187       5186       5296       5297       5308       5307  
      5176       5177       5188       5187       5297       5298       5309       5308  
      5177       5178       5189       5188       5298       5299       5310       5309  
      5178       5179       5190       5189       5299       5300       5311       5310  
      5179       5180       5191       5190       5300       5301       5312       5311  
      5180       5181       5192       5191       5301       5302       5313       5312  
      5182       5183       5194       5193       5303       5304       5315       5314  
      5183       5184       5195       5194       5304       5305       5316       5315  
      5184       5185       5196       5195       5305       5306       5317       5316  
      5185       5186       5197       5196       5306       5307       5318       5317  
      5186       5187       5198       5197       5307       5308       5319       5318  
      5187       5188       5199       5198       5308       5309       5320       5319  
      5188       5189       5200       5199       5309       5310       5321       5320  
      5189       5190       5201       5200       5310       5311       5322       5321  
      5190       5191       5202       5201       5311       5312       5323       5322  
      5191       5192       5203       5202       5312       5313       5324       5323  
      5204       5205       5216       5215       5325       5326       5337       5336  
      5205       5206       5217       5216       5326       5327       5338       5337  
      5206       5207       5218       5217       5327       5328       5339       5338  
      5207       5208       5219       5218       5328       5329       5340       5339  
      5208       5209       5220       5219       5329       5330       5341       5340  
      5209       5210       5221       5220       5330       5331       5342       5341  
      5210       5211       5222       5221       5331       5332       5343       5342  
      5211       5212       5223       5222       5332       5333       5344       5343  
      5212       5213       5224       5223       5333       5334       5345       5344  
      5213       5214       5225       5224       5334       5335       5346       5345  
      5215       5216       5227       5226       5336       5337       5348       5347  
      5216       5217       5228       5227       5337       5338       5349       5348  
      5217       5218       5229       5228       5338       5339       5350       5349  
      5218       5219       5230       5229       5339       5340       5351       5350  
      5219       5220       5231       5230       5340       5341       5352       5351  
      5220       5221       5232       5231       5341       5342       5353       5352  
      5221       5222       5233       5232       5342       5343       5354       5353  
      5222       5223       5234       5233       5343       5344       5355       5354  
      5223       5224       5235       5234       5344       5345       5356       5355  
      5224       5225       5236       5235       5345       5346       5357       5356  
      5226       5227       5238       5237       5347       5348       5359       5358  
      5227       5228       5239       5238       5348       5349       5360       5359  
      5228       5229       5240       5239       5349       5350       5361       5360  
      5229       5230       5241       5240       5350       5351       5362       5361  
      5230       5231       5242       5241       5351       5352       5363       5362  
      5231       5232       5243       5242       5352       5353       5364       5363  
      5232       5233       5244       5243       5353       5354       5365       5364  
      5233       5234       5245       5244       5354       5355       5366       5365  
      5234       5235       5246       5245       5355       5356       5367       5366  
      5235       5236       5247       5246       5356       5357       5368       5367  
      5237       5238       5249       5248       5358       5359       5370       5369  
      5238       5239       5250       5249       5359       5360       5371       5370  
      5239       5240       5251       5250       5360       5361       5372       5371  
      5240       5241       5252       5251       5361       5362       5373       5372  
      5241       5242       5253       5252       5362       5363       5374       5373  
      5242       5243       5254       5253       5363       5364       5375       5374  
      5243       5244       5255       5254       5364       5365       5376       5375  
      5244       5245       5256       5255       5365       5366       5377       5376  
      5245       5246       5257       5256       5366       5367       5378       5377  
      5246       5247       5258       5257       5367       5368       5379       5378  
      5248       5249       5260       5259       5369       5370       5381       5380  
      5249       5250       5261       5260       5370       5371       5382       5381  
      5250       5251       5262       5261       5371       5372       5383       5382  
      5251       5252       5263       5262       5372       5373       5384       5383  
      5252       5253       5264       5263       5373       5374       5385       5384  
      5253       5254       5265       5264       5374       5375       5386       5385  
      5254       5255       5266       5265       5375       5376       5387       5386  
      5255       5256       5267       5266       5376       5377       5388       5387  
      5256       5257       5268       5267       5377       5378       5389       5388  
      5257       5258       5269       5268       5378       5379       5390       5389  
      5259       5260       5271       5270       5380       5381       5392       5391  
      5260       5261       5272       5271       5381       5382       5393       5392  
      5261       5262       5273       5272       5382       5383       5394       5393  
      5262       5263       5274       5273       5383       5384       5395       5394  
      5263       5264       5275       5274       5384       5385       5396       5395  
      5264       5265       5276       5275       5385       5386       5397       5396  
      5265       5266       5277       5276       5386       5387       5398       5397  
      5266       5267       5278       5277       5387       5388       5399       5398  
      5267       5268       5279       5278       5388       5389       5400       5399  
      5268       5269       5280       5279       5389       5390       5401       5400  
      5270       5271       5282       5281       5391       5392       5403       5402  
      5271       5272       5283       5282       5392       5393       5404       5403  
      5272       5273       5284       5283       5393       5394       5405       5404  
      5273       5274       5285       5284       5394       5395       5406       5405  
      5274       5275       5286       5285       5395       5396       5407       5406  
      5275       5276       5287       5286       5396       5397       5408       5407  
      5276       5277       5288       5287       5397       5398       5409       5408  
      5277       5278       5289       5288       5398       5399       5410       5409  
      5278       5279       5290       5289       5399       5400       5411       5410  
      5279       5280       5291       5290       5400       5401       5412       5411  
      5281       5282       5293       5292       5402       5403       5414       5413  
      5282       5283       5294       5293       5403       5404       5415       5414  
      5283       5284       5295       5294       5404       5405       5416       5415  
      5284       5285       5296       5295       5405       5406       5417       5416  
      5285       5286       5297       5296       5406       5407       5418       5417  
      5286       5287       5298       5297       5407       5408       5419       5418  
      5287       5288       5299       5298       5408       5409       5420       5419  
      5288       5289       5300       5299       5409       5410       5421       5420  
      5289       5290       5301       5300       5410       5411       5422       5421  
      5290       5291       5302       5301       5411       5412       5423       5422  
      5292       5293       5304       5303       5413       5414       5425       5424  
      5293       5294       5305       5304       5414       5415       5426       5425  
      5294       5295       5306       5305       5415       5416       5427       5426  
      5295       5296       5307       5306       5416       5417       5428       5427  
      5296       5297       5308       5307       5417       5418       5429       5428  
      5297       5298       5309       5308       5418       5419       5430       5429  
      5298       5299       5310       5309       5419       5420       5431       5430  
      5299       5300       5311       5310       5420       5421       5432       5431  
      5300       5301       5312       5311       5421       5422       5433       5432  
      5301       5302       5313       5312       5422       5423       5434       5433  
      5303       5304       5315       5314       5424       5425       5436       5435  
      5304       5305       5316       5315       5425       5426       5437       5436  
      5305       5306       5317       5316       5426       5427       5438       5437  
      5306       5307       5318       5317       5427       5428       5439       5438  
      5307       5308       5319       5318       5428       5429       5440       5439  
      5308       5309       5320       5319       5429       5430       5441       5440  
      5309       5310       5321       5320       5430       5431       5442       5441  
      5310       5311       5322       5321       5431       5432       5443       5442  
      5311       5312       5323       5322       5432       5433       5444       5443  
      5312       5313       5324       5323       5433       5434       5445       5444  
      5325       5326       5337       5336       5446       5447       5458       5457  
      5326       5327       5338       5337       5447       5448       5459       5458  
      5327       5328       5339       5338       5448       5449       5460       5459  
      5328       5329       5340       5339       5449       5450       5461       5460  
      5329       5330       5341       5340       5450       5451       5462       5461  
      5330       5331       5342       5341       5451       5452       5463       5462  
      5331       5332       5343       5342       5452       5453       5464       5463  
      5332       5333       5344       5343       5453       5454       5465       5464  
      5333       5334       5345       5344       5454       5455       5466       5465  
      5334       5335       5346       5345       5455       5456       5467       5466  
      5336       5337       5348       5347       5457       5458       5469       5468  
      5337       5338       5349       5348       5458       5459       5470       5469  
      5338       5339       5350       5349       5459       5460       5471       5470  
      5339       5340       5351       5350       5460       5461       5472       5471  
      5340       5341       5352       5351       5461       5462       5473       5472  
      5341       5342       5353       5352       5462       5463       5474       5473  
      5342       5343       5354       5353       5463       5464       5475       5474  
      5343       5344       5355       5354       5464       5465       5476       5475  
      5344       5345       5356       5355       5465       5466       5477       5476  
      5345       5346       5357       5356       5466       5467       5478       5477  
      5347       5348       5359       5358       5468       5469       5480       5479  
      5348       5349       5360       5359       5469       5470       5481       5480  
      5349       5350       5361       5360       5470       5471       5482       5481  
      5350       5351       5362       5361       5471       5472       5483       5482  
      5351       5352       5363       5362       5472       5473       5484       5483  
      5352       5353       5364       5363       5473       5474       5485       5484  
      5353       5354       5365       5364       5474       5475       5486       5485  
      5354       5355       5366       5365       5475       5476       5487       5486  
      5355       5356       5367       5366       5476       5477       5488       5487  
      5356       5357       5368       5367       5477       5478       5489       5488  
      5358       5359       5370       5369       5479       5480       5491       5490  
      5359       5360       5371       5370       5480       5481       5492       5491  
      5360       5361       5372       5371       5481       5482       5493       5492  
      5361       5362       5373       5372       5482       5483       5494       5493  
      5362       5363       5374       5373       5483       5484       5495       5494  
      5363       5364       5375       5374       5484       5485       5496       5495  
      5364       5365       5376       5375       5485       5486       5497       5496  
      5365       5366       5377       5376       5486       5487       5498       5497  
      5366       5367       5378       5377       5487       5488       5499       5498  
      5367       5368       5379       5378       5488       5489       5500       5499  
      5369       5370       5381       5380       5490       5491       5502       5501  
      5370       5371       5382       5381       5491       5492       5503       5502  
      5371       5372       5383       5382       5492       5493       5504       5503  
      5372       5373       5384       5383       5493       5494       5505       5504  
      5373       5374       5385       5384       5494       5495       5506       5505  
      5374       5375       5386       5385       5495       5496       5507       5506  
      5375       5376       5387       5386       5496       5497       5508       5507  
      5376       5377       5388       5387       5497       5498       5509       5508  
      5377       5378       5389       5388       5498       5499       5510       5509  
      5378       5379       5390       5389       5499       5500       5511       5510  
      5380       5381       5392       5391       5501       5502       5513       5512  
      5381       5382       5393       5392       5502       5503       5514       5513  
      5382       5383       5394       5393       5503       5504       5515       5514  
      5383       5384       5395       5394       5504       5505       5516       5515  
      5384       5385       5396       5395       5505       5506       5517       5516  
      5385       5386       5397       5396       5506       5507       5518       5517  
      5386       5387       5398       5397       5507       5508       5519       5518  
      5387       5388       5399       5398       5508       5509       5520       5519  
      5388       5389       5400       5399       5509       5510       5521       5520  
      5389       5390       5401       5400       5510       5511       5522       5521  
      5391       5392       5403       5402       5512       5513       5524       5523  
      5392       5393       5404       5403       5513       5514       5525       5524  
      5393       5394       5405       5404       5514       5515       5526       5525  
      5394       5395       5406       5405       5515       5516       5527       5526  
      5395       5396       5407       5406       5516       5517       5528       5527  
      5396       5397       5408       5407       5517       5518       5529       5528  
      5397       5398       5409       5408       5518       5519       5530       5529  
      5398       5399       5410       5409       5519       5520       5531       5530  
      5399       5400       5411       5410       5520       5521       5532       5531  
      5400       5401       5412       5411       5521       5522       5533       5532  
      5402       5403       5414       5413       5523       5524       5535       5534  
      5403       5404       5415       5414       5524       5525       5536       5535  
      5404       5405       5416       5415       5525       5526       5537       5536  
      5405       5406       5417       5416       5526       5527       5538       5537  
      5406       5407       5418       5417       5527       5528       5539       5538  
      5407       5408       5419       5418       5528       5529       5540       5539  
      5408       5409       5420       5419       5529       5530       5541       5540  
      5409       5410       5421       5420       5530       5531       5542       5541  
      5410       5411       5422       5421       5531       5532       5543       5542  
      5411       5412       5423       5422       5532       5533       5544       5543  
      5413       5414       5425       5424       5534       5535       5546       5545  
      5414       5415       5426       5425       5535       5536       5547       5546  
      5415       5416       5427       5426       5536       5537       5548       5547  
      5416       5417       5428       5427       5537       5538       5549       5548  
      5417       5418       5429       5428       5538       5539       5550       5549  
      5418       5419       5430       5429       5539       5540       5551       5550  
      5419       5420       5431       5430       5540       5541       5552       5551  
      5420       5421       5432       5431       5541       5542       5553       5552  
      5421       5422       5433       5432       5542       5543       5554       5553  
      5422       5423       5434       5433       5543       5544       5555       5554  
      5424       5425       5436       5435       5545       5546       5557       5556  
      5425       5426       5437       5436       5546       5547       5558       5557  
      5426       5427       5438       5437       5547       5548       5559       5558  
      5427       5428       5439       5438       5548       5549       5560       5559  
      5428       5429       5440       5439       5549       5550       5561       5560  
      5429       5430       5441       5440       5550       5551       5562       5561  
      5430       5431       5442       5441       5551       5552       5563       5562  
      5431       5432       5443       5442       5552       5553       5564       5563  
      5432       5433       5444       5443       5553       5554       5565       5564  
      5433       5434       5445       5444       5554       5555       5566       5565  
      5446       5447       5458       5457       5567       5568       5579       5578  
      5447       5448       5459       5458       5568       5569       5580       5579  
      5448       5449       5460       5459       5569       5570       5581       5580  
      5449       5450       5461       5460       5570       5571       5582       5581  
      5450       5451       5462       5461       5571       5572       5583       5582  
      5451       5452       5463       5462       5572       5573       5584       5583  
      5452       5453       5464       5463       5573       5574       5585       5584  
      5453       5454       5465       5464       5574       5575       5586       5585  
      5454       5455       5466       5465       5575       5576       5587       5586  
      5455       5456       5467       5466       5576       5577       5588       5587  
      5457       5458       5469       5468       5578       5579       5590       5589  
      5458       5459       5470       5469       5579       5580       5591       5590  
      5459       5460       5471       5470       5580       5581       5592       5591  
      5460       5461       5472       5471       5581       5582       5593       5592  
      5461       5462       5473       5472       5582       5583       5594       5593  
      5462       5463       5474       5473       5583       5584       5595       5594  
      5463       5464       5475       5474       5584       5585       5596       5595  
      5464       5465       5476       5475       5585       5586       5597       5596  
      5465       5466       5477       5476       5586       5587       5598       5597  
      5466       5467       5478       5477       5587       5588       5599       5598  
      5468       5469       5480       5479       5589       5590       5601       5600  
      5469       5470       5481       5480       5590       5591       5602       5601  
      5470       5471       5482       5481       5591       5592       5603       5602  
      5471       5472       5483       5482       5592       5593       5604       5603  
      5472       5473       5484       5483       5593       5594       5605       5604  
      5473       5474       5485       5484       5594       5595       5606       5605  
      5474       5475       5486       5485       5595       5596       5607       5606  
      5475       5476       5487       5486       5596       5597       5608       5607  
      5476       5477       5488       5487       5597       5598       5609       5608  
      5477       5478       5489       5488       5598       5599       5610       5609  
      5479       5480       5491       5490       5600       5601       5612       5611  
      5480       5481       5492       5491       5601       5602       5613       5612  
      5481       5482       5493       5492       5602       5603       5614       5613  
      5482       5483       5494       5493       5603       5604       5615       5614  
      5483       5484       5495       5494       5604       5605       5616       5615  
      5484       5485       5496       5495       5605       5606       5617       5616  
      5485       5486       5497       5496       5606       5607       5618       5617  
      5486       5487       5498       5497       5607       5608       5619       5618  
      5487       5488       5499       5498       5608       5609       5620       5619  
      5488       5489       5500       5499       5609       5610       5621       5620  
      5490       5491       5502       5501       5611       5612       5623       5622  
      5491       5492       5503       5502       5612       5613       5624       5623  
      5492       5493       5504       5503       5613       5614       5625       5624  
      5493       5494       5505       5504       5614       5615       5626       5625  
      5494       5495       5506       5505       5615       5616       5627       5626  
      5495       5496       5507       5506       5616       5617       5628       5627  
      5496       5497       5508       5507       5617       5618       5629       5628  
      5497       5498       5509       5508       5618       5619       5630       5629  
      5498       5499       5510       5509       5619       5620       5631       5630  
      5499       5500       5511       5510       5620       5621       5632       5631  
      5501       5502       5513       5512       5622       5623       5634       5633  
      5502       5503       5514       5513       5623       5624       5635       5634  
      5503       5504       5515       5514       5624       5625       5636       5635  
      5504       5505       5516       5515       5625       5626       5637       5636  
      5505       5506       5517       5516       5626       5627       5638       5637  
      5506       5507       5518       5517       5627       5628       5639       5638  
      5507       5508       5519       5518       5628       5629       5640       5639  
      5508       5509       5520       5519       5629       5630       5641       5640  
      5509       5510       5521       5520       5630       5631       5642       5641  
      5510       5511       5522       5521       5631       5632       5643       5642  
      5512       5513       5524       5523       5633       5634       5645       5644  
      5513       5514       5525       5524       5634       5635       5646       5645  
      5514       5515       5526       5525       5635       5636       5647       5646  
      5515       5516       5527       5526       5636       5637       5648       5647  
      5516       5517       5528       5527       5637       5638       5649       5648  
      5517       5518       5529       5528       5638       5639       5650       5649  
      5518       5519       5530       5529       5639       5640       5651       5650  
      5519       5520       5531       5530       5640       5641       5652       5651  
      5520       5521       5532       5531       5641       5642       5653       5652  
      5521       5522       5533       5532       5642       5643       5654       5653  
      5523       5524       5535       5534       5644       5645       5656       5655  
      5524       5525       5536       5535       5645       5646       5657       5656  
      5525       5526       5537       5536       5646       5647       5658       5657  
      5526       5527       5538       5537       5647       5648       5659       5658  
      5527       5528       5539       5538       5648       5649       5660       5659  
      5528       5529       5540       5539       5649       5650       5661       5660  
      5529       5530       5541       5540       5650       5651       5662       5661  
      5530       5531       5542       5541       5651       5652       5663       5662  
      5531       5532       5543       5542       5652       5653       5664       5663  
      5532       5533       5544       5543       5653       5654       5665       5664  
      5534       5535       5546       5545       5655       5656       5667       5666  
      5535       5536       5547       5546       5656       5657       5668       5667  
      5536       5537       5548       5547       5657       5658       5669       5668  
      5537       5538       5549       5548       5658       5659       5670       5669  
      5538       5539       5550       5549       5659       5660       5671       5670  
      5539       5540       5551       5550       5660       5661       5672       5671  
      5540       5541       5552       5551       5661       5662       5673       5672  
      5541       5542       5553       5552       5662       5663       5674       5673  
      5542       5543       5554       5553       5663       5664       5675       5674  
      5543       5544       5555       5554       5664       5665       5676       5675  
      5545       5546       5557       5556       5666       5667       5678       5677  
      5546       5547       5558       5557       5667       5668       5679       5678  
      5547       5548       5559       5558       5668       5669       5680       5679  
      5548       5549       5560       5559       5669       5670       5681       5680  
      5549       5550       5561       5560       5670       5671       5682       5681  
      5550       5551       5562       5561       5671       5672       5683       5682  
      5551       5552       5563       5562       5672       5673       5684       5683  
      5552       5553       5564       5563       5673       5674       5685       5684  
      5553       5554       5565       5564       5674       5675       5686       5685  
      5554       5555       5566       5565       5675       5676       5687       5686  
      5567       5568       5579       5578       5688       5689       5700       5699  
      5568       5569       5580       5579       5689       5690       5701       5700  
      5569       5570       5581       5580       5690       5691       5702       5701  
      5570       5571       5582       5581       5691       5692       5703       5702  
      5571       5572       5583       5582       5692       5693       5704       5703  
      5572       5573       5584       5583       5693       5694       5705       5704  
      5573       5574       5585       5584       5694       5695       5706       5705  
      5574       5575       5586       5585       5695       5696       5707       5706  
      5575       5576       5587       5586       5696       5697       5708       5707  
      5576       5577       5588       5587       5697       5698       5709       5708  
      5578       5579       5590       5589       5699       5700       5711       5710  
      5579       5580       5591       5590       5700       5701       5712       5711  
      5580       5581       5592       5591       5701       5702       5713       5712  
      5581       5582       5593       5592       5702       5703       5714       5713  
      5582       5583       5594       5593       5703       5704       5715       5714  
      5583       5584       5595       5594       5704       5705       5716       5715  
      5584       5585       5596       5595       5705       5706       5717       5716  
      5585       5586       5597       5596       5706       5707       5718       5717  
      5586       5587       5598       5597       5707       5708       5719       5718  
      5587       5588       5599       5598       5708       5709       5720       5719  
      5589       5590       5601       5600       5710       5711       5722       5721  
      5590       5591       5602       5601       5711       5712       5723       5722  
      5591       5592       5603       5602       5712       5713       5724       5723  
      5592       5593       5604       5603       5713       5714       5725       5724  
      5593       5594       5605       5604       5714       5715       5726       5725  
      5594       5595       5606       5605       5715       5716       5727       5726  
      5595       5596       5607       5606       5716       5717       5728       5727  
      5596       5597       5608       5607       5717       5718       5729       5728  
      5597       5598       5609       5608       5718       5719       5730       5729  
      5598       5599       5610       5609       5719       5720       5731       5730  
      5600       5601       5612       5611       5721       5722       5733       5732  
      5601       5602       5613       5612       5722       5723       5734       5733  
      5602       5603       5614       5613       5723       5724       5735       5734  
      5603       5604       5615       5614       5724       5725       5736       5735  
      5604       5605       5616       5615       5725       5726       5737       5736  
      5605       5606       5617       5616       5726       5727       5738       5737  
      5606       5607       5618       5617       5727       5728       5739       5738  
      5607       5608       5619       5618       5728       5729       5740       5739  
      5608       5609       5620       5619       5729       5730       5741       5740  
      5609       5610       5621       5620       5730       5731       5742       5741  
      5611       5612       5623       5622       5732       5733       5744       5743  
      5612       5613       5624       5623       5733       5734       5745       5744  
      5613       5614       5625       5624       5734       5735       5746       5745  
      5614       5615       5626       5625       5735       5736       5747       5746  
      5615       5616       5627       5626       5736       5737       5748       5747  
      5616       5617       5628       5627       5737       5738       5749       5748  
      5617       5618       5629       5628       5738       5739       5750       5749  
      5618       5619       5630       5629       5739       5740       5751       5750  
      5619       5620       5631       5630       5740       5741       5752       5751  
      5620       5621       5632       5631       5741       5742       5753       5752  
      5622       5623       5634       5633       5743       5744       5755       5754  
      5623       5624       5635       5634       5744       5745       5756       5755  
      5624       5625       5636       5635       5745       5746       5757       5756  
      5625       5626       5637       5636       5746       5747       5758       5757  
      5626       5627       5638       5637       5747       5748       5759       5758  
      5627       5628       5639       5638       5748       5749       5760       5759  
      5628       5629       5640       5639       5749       5750       5761       5760  
      5629       5630       5641       5640       5750       5751       5762       5761  
      5630       5631       5642       5641       5751       5752       5763       5762  
      5631       5632       5643       5642       5752       5753       5764       5763  
      5633       5634       5645       5644       5754       5755       5766       5765  
      5634       5635       5646       5645       5755       5756       5767       5766  
      5635       5636       5647       5646       5756       5757       5768       5767  
      5636       5637       5648       5647       5757       5758       5769       5768  
      5637       5638       5649       5648       5758       5759       5770       5769  
      5638       5639       5650       5649       5759       5760       5771       5770  
      5639       5640       5651       5650       5760       5761       5772       5771  
      5640       5641       5652       5651       5761       5762       5773       5772  
      5641       5642       5653       5652       5762       5763       5774       5773  
      5642       5643       5654       5653       5763       5764       5775       5774  
      5644       5645       5656       5655       5765       5766       5777       5776  
      5645       5646       5657       5656       5766       5767       5778       5777  
      5646       5647       5658       5657       5767       5768       5779       5778  
      5647       5648       5659       5658       5768       5769       5780       5779  
      5648       5649       5660       5659       5769       5770       5781       5780  
      5649       5650       5661       5660       5770       5771       5782       5781  
      5650       5651       5662       5661       5771       5772       5783       5782  
      5651       5652       5663       5662       5772       5773       5784       5783  
      5652       5653       5664       5663       5773       5774       5785       5784  
      5653       5654       5665       5664       5774       5775       5786       5785  
      5655       5656       5667       5666       5776       5777       5788       5787  
      5656       5657       5668       5667       5777       5778       5789       5788  
      5657       5658       5669       5668       5778       5779       5790       5789  
      5658       5659       5670       5669       5779       5780       5791       5790  
      5659       5660       5671       5670       5780       5781       5792       5791  
      5660       5661       5672       5671       5781       5782       5793       5792  
      5661       5662       5673       5672       5782       5783       5794       5793  
      5662       5663       5674       5673       5783       5784       5795       5794  
      5663       5664       5675       5674       5784       5785       5796       5795  
      5664       5665       5676       5675       5785       5786       5797       5796  
      5666       5667       5678       5677       5787       5788       5799       5798  
      5667       5668       5679       5678       5788       5789       5800       5799  
      5668       5669       5680       5679       5789       5790       5801       5800  
      5669       5670       5681       5680       5790       5791       5802       5801  
      5670       5671       5682       5681       5791       5792       5803       5802  
      5671       5672       5683       5682       5792       5793       5804       5803  
      5672       5673       5684       5683       5793       5794       5805       5804  
      5673       5674       5685       5684       5794       5795       5806       5805  
      5674       5675       5686       5685       5795       5796       5807       5806  
      5675       5676       5687       5686       5796       5797       5808       5807  
      5688       5689       5700       5699       5809       5810       5821       5820  
      5689       5690       5701       5700       5810       5811       5822       5821  
      5690       5691       5702       5701       5811       5812       5823       5822  
      5691       5692       5703       5702       5812       5813       5824       5823  
      5692       5693       5704       5703       5813       5814       5825       5824  
      5693       5694       5705       5704       5814       5815       5826       5825  
      5694       5695       5706       5705       5815       5816       5827       5826  
      5695       5696       5707       5706       5816       5817       5828       5827  
      5696       5697       5708       5707       5817       5818       5829       5828  
      5697       5698       5709       5708       5818       5819       5830       5829  
      5699       5700       5711       5710       5820       5821       5832       5831  
      5700       5701       5712       5711       5821       5822       5833       5832  
      5701       5702       5713       5712       5822       5823       5834       5833  
      5702       5703       5714       5713       5823       5824       5835       5834  
      5703       5704       5715       5714       5824       5825       5836       5835  
      5704       5705       5716       5715       5825       5826       5837       5836  
      5705       5706       5717       5716       5826       5827       5838       5837  
      5706       5707       5718       5717       5827       5828       5839       5838  
      5707       5708       5719       5718       5828       5829       5840       5839  
      5708       5709       5720       5719       5829       5830       5841       5840  
      5710       5711       5722       5721       5831       5832       5843       5842  
      5711       5712       5723       5722       5832       5833       5844       5843  
      5712       5713       5724       5723       5833       5834       5845       5844  
      5713       5714       5725       5724       5834       5835       5846       5845  
      5714       5715       5726       5725       5835       5836       5847       5846  
      5715       5716       5727       5726       5836       5837       5848       5847  
      5716       5717       5728       5727       5837       5838       5849       5848  
      5717       5718       5729       5728       5838       5839       5850       5849  
      5718       5719       5730       5729       5839       5840       5851       5850  
      5719       5720       5731       5730       5840       5841       5852       5851  
      5721       5722       5733       5732       5842       5843       5854       5853  
      5722       5723       5734       5733       5843       5844       5855       5854  
      5723       5724       5735       5734       5844       5845       5856       5855  
      5724       5725       5736       5735       5845       5846       5857       5856  
      5725       5726       5737       5736       5846       5847       5858       5857  
      5726       5727       5738       5737       5847       5848       5859       5858  
      5727       5728       5739       5738       5848       5849       5860       5859  
      5728       5729       5740       5739       5849       5850       5861       5860  
      5729       5730       5741       5740       5850       5851       5862       5861  
      5730       5731       5742       5741       5851       5852       5863       5862  
      5732       5733       5744       5743       5853       5854       5865       5864  
      5733       5734       5745       5744       5854       5855       5866       5865  
      5734       5735       5746       5745       5855       5856       5867       5866  
      5735       5736       5747       5746       5856       5857       5868       5867  
      5736       5737       5748       5747       5857       5858       5869       5868  
      5737       5738       5749       5748       5858       5859       5870       5869  
      5738       5739       5750       5749       5859       5860       5871       5870  
      5739       5740       5751       5750       5860       5861       5872       5871  
      5740       5741       5752       5751       5861       5862       5873       5872  
      5741       5742       5753       5752       5862       5863       5874       5873  
      5743       5744       5755       5754       5864       5865       5876       5875  
      5744       5745       5756       5755       5865       5866       5877       5876  
      5745       5746       5757       5756       5866       5867       5878       5877  
      5746       5747       5758       5757       5867       5868       5879       5878  
      5747       5748       5759       5758       5868       5869       5880       5879  
      5748       5749       5760       5759       5869       5870       5881       5880  
      5749       5750       5761       5760       5870       5871       5882       5881  
      5750       5751       5762       5761       5871       5872       5883       5882  
      5751       5752       5763       5762       5872       5873       5884       5883  
      5752       5753       5764       5763       5873       5874       5885       5884  
      5754       5755       5766       5765       5875       5876       5887       5886  
      5755       5756       5767       5766       5876       5877       5888       5887  
      5756       5757       5768       5767       5877       5878       5889       5888  
      5757       5758       5769       5768       5878       5879       5890       5889  
      5758       5759       5770       5769       5879       5880       5891       5890  
      5759       5760       5771       5770       5880       5881       5892       5891  
      5760       5761       5772       5771       5881       5882       5893       5892  
      5761       5762       5773       5772       5882       5883       5894       5893  
      5762       5763       5774       5773       5883       5884       5895       5894  
      5763       5764       5775       5774       5884       5885       5896       5895  
      5765       5766       5777       5776       5886       5887       5898       5897  
      5766       5767       5778       5777       5887       5888       5899       5898  
      5767       5768       5779       5778       5888       5889       5900       5899  
      5768       5769       5780       5779       5889       5890       5901       5900  
      5769       5770       5781       5780       5890       5891       5902       5901  
      5770       5771       5782       5781       5891       5892       5903       5902  
      5771       5772       5783       5782       5892       5893       5904       5903  
      5772       5773       5784       5783       5893       5894       5905       5904  
      5773       5774       5785       5784       5894       5895       5906       5905  
      5774       5775       5786       5785       5895       5896       5907       5906  
      5776       5777       5788       5787       5897       5898       5909       5908  
      5777       5778       5789       5788       5898       5899       5910       5909  
      5778       5779       5790       5789       5899       5900       5911       5910  
      5779       5780       5791       5790       5900       5901       5912       5911  
      5780       5781       5792       5791       5901       5902       5913       5912  
      5781       5782       5793       5792       5902       5903       5914       5913  
      5782       5783       5794       5793       5903       5904       5915       5914  
      5783       5784       5795       5794       5904       5905       5916       5915  
      5784       5785       5796       5795       5905       5906       5917       5916  
      5785       5786       5797       5796       5906       5907       5918       5917  
      5787       5788       5799       5798       5908       5909       5920       5919  
      5788       5789       5800       5799       5909       5910       5921       5920  
      5789       5790       5801       5800       5910       5911       5922       5921  
      5790       5791       5802       5801       5911       5912       5923       5922  
      5791       5792       5803       5802       5912       5913       5924       5923  
      5792       5793       5804       5803       5913       5914       5925       5924  
      5793       5794       5805       5804       5914       5915       5926       5925  
      5794       5795       5806       5805       5915       5916       5927       5926  
      5795       5796       5807       5806       5916       5917       5928       5927  
      5796       5797       5808       5807       5917       5918       5929       5928  
      5809       5810       5821       5820       5930       5931       5942       5941  
      5810       5811       5822       5821       5931       5932       5943       5942  
      5811       5812       5823       5822       5932       5933       5944       5943  
      5812       5813       5824       5823       5933       5934       5945       5944  
      5813       5814       5825       5824       5934       5935       5946       5945  
      5814       5815       5826       5825       5935       5936       5947       5946  
      5815       5816       5827       5826       5936       5937       5948       5947  
      5816       5817       5828       5827       5937       5938       5949       5948  
      5817       5818       5829       5828       5938       5939       5950       5949  
      5818       5819       5830       5829       5939       5940       5951       5950  
      5820       5821       5832       5831       5941       5942       5953       5952  
      5821       5822       5833       5832       5942       5943       5954       5953  
      5822       5823       5834       5833       5943       5944       5955       5954  
      5823       5824       5835       5834       5944       5945       5956       5955  
      5824       5825       5836       5835       5945       5946       5957       5956  
      5825       5826       5837       5836       5946       5947       5958       5957  
      5826       5827       5838       5837       5947       5948       5959       5958  
      5827       5828       5839       5838       5948       5949       5960       5959  
      5828       5829       5840       5839       5949       5950       5961       5960  
      5829       5830       5841       5840       5950       5951       5962       5961  
      5831       5832       5843       5842       5952       5953       5964       5963  
      5832       5833       5844       5843       5953       5954       5965       5964  
      5833       5834       5845       5844       5954       5955       5966       5965  
      5834       5835       5846       5845       5955       5956       5967       5966  
      5835       5836       5847       5846       5956       5957       5968       5967  
      5836       5837       5848       5847       5957       5958       5969       5968  
      5837       5838       5849       5848       5958       5959       5970       5969  
      5838       5839       5850       5849       5959       5960       5971       5970  
      5839       5840       5851       5850       5960       5961       5972       5971  
      5840       5841       5852       5851       5961       5962       5973       5972  
      5842       5843       5854       5853       5963       5964       5975       5974  
      5843       5844       5855       5854       5964       5965       5976       5975  
      5844       5845       5856       5855       5965       5966       5977       5976  
      5845       5846       5857       5856       5966       5967       5978       5977  
      5846       5847       5858       5857       5967       5968       5979       5978  
      5847       5848       5859       5858       5968       5969       5980       5979  
      5848       5849       5860       5859       5969       5970       5981       5980  
      5849       5850       5861       5860       5970       5971       5982       5981  
      5850       5851       5862       5861       5971       5972       5983       5982  
      5851       5852       5863       5862       5972       5973       5984       5983  
      5853       5854       5865       5864       5974       5975       5986       5985  
      5854       5855       5866       5865       5975       5976       5987       5986  
      5855       5856       5867       5866       5976       5977       5988       5987  
      5856       5857       5868       5867       5977       5978       5989       5988  
      5857       5858       5869       5868       5978       5979       5990       5989  
      5858       5859       5870       5869       5979       5980       5991       5990  
      5859       5860       5871       5870       5980       5981       5992       5991  
      5860       5861       5872       5871       5981       5982       5993       5992  
      5861       5862       5873       5872       5982       5983       5994       5993  
      5862       5863       5874       5873       5983       5984       5995       5994  
      5864       5865       5876       5875       5985       5986       5997       5996  
      5865       5866       5877       5876       5986       5987       5998       5997  
      5866       5867       5878       5877       5987       5988       5999       5998  
      5867       5868       5879       5878       5988       5989       6000       5999  
      5868       5869       5880       5879       5989       5990       6001       6000  
      5869       5870       5881       5880       5990       5991       6002       6001  
      5870       5871       5882       5881       5991       5992       6003       6002  
      5871       5872       5883       5882       5992       5993       6004       6003  
      5872       5873       5884       5883       5993       5994       6005       6004  
      5873       5874       5885       5884       5994       5995       6006       6005  
      5875       5876       5887       5886       5996       5997       6008       6007  
      5876       5877       5888       5887       5997       5998       6009       6008  
      5877       5878       5889       5888       5998       5999       6010       6009  
      5878       5879       5890       5889       5999       6000       6011       6010  
      5879       5880       5891       5890       6000       6001       6012       6011  
      5880       5881       5892       5891       6001       6002       6013       6012  
      5881       5882       5893       5892       6002       6003       6014       6013  
      5882       5883       5894       5893       6003       6004       6015       6014  
      5883       5884       5895       5894       6004       6005       6016       6015  
      5884       5885       5896       5895       6005       6006       6017       6016  
      5886       5887       5898       5897       6007       6008       6019       6018  
      5887       5888       5899       5898       6008       6009       6020       6019  
      5888       5889       5900       5899       6009       6010       6021       6020  
      5889       5890       5901       5900       6010       6011       6022       6021  
      5890       5891       5902       5901       6011       6012       6023       6022  
      5891       5892       5903       5902       6012       6013       6024       6023  
      5892       5893       5904       5903       6013       6014       6025       6024  
      5893       5894       5905       5904       6014       6015       6026       6025  
      5894       5895       5906       5905       6015       6016       6027       6026  
      5895       5896       5907       5906       6016       6017       6028       6027  
      5897       5898       5909       5908       6018       6019       6030       6029  
      5898       5899       5910       5909       6019       6020       6031       6030  
      5899       5900       5911       5910       6020       6021       6032       6031  
      5900       5901       5912       5911       6021       6022       6033       6032  
      5901       5902       5913       5912       6022       6023       6034       6033  
      5902       5903       5914       5913       6023       6024       6035       6034  
      5903       5904       5915       5914       6024       6025       6036       6035  
      5904       5905       5916       5915       6025       6026       6037       6036  
      5905       5906       5917       5916       6026       6027       6038       6037  
      5906       5907       5918       5917       6027       6028       6039       6038  
      5908       5909       5920       5919       6029       6030       6041       6040  
      5909       5910       5921       5920       6030       6031       6042       6041  
      5910       5911       5922       5921       6031       6032       6043       6042  
      5911       5912       5923       5922       6032       6033       6044       6043  
      5912       5913       5924       5923       6033       6034       6045       6044  
      5913       5914       5925       5924       6034       6035       6046       6045  
      5914       5915       5926       5925       6035       6036       6047       6046  
      5915       5916       5927       5926       6036       6037       6048       6047  
      5916       5917       5928       5927       6037       6038       6049       6048  
      5917       5918       5929       5928       6038       6039       6050       6049  
      5930       5931       5942       5941       6051       6052       6063       6062  
      5931       5932       5943       5942       6052       6053       6064       6063  
      5932       5933       5944       5943       6053       6054       6065       6064  
      5933       5934       5945       5944       6054       6055       6066       6065  
      5934       5935       5946       5945       6055       6056       6067       6066  
      5935       5936       5947       5946       6056       6057       6068       6067  
      5936       5937       5948       5947       6057       6058       6069       6068  
      5937       5938       5949       5948       6058       6059       6070       6069  
      5938       5939       5950       5949       6059       6060       6071       6070  
      5939       5940       5951       5950       6060       6061       6072       6071  
      5941       5942       5953       5952       6062       6063       6074       6073  
      5942       5943       5954       5953       6063       6064       6075       6074  
      5943       5944       5955       5954       6064       6065       6076       6075  
      5944       5945       5956       5955       6065       6066       6077       6076  
      5945       5946       5957       5956       6066       6067       6078       6077  
      5946       5947       5958       5957       6067       6068       6079       6078  
      5947       5948       5959       5958       6068       6069       6080       6079  
      5948       5949       5960       5959       6069       6070       6081       6080  
      5949       5950       5961       5960       6070       6071       6082       6081  
      5950       5951       5962       5961       6071       6072       6083       6082  
      5952       5953       5964       5963       6073       6074       6085       6084  
      5953       5954       5965       5964       6074       6075       6086       6085  
      5954       5955       5966       5965       6075       6076       6087       6086  
      5955       5956       5967       5966       6076       6077       6088       6087  
      5956       5957       5968       5967       6077       6078       6089       6088  
      5957       5958       5969       5968       6078       6079       6090       6089  
      5958       5959       5970       5969       6079       6080       6091       6090  
      5959       5960       5971       5970       6080       6081       6092       6091  
      5960       5961       5972       5971       6081       6082       6093       6092  
      5961       5962       5973       5972       6082       6083       6094       6093  
      5963       5964       5975       5974       6084       6085       6096       6095  
      5964       5965       5976       5975       6085       6086       6097       6096  
      5965       5966       5977       5976       6086       6087       6098       6097  
      5966       5967       5978       5977       6087       6088       6099       6098  
      5967       5968       5979       5978       6088       6089       6100       6099  
      5968       5969       5980       5979       6089       6090       6101       6100  
      5969       5970       5981       5980       6090       6091       6102       6101  
      5970       5971       5982       5981       6091       6092       6103       6102  
      5971       5972       5983       5982       6092       6093       6104       6103  
      5972       5973       5984       5983       6093       6094       6105       6104  
      5974       5975       5986       5985       6095       6096       6107       6106  
      5975       5976       5987       5986       6096       6097       6108       6107  
      5976       5977       5988       5987       6097       6098       6109       6108  
      5977       5978       5989       5988       6098       6099       6110       6109  
      5978       5979       5990       5989       6099       6100       6111       6110  
      5979       5980       5991       5990       6100       6101       6112       6111  
      5980       5981       5992       5991       6101       6102       6113       6112  
      5981       5982       5993       5992       6102       6103       6114       6113  
      5982       5983       5994       5993       6103       6104       6115       6114  
      5983       5984       5995       5994       6104       6105       6116       6115  
      5985       5986       5997       5996       6106       6107       6118       6117  
      5986       5987       5998       5997       6107       6108       6119       6118  
      5987       5988       5999       5998       6108       6109       6120       6119  
      5988       5989       6000       5999       6109       6110       6121       6120  
      5989       5990       6001       6000       6110       6111       6122       6121  
      5990       5991       6002       6001       6111       6112       6123       6122  
      5991       5992       6003       6002       6112       6113       6124       6123  
      5992       5993       6004       6003       6113       6114       6125       6124  
      5993       5994       6005       6004       6114       6115       6126       6125  
      5994       5995       6006       6005       6115       6116       6127       6126  
      5996       5997       6008       6007       6117       6118       6129       6128  
      5997       5998       6009       6008       6118       6119       6130       6129  
      5998       5999       6010       6009       6119       6120       6131       6130  
      5999       6000       6011       6010       6120       6121       6132       6131  
      6000       6001       6012       6011       6121       6122       6133       6132  
      6001       6002       6013       6012       6122       6123       6134       6133  
      6002       6003       6014       6013       6123       6124       6135       6134  
      6003       6004       6015       6014       6124       6125       6136       6135  
      6004       6005       6016       6015       6125       6126       6137       6136  
      6005       6006       6017       6016       6126       6127       6138       6137  
      6007       6008       6019       6018       6128       6129       6140       6139  
      6008       6009       6020       6019       6129       6130       6141       6140  
      6009       6010       6021       6020       6130       6131       6142       6141  
      6010       6011       6022       6021       6131       6132       6143       6142  
      6011       6012       6023       6022       6132       6133       6144       6143  
      6012       6013       6024       6023       6133       6134       6145       6144  
      6013       6014       6025       6024       6134       6135       6146       6145  
      6014       6015       6026       6025       6135       6136       6147       6146  
      6015       6016       6027       6026       6136       6137       6148       6147  
      6016       6017       6028       6027       6137       6138       6149       6148  
      6018       6019       6030       6029       6139       6140       6151       6150  
      6019       6020       6031       6030       6140       6141       6152       6151  
      6020       6021       6032       6031       6141       6142       6153       6152  
      6021       6022       6033       6032       6142       6143       6154       6153  
      6022       6023       6034       6033       6143       6144       6155       6154  
      6023       6024       6035       6034       6144       6145       6156       6155  
      6024       6025       6036       6035       6145       6146       6157       6156  
      6025       6026       6037       6036       6146       6147       6158       6157  
      6026       6027       6038       6037       6147       6148       6159       6158  
      6027       6028       6039       6038       6148       6149       6160       6159  
      6029       6030       6041       6040       6150       6151       6162       6161  
      6030       6031       6042       6041       6151       6152       6163       6162  
      6031       6032       6043       6042       6152       6153       6164       6163  
      6032       6033       6044       6043       6153       6154       6165       6164  
      6033       6034       6045       6044       6154       6155       6166       6165  
      6034       6035       6046       6045       6155       6156       6167       6166  
      6035       6036       6047       6046       6156       6157       6168       6167  
      6036       6037       6048       6047       6157       6158       6169       6168  
      6037       6038       6049       6048       6158       6159       6170       6169  
      6038       6039       6050       6049       6159       6160       6171       6170  
      6051       6052       6063       6062       6172       6173       6184       6183  
      6052       6053       6064       6063       6173       6174       6185       6184  
      6053       6054       6065       6064       6174       6175       6186       6185  
      6054       6055       6066       6065       6175       6176       6187       6186  
      6055       6056       6067       6066       6176       6177       6188       6187  
      6056       6057       6068       6067       6177       6178       6189       6188  
      6057       6058       6069       6068       6178       6179       6190       6189  
      6058       6059       6070       6069       6179       6180       6191       6190  
      6059       6060       6071       6070       6180       6181       6192       6191  
      6060       6061       6072       6071       6181       6182       6193       6192  
      6062       6063       6074       6073       6183       6184       6195       6194  
      6063       6064       6075       6074       6184       6185       6196       6195  
      6064       6065       6076       6075       6185       6186       6197       6196  
      6065       6066       6077       6076       6186       6187       6198       6197  
      6066       6067       6078       6077       6187       6188       6199       6198  
      6067       6068       6079       6078       6188       6189       6200       6199  
      6068       6069       6080       6079       6189       6190       6201       6200  
      6069       6070       6081       6080       6190       6191       6202       6201  
      6070       6071       6082       6081       6191       6192       6203       6202  
      6071       6072       6083       6082       6192       6193       6204       6203  
      6073       6074       6085       6084       6194       6195       6206       6205  
      6074       6075       6086       6085       6195       6196       6207       6206  
      6075       6076       6087       6086       6196       6197       6208       6207  
      6076       6077       6088       6087       6197       6198       6209       6208  
      6077       6078       6089       6088       6198       6199       6210       6209  
      6078       6079       6090       6089       6199       6200       6211       6210  
      6079       6080       6091       6090       6200       6201       6212       6211  
      6080       6081       6092       6091       6201       6202       6213       6212  
      6081       6082       6093       6092       6202       6203       6214       6213  
      6082       6083       6094       6093       6203       6204       6215       6214  
      6084       6085       6096       6095       6205       6206       6217       6216  
      6085       6086       6097       6096       6206       6207       6218       6217  
      6086       6087       6098       6097       6207       6208       6219       6218  
      6087       6088       6099       6098       6208       6209       6220       6219  
      6088       6089       6100       6099       6209       6210       6221       6220  
      6089       6090       6101       6100       6210       6211       6222       6221  
      6090       6091       6102       6101       6211       6212       6223       6222  
      6091       6092       6103       6102       6212       6213       6224       6223  
      6092       6093       6104       6103       6213       6214       6225       6224  
      6093       6094       6105       6104       6214       6215       6226       6225  
      6095       6096       6107       6106       6216       6217       6228       6227  
      6096       6097       6108       6107       6217       6218       6229       6228  
      6097       6098       6109       6108       6218       6219       6230       6229  
      6098       6099       6110       6109       6219       6220       6231       6230  
      6099       6100       6111       6110       6220       6221       6232       6231  
      6100       6101       6112       6111       6221       6222       6233       6232  
      6101       6102       6113       6112       6222       6223       6234       6233  
      6102       6103       6114       6113       6223       6224       6235       6234  
      6103       6104       6115       6114       6224       6225       6236       6235  
      6104       6105       6116       6115       6225       6226       6237       6236  
      6106       6107       6118       6117       6227       6228       6239       6238  
      6107       6108       6119       6118       6228       6229       6240       6239  
      6108       6109       6120       6119       6229       6230       6241       6240  
      6109       6110       6121       6120       6230       6231       6242       6241  
      6110       6111       6122       6121       6231       6232       6243       6242  
      6111       6112       6123       6122       6232       6233       6244       6243  
      6112       6113       6124       6123       6233       6234       6245       6244  
      6113       6114       6125       6124       6234       6235       6246       6245  
      6114       6115       6126       6125       6235       6236       6247       6246  
      6115       6116       6127       6126       6236       6237       6248       6247  
      6117       6118       6129       6128       6238       6239       6250       6249  
      6118       6119       6130       6129       6239       6240       6251       6250  
      6119       6120       6131       6130       6240       6241       6252       6251  
      6120       6121       6132       6131       6241       6242       6253       6252  
      6121       6122       6133       6132       6242       6243       6254       6253  
      6122       6123       6134       6133       6243       6244       6255       6254  
      6123       6124       6135       6134       6244       6245       6256       6255  
      6124       6125       6136       6135       6245       6246       6257       6256  
      6125       6126       6137       6136       6246       6247       6258       6257  
      6126       6127       6138       6137       6247       6248       6259       6258  
      6128       6129       6140       6139       6249       6250       6261       6260  
      6129       6130       6141       6140       6250       6251       6262       6261  
      6130       6131       6142       6141       6251       6252       6263       6262  
      6131       6132       6143       6142       6252       6253       6264       6263  
      6132       6133       6144       6143       6253       6254       6265       6264  
      6133       6134       6145       6144       6254       6255       6266       6265  
      6134       6135       6146       6145       6255       6256       6267       6266  
      6135       6136       6147       6146       6256       6257       6268       6267  
      6136       6137       6148       6147       6257       6258       6269       6268  
      6137       6138       6149       6148       6258       6259       6270       6269  
      6139       6140       6151       6150       6260       6261       6272       6271  
      6140       6141       6152       6151       6261       6262       6273       6272  
      6141       6142       6153       6152       6262       6263       6274       6273  
      6142       6143       6154       6153       6263       6264       6275       6274  
      6143       6144       6155       6154       6264       6265       6276       6275  
      6144       6145       6156       6155       6265       6266       6277       6276  
      6145       6146       6157       6156       6266       6267       6278       6277  
      6146       6147       6158       6157       6267       6268       6279       6278  
      6147       6148       6159       6158       6268       6269       6280       6279  
      6148       6149       6160       6159       6269       6270       6281       6280  
      6150       6151       6162       6161       6271       6272       6283       6282  
      6151       6152       6163       6162       6272       6273       6284       6283  
      6152       6153       6164       6163       6273       6274       6285       6284  
      6153       6154       6165       6164       6274       6275       6286       6285  
      6154       6155       6166       6165       6275       6276       6287       6286  
      6155       6156       6167       6166       6276       6277       6288       6287  
      6156       6157       6168       6167       6277       6278       6289       6288  
      6157       6158       6169       6168       6278       6279       6290       6289  
      6158       6159       6170       6169       6279       6280       6291       6290  
      6159       6160       6171       6170       6280       6281       6292       6291  
      6172       6173       6184       6183       6293       6294       6305       6304  
      6173       6174       6185       6184       6294       6295       6306       6305  
      6174       6175       6186       6185       6295       6296       6307       6306  
      6175       6176       6187       6186       6296       6297       6308       6307  
      6176       6177       6188       6187       6297       6298       6309       6308  
      6177       6178       6189       6188       6298       6299       6310       6309  
      6178       6179       6190       6189       6299       6300       6311       6310  
      6179       6180       6191       6190       6300       6301       6312       6311  
      6180       6181       6192       6191       6301       6302       6313       6312  
      6181       6182       6193       6192       6302       6303       6314       6313  
      6183       6184       6195       6194       6304       6305       6316       6315  
      6184       6185       6196       6195       6305       6306       6317       6316  
      6185       6186       6197       6196       6306       6307       6318       6317  
      6186       6187       6198       6197       6307       6308       6319       6318  
      6187       6188       6199       6198       6308       6309       6320       6319  
      6188       6189       6200       6199       6309       6310       6321       6320  
      6189       6190       6201       6200       6310       6311       6322       6321  
      6190       6191       6202       6201       6311       6312       6323       6322  
      6191       6192       6203       6202       6312       6313       6324       6323  
      6192       6193       6204       6203       6313       6314       6325       6324  
      6194       6195       6206       6205       6315       6316       6327       6326  
      6195       6196       6207       6206       6316       6317       6328       6327  
      6196       6197       6208       6207       6317       6318       6329       6328  
      6197       6198       6209       6208       6318       6319       6330       6329  
      6198       6199       6210       6209       6319       6320       6331       6330  
      6199       6200       6211       6210       6320       6321       6332       6331  
      6200       6201       6212       6211       6321       6322       6333       6332  
      6201       6202       6213       6212       6322       6323       6334       6333  
      6202       6203       6214       6213       6323       6324       6335       6334  
      6203       6204       6215       6214       6324       6325       6336       6335  
      6205       6206       6217       6216       6326       6327       6338       6337  
      6206       6207       6218       6217       6327       6328       6339       6338  
      6207       6208       6219       6218       6328       6329       6340       6339  
      6208       6209       6220       6219       6329       6330       6341       6340  
      6209       6210       6221       6220       6330       6331       6342       6341  
      6210       6211       6222       6221       6331       6332       6343       6342  
      6211       6212       6223       6222       6332       6333       6344       6343  
      6212       6213       6224       6223       6333       6334       6345       6344  
      6213       6214       6225       6224       6334       6335       6346       6345  
      6214       6215       6226       6225       6335       6336       6347       6346  
      6216       6217       6228       6227       6337       6338       6349       6348  
      6217       6218       6229       6228       6338       6339       6350       6349  
      6218       6219       6230       6229       6339       6340       6351       6350  
      6219       6220       6231       6230       6340       6341       6352       6351  
      6220       6221       6232       6231       6341       6342       6353       6352  
      6221       6222       6233       6232       6342       6343       6354       6353  
      6222       6223       6234       6233       6343       6344       6355       6354  
      6223       6224       6235       6234       6344       6345       6356       6355  
      6224       6225       6236       6235       6345       6346       6357       6356  
      6225       6226       6237       6236       6346       6347       6358       6357  
      6227       6228       6239       6238       6348       6349       6360       6359  
      6228       6229       6240       6239       6349       6350       6361       6360  
      6229       6230       6241       6240       6350       6351       6362       6361  
      6230       6231       6242       6241       6351       6352       6363       6362  
      6231       6232       6243       6242       6352       6353       6364       6363  
      6232       6233       6244       6243       6353       6354       6365       6364  
      6233       6234       6245       6244       6354       6355       6366       6365  
      6234       6235       6246       6245       6355       6356       6367       6366  
      6235       6236       6247       6246       6356       6357       6368       6367  
      6236       6237       6248       6247       6357       6358       6369       6368  
      6238       6239       6250       6249       6359       6360       6371       6370  
      6239       6240       6251       6250       6360       6361       6372       6371  
      6240       6241       6252       6251       6361       6362       6373       6372  
      6241       6242       6253       6252       6362       6363       6374       6373  
      6242       6243       6254       6253       6363       6364       6375       6374  
      6243       6244       6255       6254       6364       6365       6376       6375  
      6244       6245       6256       6255       6365       6366       6377       6376  
      6245       6246       6257       6256       6366       6367       6378       6377  
      6246       6247       6258       6257       6367       6368       6379       6378  
      6247       6248       6259       6258       6368       6369       6380       6379  
      6249       6250       6261       6260       6370       6371       6382       6381  
      6250       6251       6262       6261       6371       6372       6383       6382  
      6251       6252       6263       6262       6372       6373       6384       6383  
      6252       6253       6264       6263       6373       6374       6385       6384  
      6253       6254       6265       6264       6374       6375       6386       6385  
      6254       6255       6266       6265       6375       6376       6387       6386  
      6255       6256       6267       6266       6376       6377       6388       6387  
      6256       6257       6268       6267       6377       6378       6389       6388  
      6257       6258       6269       6268       6378       6379       6390       6389  
      6258       6259       6270       6269       6379       6380       6391       6390  
      6260       6261       6272       6271       6381       6382       6393       6392  
      6261       6262       6273       6272       6382       6383       6394       6393  
      6262       6263       6274       6273       6383       6384       6395       6394  
      6263       6264       6275       6274       6384       6385       6396       6395  
      6264       6265       6276       6275       6385       6386       6397       6396  
      6265       6266       6277       6276       6386       6387       6398       6397  
      6266       6267       6278       6277       6387       6388       6399       6398  
      6267       6268       6279       6278       6388       6389       6400       6399  
      6268       6269       6280       6279       6389       6390       6401       6400  
      6269       6270       6281       6280       6390       6391       6402       6401  
      6271       6272       6283       6282       6392       6393       6404       6403  
      6272       6273       6284       6283       6393       6394       6405       6404  
      6273       6274       6285       6284       6394       6395       6406       6405  
      6274       6275       6286       6285       6395       6396       6407       6406  
      6275       6276       6287       6286       6396       6397       6408       6407  
      6276       6277       6288       6287       6397       6398       6409       6408  
      6277       6278       6289       6288       6398       6399       6410       6409  
      6278       6279       6290       6289       6399       6400       6411       6410  
      6279       6280       6291       6290       6400       6401       6412       6411  
      6280       6281       6292       6291       6401       6402       6413       6412  
      6293       6294       6305       6304       6414       6415       6426       6425  
      6294       6295       6306       6305       6415       6416       6427       6426  
      6295       6296       6307       6306       6416       6417       6428       6427  
      6296       6297       6308       6307       6417       6418       6429       6428  
      6297       6298       6309       6308       6418       6419       6430       6429  
      6298       6299       6310       6309       6419       6420       6431       6430  
      6299       6300       6311       6310       6420       6421       6432       6431  
      6300       6301       6312       6311       6421       6422       6433       6432  
      6301       6302       6313       6312       6422       6423       6434       6433  
      6302       6303       6314       6313       6423       6424       6435       6434  
      6304       6305       6316       6315       6425       6426       6437       6436  
      6305       6306       6317       6316       6426       6427       6438       6437  
      6306       6307       6318       6317       6427       6428       6439       6438  
      6307       6308       6319       6318       6428       6429       6440       6439  
      6308       6309       6320       6319       6429       6430       6441       6440  
      6309       6310       6321       6320       6430       6431       6442       6441  
      6310       6311       6322       6321       6431       6432       6443       6442  
      6311       6312       6323       6322       6432       6433       6444       6443  
      6312       6313       6324       6323       6433       6434       6445       6444  
      6313       6314       6325       6324       6434       6435       6446       6445  
      6315       6316       6327       6326       6436       6437       6448       6447  
      6316       6317       6328       6327       6437       6438       6449       6448  
      6317       6318       6329       6328       6438       6439       6450       6449  
      6318       6319       6330       6329       6439       6440       6451       6450  
      6319       6320       6331       6330       6440       6441       6452       6451  
      6320       6321       6332       6331       6441       6442       6453       6452  
      6321       6322       6333       6332       6442       6443       6454       6453  
      6322       6323       6334       6333       6443       6444       6455       6454  
      6323       6324       6335       6334       6444       6445       6456       6455  
      6324       6325       6336       6335       6445       6446       6457       6456  
      6326       6327       6338       6337       6447       6448       6459       6458  
      6327       6328       6339       6338       6448       6449       6460       6459  
      6328       6329       6340       6339       6449       6450       6461       6460  
      6329       6330       6341       6340       6450       6451       6462       6461  
      6330       6331       6342       6341       6451       6452       6463       6462  
      6331       6332       6343       6342       6452       6453       6464       6463  
      6332       6333       6344       6343       6453       6454       6465       6464  
      6333       6334       6345       6344       6454       6455       6466       6465  
      6334       6335       6346       6345       6455       6456       6467       6466  
      6335       6336       6347       6346       6456       6457       6468       6467  
      6337       6338       6349       6348       6458       6459       6470       6469  
      6338       6339       6350       6349       6459       6460       6471       6470  
      6339       6340       6351       6350       6460       6461       6472       6471  
      6340       6341       6352       6351       6461       6462       6473       6472  
      6341       6342       6353       6352       6462       6463       6474       6473  
      6342       6343       6354       6353       6463       6464       6475       6474  
      6343       6344       6355       6354       6464       6465       6476       6475  
      6344       6345       6356       6355       6465       6466       6477       6476  
      6345       6346       6357       6356       6466       6467       6478       6477  
      6346       6347       6358       6357       6467       6468       6479       6478  
      6348       6349       6360       6359       6469       6470       6481       6480  
      6349       6350       6361       6360       6470       6471       6482       6481  
      6350       6351       6362       6361       6471       6472       6483       6482  
      6351       6352       6363       6362       6472       6473       6484       6483  
      6352       6353       6364       6363       6473       6474       6485       6484  
      6353       6354       6365       6364       6474       6475       6486       6485  
      6354       6355       6366       6365       6475       6476       6487       6486  
      6355       6356       6367       6366       6476       6477       6488       6487  
      6356       6357       6368       6367       6477       6478       6489       6488  
      6357       6358       6369       6368       6478       6479       6490       6489  
      6359       6360       6371       6370       6480       6481       6492       6491  
      6360       6361       6372       6371       6481       6482       6493       6492  
      6361       6362       6373       6372       6482       6483       6494       6493  
      6362       6363       6374       6373       6483       6484       6495       6494  
      6363       6364       6375       6374       6484       6485       6496       6495  
      6364       6365       6376       6375       6485       6486       6497       6496  
      6365       6366       6377       6376       6486       6487       6498       6497  
      6366       6367       6378       6377       6487       6488       6499       6498  
      6367       6368       6379       6378       6488       6489       6500       6499  
      6368       6369       6380       6379       6489       6490       6501       6500  
      6370       6371       6382       6381       6491       6492       6503       6502  
      6371       6372       6383       6382       6492       6493       6504       6503  
      6372       6373       6384       6383       6493       6494       6505       6504  
      6373       6374       6385       6384       6494       6495       6506       6505  
      6374       6375       6386       6385       6495       6496       6507       6506  
      6375       6376       6387       6386       6496       6497       6508       6507  
      6376       6377       6388       6387       6497       6498       6509       6508  
      6377       6378       6389       6388       6498       6499       6510       6509  
      6378       6379       6390       6389       6499       6500       6511       6510  
      6379       6380       6391       6390       6500       6501       6512       6511  
      6381       6382       6393       6392       6502       6503       6514       6513  
      6382       6383       6394       6393       6503       6504       6515       6514  
      6383       6384       6395       6394       6504       6505       6516       6515  
      6384       6385       6396       6395       6505       6506       6517       6516  
      6385       6386       6397       6396       6506       6507       6518       6517  
      6386       6387       6398       6397       6507       6508       6519       6518  
      6387       6388       6399       6398       6508       6509       6520       6519  
      6388       6389       6400       6399       6509       6510       6521       6520  
      6389       6390       6401       6400       6510       6511       6522       6521  
      6390       6391       6402       6401       6511       6512       6523       6522  
      6392       6393       6404       6403       6513       6514       6525       6524  
      6393       6394       6405       6404       6514       6515       6526       6525  
      6394       6395       6406       6405       6515       6516       6527       6526  
      6395       6396       6407       6406       6516       6517       6528       6527  
      6396       6397       6408       6407       6517       6518       6529       6528  
      6397       6398       6409       6408       6518       6519       6530       6529  
      6398       6399       6410       6409       6519       6520       6531       6530  
      6399       6400       6411       6410       6520       6521       6532       6531  
      6400       6401       6412       6411       6521       6522       6533       6532  
      6401       6402       6413       6412       6522       6523       6534       6533  
      6414       6415       6426       6425       6535       6536       6547       6546  
      6415       6416       6427       6426       6536       6537       6548       6547  
      6416       6417       6428       6427       6537       6538       6549       6548  
      6417       6418       6429       6428       6538       6539       6550       6549  
      6418       6419       6430       6429       6539       6540       6551       6550  
      6419       6420       6431       6430       6540       6541       6552       6551  
      6420       6421       6432       6431       6541       6542       6553       6552  
      6421       6422       6433       6432       6542       6543       6554       6553  
      6422       6423       6434       6433       6543       6544       6555       6554  
      6423       6424       6435       6434       6544       6545       6556       6555  
      6425       6426       6437       6436       6546       6547       6558       6557  
      6426       6427       6438       6437       6547       6548       6559       6558  
      6427       6428       6439       6438       6548       6549       6560       6559  
      6428       6429       6440       6439       6549       6550       6561       6560  
      6429       6430       6441       6440       6550       6551       6562       6561  
      6430       6431       6442       6441       6551       6552       6563       6562  
      6431       6432       6443       6442       6552       6553       6564       6563  
      6432       6433       6444       6443       6553       6554       6565       6564  
      6433       6434       6445       6444       6554       6555       6566       6565  
      6434       6435       6446       6445       6555       6556       6567       6566  
      6436       6437       6448       6447       6557       6558       6569       6568  
      6437       6438       6449       6448       6558       6559       6570       6569  
      6438       6439       6450       6449       6559       6560       6571       6570  
      6439       6440       6451       6450       6560       6561       6572       6571  
      6440       6441       6452       6451       6561       6562       6573       6572  
      6441       6442       6453       6452       6562       6563       6574       6573  
      6442       6443       6454       6453       6563       6564       6575       6574  
      6443       6444       6455       6454       6564       6565       6576       6575  
      6444       6445       6456       6455       6565       6566       6577       6576  
      6445       6446       6457       6456       6566       6567       6578       6577  
      6447       6448       6459       6458       6568       6569       6580       6579  
      6448       6449       6460       6459       6569       6570       6581       6580  
      6449       6450       6461       6460       6570       6571       6582       6581  
      6450       6451       6462       6461       6571       6572       6583       6582  
      6451       6452       6463       6462       6572       6573       6584       6583  
      6452       6453       6464       6463       6573       6574       6585       6584  
      6453       6454       6465       6464       6574       6575       6586       6585  
      6454       6455       6466       6465       6575       6576       6587       6586  
      6455       6456       6467       6466       6576       6577       6588       6587  
      6456       6457       6468       6467       6577       6578       6589       6588  
      6458       6459       6470       6469       6579       6580       6591       6590  
      6459       6460       6471       6470       6580       6581       6592       6591  
      6460       6461       6472       6471       6581       6582       6593       6592  
      6461       6462       6473       6472       6582       6583       6594       6593  
      6462       6463       6474       6473       6583       6584       6595       6594  
      6463       6464       6475       6474       6584       6585       6596       6595  
      6464       6465       6476       6475       6585       6586       6597       6596  
      6465       6466       6477       6476       6586       6587       6598       6597  
      6466       6467       6478       6477       6587       6588       6599       6598  
      6467       6468       6479       6478       6588       6589       6600       6599  
      6469       6470       6481       6480       6590       6591       6602       6601  
      6470       6471       6482       6481       6591       6592       6603       6602  
      6471       6472       6483       6482       6592       6593       6604       6603  
      6472       6473       6484       6483       6593       6594       6605       6604  
      6473       6474       6485       6484       6594       6595       6606       6605  
      6474       6475       6486       6485       6595       6596       6607       6606  
      6475       6476       6487       6486       6596       6597       6608       6607  
      6476       6477       6488       6487       6597       6598       6609       6608  
      6477       6478       6489       6488       6598       6599       6610       6609  
      6478       6479       6490       6489       6599       6600       6611       6610  
      6480       6481       6492       6491       6601       6602       6613       6612  
      6481       6482       6493       6492       6602       6603       6614       6613  
      6482       6483       6494       6493       6603       6604       6615       6614  
      6483       6484       6495       6494       6604       6605       6616       6615  
      6484       6485       6496       6495       6605       6606       6617       6616  
      6485       6486       6497       6496       6606       6607       6618       6617  
      6486       6487       6498       6497       6607       6608       6619       6618  
      6487       6488       6499       6498       6608       6609       6620       6619  
      6488       6489       6500       6499       6609       6610       6621       6620  
      6489       6490       6501       6500       6610       6611       6622       6621  
      6491       6492       6503       6502       6612       6613       6624       6623  
      6492       6493       6504       6503       6613       6614       6625       6624  
      6493       6494       6505       6504       6614       6615       6626       6625  
      6494       6495       6506       6505       6615       6616       6627       6626  
      6495       6496       6507       6506       6616       6617       6628       6627  
      6496       6497       6508       6507       6617       6618       6629       6628  
      6497       6498       6509       6508       6618       6619       6630       6629  
      6498       6499       6510       6509       6619       6620       6631       6630  
      6499       6500       6511       6510       6620       6621       6632       6631  
      6500       6501       6512       6511       6621       6622       6633       6632  
      6502       6503       6514       6513       6623       6624       6635       6634  
      6503       6504       6515       6514       6624       6625       6636       6635  
      6504       6505       6516       6515       6625       6626       6637       6636  
      6505       6506       6517       6516       6626       6627       6638       6637  
      6506       6507       6518       6517       6627       6628       6639       6638  
      6507       6508       6519       6518       6628       6629       6640       6639  
      6508       6509       6520       6519       6629       6630       6641       6640  
      6509       6510       6521       6520       6630       6631       6642       6641  
      6510       6511       6522       6521       6631       6632       6643       6642  
      6511       6512       6523       6522       6632       6633       6644       6643  
      6513       6514       6525       6524       6634       6635       6646       6645  
      6514       6515       6526       6525       6635       6636       6647       6646  
      6515       6516       6527       6526       6636       6637       6648       6647  
      6516       6517       6528       6527       6637       6638       6649       6648  
      6517       6518       6529       6528       6638       6639       6650       6649  
      6518       6519       6530       6529       6639       6640       6651       6650  
      6519       6520       6531       6530       6640       6641       6652       6651  
      6520       6521       6532       6531       6641       6642       6653       6652  
      6521       6522       6533       6532       6642       6643       6654       6653  
      6522       6523       6534       6533       6643       6644       6655       6654  
      6535       6536       6547       6546       6656       6657       6668       6667  
      6536       6537       6548       6547       6657       6658       6669       6668  
      6537       6538       6549       6548       6658       6659       6670       6669  
      6538       6539       6550       6549       6659       6660       6671       6670  
      6539       6540       6551       6550       6660       6661       6672       6671  
      6540       6541       6552       6551       6661       6662       6673       6672  
      6541       6542       6553       6552       6662       6663       6674       6673  
      6542       6543       6554       6553       6663       6664       6675       6674  
      6543       6544       6555       6554       6664       6665       6676       6675  
      6544       6545       6556       6555       6665       6666       6677       6676  
      6546       6547       6558       6557       6667       6668       6679       6678  
      6547       6548       6559       6558       6668       6669       6680       6679  
      6548       6549       6560       6559       6669       6670       6681       6680  
      6549       6550       6561       6560       6670       6671       6682       6681  
      6550       6551       6562       6561       6671       6672       6683       6682  
      6551       6552       6563       6562       6672       6673       6684       6683  
      6552       6553       6564       6563       6673       6674       6685       6684  
      6553       6554       6565       6564       6674       6675       6686       6685  
      6554       6555       6566       6565       6675       6676       6687       6686  
      6555       6556       6567       6566       6676       6677       6688       6687  
      6557       6558       6569       6568       6678       6679       6690       6689  
      6558       6559       6570       6569       6679       6680       6691       6690  
      6559       6560       6571       6570       6680       6681       6692       6691  
      6560       6561       6572       6571       6681       6682       6693       6692  
      6561       6562       6573       6572       6682       6683       6694       6693  
      6562       6563       6574       6573       6683       6684       6695       6694  
      6563       6564       6575       6574       6684       6685       6696       6695  
      6564       6565       6576       6575       6685       6686       6697       6696  
      6565       6566       6577       6576       6686       6687       6698       6697  
      6566       6567       6578       6577       6687       6688       6699       6698  
      6568       6569       6580       6579       6689       6690       6701       6700  
      6569       6570       6581       6580       6690       6691       6702       6701  
      6570       6571       6582       6581       6691       6692       6703       6702  
      6571       6572       6583       6582       6692       6693       6704       6703  
      6572       6573       6584       6583       6693       6694       6705       6704  
      6573       6574       6585       6584       6694       6695       6706       6705  
      6574       6575       6586       6585       6695       6696       6707       6706  
      6575       6576       6587       6586       6696       6697       6708       6707  
      6576       6577       6588       6587       6697       6698       6709       6708  
      6577       6578       6589       6588       6698       6699       6710       6709  
      6579       6580       6591       6590       6700       6701       6712       6711  
      6580       6581       6592       6591       6701       6702       6713       6712  
      6581       6582       6593       6592       6702       6703       6714       6713  
      6582       6583       6594       6593       6703       6704       6715       6714  
      6583       6584       6595       6594       6704       6705       6716       6715  
      6584       6585       6596       6595       6705       6706       6717       6716  
      6585       6586       6597       6596       6706       6707       6718       6717  
      6586       6587       6598       6597       6707       6708       6719       6718  
      6587       6588       6599       6598       6708       6709       6720       6719  
      6588       6589       6600       6599       6709       6710       6721       6720  
      6590       6591       6602       6601       6711       6712       6723       6722  
      6591       6592       6603       6602       6712       6713       6724       6723  
      6592       6593       6604       6603       6713       6714       6725       6724  
      6593       6594       6605       6604       6714       6715       6726       6725  
      6594       6595       6606       6605       6715       6716       6727       6726  
      6595       6596       6607       6606       6716       6717       6728       6727  
      6596       6597       6608       6607       6717       6718       6729       6728  
      6597       6598       6609       6608       6718       6719       6730       6729  
      6598       6599       6610       6609       6719       6720       6731       6730  
      6599       6600       6611       6610       6720       6721       6732       6731  
      6601       6602       6613       6612       6722       6723       6734       6733  
      6602       6603       6614       6613       6723       6724       6735       6734  
      6603       6604       6615       6614       6724       6725       6736       6735  
      6604       6605       6616       6615       6725       6726       6737       6736  
      6605       6606       6617       6616       6726       6727       6738       6737  
      6606       6607       6618       6617       6727       6728       6739       6738  
      6607       6608       6619       6618       6728       6729       6740       6739  
      6608       6609       6620       6619       6729       6730       6741       6740  
      6609       6610       6621       6620       6730       6731       6742       6741  
      6610       6611       6622       6621       6731       6732       6743       6742  
      6612       6613       6624       6623       6733       6734       6745       6744  
      6613       6614       6625       6624       6734       6735       6746       6745  
      6614       6615       6626       6625       6735       6736       6747       6746  
      6615       6616       6627       6626       6736       6737       6748       6747  
      6616       6617       6628       6627       6737       6738       6749       6748  
      6617       6618       6629       6628       6738       6739       6750       6749  
      6618       6619       6630       6629       6739       6740       6751       6750  
      6619       6620       6631       6630       6740       6741       6752       6751  
      6620       6621       6632       6631       6741       6742       6753       6752  
      6621       6622       6633       6632       6742       6743       6754       6753  
      6623       6624       6635       6634       6744       6745       6756       6755  
      6624       6625       6636       6635       6745       6746       6757       6756  
      6625       6626       6637       6636       6746       6747       6758       6757  
      6626       6627       6638       6637       6747       6748       6759       6758  
      6627       6628       6639       6638       6748       6749       6760       6759  
      6628       6629       6640       6639       6749       6750       6761       6760  
      6629       6630       6641       6640       6750       6751       6762       6761  
      6630       6631       6642       6641       6751       6752       6763       6762  
      6631       6632       6643       6642       6752       6753       6764       6763  
      6632       6633       6644       6643       6753       6754       6765       6764  
      6634       6635       6646       6645       6755       6756       6767       6766  
      6635       6636       6647       6646       6756       6757       6768       6767  
      6636       6637       6648       6647       6757       6758       6769       6768  
      6637       6638       6649       6648       6758       6759       6770       6769  
      6638       6639       6650       6649       6759       6760       6771       6770  
      6639       6640       6651       6650       6760       6761       6772       6771  
      6640       6641       6652       6651       6761       6762       6773       6772  
      6641       6642       6653       6652       6762       6763       6774       6773  
      6642       6643       6654       6653       6763       6764       6775       6774  
      6643       6644       6655       6654       6764       6765       6776       6775  
      6656       6657       6668       6667       6777       6778       6789       6788  
      6657       6658       6669       6668       6778       6779       6790       6789  
      6658       6659       6670       6669       6779       6780       6791       6790  
      6659       6660       6671       6670       6780       6781       6792       6791  
      6660       6661       6672       6671       6781       6782       6793       6792  
      6661       6662       6673       6672       6782       6783       6794       6793  
      6662       6663       6674       6673       6783       6784       6795       6794  
      6663       6664       6675       6674       6784       6785       6796       6795  
      6664       6665       6676       6675       6785       6786       6797       6796  
      6665       6666       6677       6676       6786       6787       6798       6797  
      6667       6668       6679       6678       6788       6789       6800       6799  
      6668       6669       6680       6679       6789       6790       6801       6800  
      6669       6670       6681       6680       6790       6791       6802       6801  
      6670       6671       6682       6681       6791       6792       6803       6802  
      6671       6672       6683       6682       6792       6793       6804       6803  
      6672       6673       6684       6683       6793       6794       6805       6804  
      6673       6674       6685       6684       6794       6795       6806       6805  
      6674       6675       6686       6685       6795       6796       6807       6806  
      6675       6676       6687       6686       6796       6797       6808       6807  
      6676       6677       6688       6687       6797       6798       6809       6808  
      6678       6679       6690       6689       6799       6800       6811       6810  
      6679       6680       6691       6690       6800       6801       6812       6811  
      6680       6681       6692       6691       6801       6802       6813       6812  
      6681       6682       6693       6692       6802       6803       6814       6813  
      6682       6683       6694       6693       6803       6804       6815       6814  
      6683       6684       6695       6694       6804       6805       6816       6815  
      6684       6685       6696       6695       6805       6806       6817       6816  
      6685       6686       6697       6696       6806       6807       6818       6817  
      6686       6687       6698       6697       6807       6808       6819       6818  
      6687       6688       6699       6698       6808       6809       6820       6819  
      6689       6690       6701       6700       6810       6811       6822       6821  
      6690       6691       6702       6701       6811       6812       6823       6822  
      6691       6692       6703       6702       6812       6813       6824       6823  
      6692       6693       6704       6703       6813       6814       6825       6824  
      6693       6694       6705       6704       6814       6815       6826       6825  
      6694       6695       6706       6705       6815       6816       6827       6826  
      6695       6696       6707       6706       6816       6817       6828       6827  
      6696       6697       6708       6707       6817       6818       6829       6828  
      6697       6698       6709       6708       6818       6819       6830       6829  
      6698       6699       6710       6709       6819       6820       6831       6830  
      6700       6701       6712       6711       6821       6822       6833       6832  
      6701       6702       6713       6712       6822       6823       6834       6833  
      6702       6703       6714       6713       6823       6824       6835       6834  
      6703       6704       6715       6714       6824       6825       6836       6835  
      6704       6705       6716       6715       6825       6826       6837       6836  
      6705       6706       6717       6716       6826       6827       6838       6837  
      6706       6707       6718       6717       6827       6828       6839       6838  
      6707       6708       6719       6718       6828       6829       6840       6839  
      6708       6709       6720       6719       6829       6830       6841       6840  
      6709       6710       6721       6720       6830       6831       6842       6841  
      6711       6712       6723       6722       6832       6833       6844       6843  
      6712       6713       6724       6723       6833       6834       6845       6844  
      6713       6714       6725       6724       6834       6835       6846       6845  
      6714       6715       6726       6725       6835       6836       6847       6846  
      6715       6716       6727       6726       6836       6837       6848       6847  
      6716       6717       6728       6727       6837       6838       6849       6848  
      6717       6718       6729       6728       6838       6839       6850       6849  
      6718       6719       6730       6729       6839       6840       6851       6850  
      6719       6720       6731       6730       6840       6841       6852       6851  
      6720       6721       6732       6731       6841       6842       6853       6852  
      6722       6723       6734       6733       6843       6844       6855       6854  
      6723       6724       6735       6734       6844       6845       6856       6855  
      6724       6725       6736       6735       6845       6846       6857       6856  
      6725       6726       6737       6736       6846       6847       6858       6857  
      6726       6727       6738       6737       6847       6848       6859       6858  
      6727       6728       6739       6738       6848       6849       6860       6859  
      6728       6729       6740       6739       6849       6850       6861       6860  
      6729       6730       6741       6740       6850       6851       6862       6861  
      6730       6731       6742       6741       6851       6852       6863       6862  
      6731       6732       6743       6742       6852       6853       6864       6863  
      6733       6734       6745       6744       6854       6855       6866       6865  
      6734       6735       6746       6745       6855       6856       6867       6866  
      6735       6736       6747       6746       6856       6857       6868       6867  
      6736       6737       6748       6747       6857       6858       6869       6868  
      6737       6738       6749       6748       6858       6859       6870       6869  
      6738       6739       6750       6749       6859       6860       6871       6870  
      6739       6740       6751       6750       6860       6861       6872       6871  
      6740       6741       6752       6751       6861       6862       6873       6872  
      6741       6742       6753       6752       6862       6863       6874       6873  
      6742       6743       6754       6753       6863       6864       6875       6874  
      6744       6745       6756       6755       6865       6866       6877       6876  
      6745       6746       6757       6756       6866       6867       6878       6877  
      6746       6747       6758       6757       6867       6868       6879       6878  
      6747       6748       6759       6758       6868       6869       6880       6879  
      6748       6749       6760       6759       6869       6870       6881       6880  
      6749       6750       6761       6760       6870       6871       6882       6881  
      6750       6751       6762       6761       6871       6872       6883       6882  
      6751       6752       6763       6762       6872       6873       6884       6883  
      6752       6753       6764       6763       6873       6874       6885       6884  
      6753       6754       6765       6764       6874       6875       6886       6885  
      6755       6756       6767       6766       6876       6877       6888       6887  
      6756       6757       6768       6767       6877       6878       6889       6888  
      6757       6758       6769       6768       6878       6879       6890       6889  
      6758       6759       6770       6769       6879       6880       6891       6890  
      6759       6760       6771       6770       6880       6881       6892       6891  
      6760       6761       6772       6771       6881       6882       6893       6892  
      6761       6762       6773       6772       6882       6883       6894       6893  
      6762       6763       6774       6773       6883       6884       6895       6894  
      6763       6764       6775       6774       6884       6885       6896       6895  
      6764       6765       6776       6775       6885       6886       6897       6896  
      6777       6778       6789       6788       6898       6899       6910       6909  
      6778       6779       6790       6789       6899       6900       6911       6910  
      6779       6780       6791       6790       6900       6901       6912       6911  
      6780       6781       6792       6791       6901       6902       6913       6912  
      6781       6782       6793       6792       6902       6903       6914       6913  
      6782       6783       6794       6793       6903       6904       6915       6914  
      6783       6784       6795       6794       6904       6905       6916       6915  
      6784       6785       6796       6795       6905       6906       6917       6916  
      6785       6786       6797       6796       6906       6907       6918       6917  
      6786       6787       6798       6797       6907       6908       6919       6918  
      6788       6789       6800       6799       6909       6910       6921       6920  
      6789       6790       6801       6800       6910       6911       6922       6921  
      6790       6791       6802       6801       6911       6912       6923       6922  
      6791       6792       6803       6802       6912       6913       6924       6923  
      6792       6793       6804       6803       6913       6914       6925       6924  
      6793       6794       6805       6804       6914       6915       6926       6925  
      6794       6795       6806       6805       6915       6916       6927       6926  
      6795       6796       6807       6806       6916       6917       6928       6927  
      6796       6797       6808       6807       6917       6918       6929       6928  
      6797       6798       6809       6808       6918       6919       6930       6929  
      6799       6800       6811       6810       6920       6921       6932       6931  
      6800       6801       6812       6811       6921       6922       6933       6932  
      6801       6802       6813       6812       6922       6923       6934       6933  
      6802       6803       6814       6813       6923       6924       6935       6934  
      6803       6804       6815       6814       6924       6925       6936       6935  
      6804       6805       6816       6815       6925       6926       6937       6936  
      6805       6806       6817       6816       6926       6927       6938       6937  
      6806       6807       6818       6817       6927       6928       6939       6938  
      6807       6808       6819       6818       6928       6929       6940       6939  
      6808       6809       6820       6819       6929       6930       6941       6940  
      6810       6811       6822       6821       6931       6932       6943       6942  
      6811       6812       6823       6822       6932       6933       6944       6943  
      6812       6813       6824       6823       6933       6934       6945       6944  
      6813       6814       6825       6824       6934       6935       6946       6945  
      6814       6815       6826       6825       6935       6936       6947       6946  
      6815       6816       6827       6826       6936       6937       6948       6947  
      6816       6817       6828       6827       6937       6938       6949       6948  
      6817       6818       6829       6828       6938       6939       6950       6949  
      6818       6819       6830       6829       6939       6940       6951       6950  
      6819       6820       6831       6830       6940       6941       6952       6951  
      6821       6822       6833       6832       6942       6943       6954       6953  
      6822       6823       6834       6833       6943       6944       6955       6954  
      6823       6824       6835       6834       6944       6945       6956       6955  
      6824       6825       6836       6835       6945       6946       6957       6956  
      6825       6826       6837       6836       6946       6947       6958       6957  
      6826       6827       6838       6837       6947       6948       6959       6958  
      6827       6828       6839       6838       6948       6949       6960       6959  
      6828       6829       6840       6839       6949       6950       6961       6960  
      6829       6830       6841       6840       6950       6951       6962       6961  
      6830       6831       6842       6841       6951       6952       6963       6962  
      6832       6833       6844       6843       6953       6954       6965       6964  
      6833       6834       6845       6844       6954       6955       6966       6965  
      6834       6835       6846       6845       6955       6956       6967       6966  
      6835       6836       6847       6846       6956       6957       6968       6967  
      6836       6837       6848       6847       6957       6958       6969       6968  
      6837       6838       6849       6848       6958       6959       6970       6969  
      6838       6839       6850       6849       6959       6960       6971       6970  
      6839       6840       6851       6850       6960       6961       6972       6971  
      6840       6841       6852       6851       6961       6962       6973       6972  
      6841       6842       6853       6852       6962       6963       6974       6973  
      6843       6844       6855       6854       6964       6965       6976       6975  
      6844       6845       6856       6855       6965       6966       6977       6976  
      6845       6846       6857       6856       6966       6967       6978       6977  
      6846       6847       6858       6857       6967       6968       6979       6978  
      6847       6848       6859       6858       6968       6969       6980       6979  
      6848       6849       6860       6859       6969       6970       6981       6980  
      6849       6850       6861       6860       6970       6971       6982       6981  
      6850       6851       6862       6861       6971       6972       6983       6982  
      6851       6852       6863       6862       6972       6973       6984       6983  
      6852       6853       6864       6863       6973       6974       6985       6984  
      6854       6855       6866       6865       6975       6976       6987       6986  
      6855       6856       6867       6866       6976       6977       6988       6987  
      6856       6857       6868       6867       6977       6978       6989       6988  
      6857       6858       6869       6868       6978       6979       6990       6989  
      6858       6859       6870       6869       6979       6980       6991       6990  
      6859       6860       6871       6870       6980       6981       6992       6991  
      6860       6861       6872       6871       6981       6982       6993       6992  
      6861       6862       6873       6872       6982       6983       6994       6993  
      6862       6863       6874       6873       6983       6984       6995       6994  
      6863       6864       6875       6874       6984       6985       6996       6995  
      6865       6866       6877       6876       6986       6987       6998       6997  
      6866       6867       6878       6877       6987       6988       6999       6998  
      6867       6868       6879       6878       6988       6989       7000       6999  
      6868       6869       6880       6879       6989       6990       7001       7000  
      6869       6870       6881       6880       6990       6991       7002       7001  
      6870       6871       6882       6881       6991       6992       7003       7002  
      6871       6872       6883       6882       6992       6993       7004       7003  
      6872       6873       6884       6883       6993       6994       7005       7004  
      6873       6874       6885       6884       6994       6995       7006       7005  
      6874       6875       6886       6885       6995       6996       7007       7006  
      6876       6877       6888       6887       6997       6998       7009       7008  
      6877       6878       6889       6888       6998       6999       7010       7009  
      6878       6879       6890       6889       6999       7000       7011       7010  
      6879       6880       6891       6890       7000       7001       7012       7011  
      6880       6881       6892       6891       7001       7002       7013       7012  
      6881       6882       6893       6892       7002       7003       7014       7013  
      6882       6883       6894       6893       7003       7004       7015       7014  
      6883       6884       6895       6894       7004       7005       7016       7015  
      6884       6885       6896       6895       7005       7006       7017       7016  
      6885       6886       6897       6896       7006       7007       7018       7017  
      6898       6899       6910       6909       7019       7020       7031       7030  
      6899       6900       6911       6910       7020       7021       7032       7031  
      6900       6901       6912       6911       7021       7022       7033       7032  
      6901       6902       6913       6912       7022       7023       7034       7033  
      6902       6903       6914       6913       7023       7024       7035       7034  
      6903       6904       6915       6914       7024       7025       7036       7035  
      6904       6905       6916       6915       7025       7026       7037       7036  
      6905       6906       6917       6916       7026       7027       7038       7037  
      6906       6907       6918       6917       7027       7028       7039       7038  
      6907       6908       6919       6918       7028       7029       7040       7039  
      6909       6910       6921       6920       7030       7031       7042       7041  
      6910       6911       6922       6921       7031       7032       7043       7042  
      6911       6912       6923       6922       7032       7033       7044       7043  
      6912       6913       6924       6923       7033       7034       7045       7044  
      6913       6914       6925       6924       7034       7035       7046       7045  
      6914       6915       6926       6925       7035       7036       7047       7046  
      6915       6916       6927       6926       7036       7037       7048       7047  
      6916       6917       6928       6927       7037       7038       7049       7048  
      6917       6918       6929       6928       7038       7039       7050       7049  
      6918       6919       6930       6929       7039       7040       7051       7050  
      6920       6921       6932       6931       7041       7042       7053       7052  
      6921       6922       6933       6932       7042       7043       7054       7053  
      6922       6923       6934       6933       7043       7044       7055       7054  
      6923       6924       6935       6934       7044       7045       7056       7055  
      6924       6925       6936       6935       7045       7046       7057       7056  
      6925       6926       6937       6936       7046       7047       7058       7057  
      6926       6927       6938       6937       7047       7048       7059       7058  
      6927       6928       6939       6938       7048       7049       7060       7059  
      6928       6929       6940       6939       7049       7050       7061       7060  
      6929       6930       6941       6940       7050       7051       7062       7061  
      6931       6932       6943       6942       7052       7053       7064       7063  
      6932       6933       6944       6943       7053       7054       7065       7064  
      6933       6934       6945       6944       7054       7055       7066       7065  
      6934       6935       6946       6945       7055       7056       7067       7066  
      6935       6936       6947       6946       7056       7057       7068       7067  
      6936       6937       6948       6947       7057       7058       7069       7068  
      6937       6938       6949       6948       7058       7059       7070       7069  
      6938       6939       6950       6949       7059       7060       7071       7070  
      6939       6940       6951       6950       7060       7061       7072       7071  
      6940       6941       6952       6951       7061       7062       7073       7072  
      6942       6943       6954       6953       7063       7064       7075       7074  
      6943       6944       6955       6954       7064       7065       7076       7075  
      6944       6945       6956       6955       7065       7066       7077       7076  
      6945       6946       6957       6956       7066       7067       7078       7077  
      6946       6947       6958       6957       7067       7068       7079       7078  
      6947       6948       6959       6958       7068       7069       7080       7079  
      6948       6949       6960       6959       7069       7070       7081       7080  
      6949       6950       6961       6960       7070       7071       7082       7081  
      6950       6951       6962       6961       7071       7072       7083       7082  
      6951       6952       6963       6962       7072       7073       7084       7083  
      6953       6954       6965       6964       7074       7075       7086       7085  
      6954       6955       6966       6965       7075       7076       7087       7086  
      6955       6956       6967       6966       7076       7077       7088       7087  
      6956       6957       6968       6967       7077       7078       7089       7088  
      6957       6958       6969       6968       7078       7079       7090       7089  
      6958       6959       6970       6969       7079       7080       7091       7090  
      6959       6960       6971       6970       7080       7081       7092       7091  
      6960       6961       6972       6971       7081       7082       7093       7092  
      6961       6962       6973       6972       7082       7083       7094       7093  
      6962       6963       6974       6973       7083       7084       7095       7094  
      6964       6965       6976       6975       7085       7086       7097       7096  
      6965       6966       6977       6976       7086       7087       7098       7097  
      6966       6967       6978       6977       7087       7088       7099       7098  
      6967       6968       6979       6978       7088       7089       7100       7099  
      6968       6969       6980       6979       7089       7090       7101       7100  
      6969       6970       6981       6980       7090       7091       7102       7101  
      6970       6971       6982       6981       7091       7092       7103       7102  
      6971       6972       6983       6982       7092       7093       7104       7103  
      6972       6973       6984       6983       7093       7094       7105       7104  
      6973       6974       6985       6984       7094       7095       7106       7105  
      6975       6976       6987       6986       7096       7097       7108       7107  
      6976       6977       6988       6987       7097       7098       7109       7108  
      6977       6978       6989       6988       7098       7099       7110       7109  
      6978       6979       6990       6989       7099       7100       7111       7110  
      6979       6980       6991       6990       7100       7101       7112       7111  
      6980       6981       6992       6991       7101       7102       7113       7112  
      6981       6982       6993       6992       7102       7103       7114       7113  
      6982       6983       6994       6993       7103       7104       7115       7114  
      6983       6984       6995       6994       7104       7105       7116       7115  
      6984       6985       6996       6995       7105       7106       7117       7116  
      6986       6987       6998       6997       7107       7108       7119       7118  
      6987       6988       6999       6998       7108       7109       7120       7119  
      6988       6989       7000       6999       7109       7110       7121       7120  
      6989       6990       7001       7000       7110       7111       7122       7121  
      6990       6991       7002       7001       7111       7112       7123       7122  
      6991       6992       7003       7002       7112       7113       7124       7123  
      6992       6993       7004       7003       7113       7114       7125       7124  
      6993       6994       7005       7004       7114       7115       7126       7125  
      6994       6995       7006       7005       7115       7116       7127       7126  
      6995       6996       7007       7006       7116       7117       7128       7127  
      6997       6998       7009       7008       7118       7119       7130       7129  
      6998       6999       7010       7009       7119       7120       7131       7130  
      6999       7000       7011       7010       7120       7121       7132       7131  
      7000       7001       7012       7011       7121       7122       7133       7132  
      7001       7002       7013       7012       7122       7123       7134       7133  
      7002       7003       7014       7013       7123       7124       7135       7134  
      7003       7004       7015       7014       7124       7125       7136       7135  
      7004       7005       7016       7015       7125       7126       7137       7136  
      7005       7006       7017       7016       7126       7127       7138       7137  
      7006       7007       7018       7017       7127       7128       7139       7138  
      7019       7020       7031       7030       7140       7141       7152       7151  
      7020       7021       7032       7031       7141       7142       7153       7152  
      7021       7022       7033       7032       7142       7143       7154       7153  
      7022       7023       7034       7033       7143       7144       7155       7154  
      7023       7024       7035       7034       7144       7145       7156       7155  
      7024       7025       7036       7035       7145       7146       7157       7156  
      7025       7026       7037       7036       7146       7147       7158       7157  
      7026       7027       7038       7037       7147       7148       7159       7158  
      7027       7028       7039       7038       7148       7149       7160       7159  
      7028       7029       7040       7039       7149       7150       7161       7160  
      7030       7031       7042       7041       7151       7152       7163       7162  
      7031       7032       7043       7042       7152       7153       7164       7163  
      7032       7033       7044       7043       7153       7154       7165       7164  
      7033       7034       7045       7044       7154       7155       7166       7165  
      7034       7035       7046       7045       7155       7156       7167       7166  
      7035       7036       7047       7046       7156       7157       7168       7167  
      7036       7037       7048       7047       7157       7158       7169       7168  
      7037       7038       7049       7048       7158       7159       7170       7169  
      7038       7039       7050       7049       7159       7160       7171       7170  
      7039       7040       7051       7050       7160       7161       7172       7171  
      7041       7042       7053       7052       7162       7163       7174       7173  
      7042       7043       7054       7053       7163       7164       7175       7174  
      7043       7044       7055       7054       7164       7165       7176       7175  
      7044       7045       7056       7055       7165       7166       7177       7176  
      7045       7046       7057       7056       7166       7167       7178       7177  
      7046       7047       7058       7057       7167       7168       7179       7178  
      7047       7048       7059       7058       7168       7169       7180       7179  
      7048       7049       7060       7059       7169       7170       7181       7180  
      7049       7050       7061       7060       7170       7171       7182       7181  
      7050       7051       7062       7061       7171       7172       7183       7182  
      7052       7053       7064       7063       7173       7174       7185       7184  
      7053       7054       7065       7064       7174       7175       7186       7185  
      7054       7055       7066       7065       7175       7176       7187       7186  
      7055       7056       7067       7066       7176       7177       7188       7187  
      7056       7057       7068       7067       7177       7178       7189       7188  
      7057       7058       7069       7068       7178       7179       7190       7189  
      7058       7059       7070       7069       7179       7180       7191       7190  
      7059       7060       7071       7070       7180       7181       7192       7191  
      7060       7061       7072       7071       7181       7182       7193       7192  
      7061       7062       7073       7072       7182       7183       7194       7193  
      7063       7064       7075       7074       7184       7185       7196       7195  
      7064       7065       7076       7075       7185       7186       7197       7196  
      7065       7066       7077       7076       7186       7187       7198       7197  
      7066       7067       7078       7077       7187       7188       7199       7198  
      7067       7068       7079       7078       7188       7189       7200       7199  
      7068       7069       7080       7079       7189       7190       7201       7200  
      7069       7070       7081       7080       7190       7191       7202       7201  
      7070       7071       7082       7081       7191       7192       7203       7202  
      7071       7072       7083       7082       7192       7193       7204       7203  
      7072       7073       7084       7083       7193       7194       7205       7204  
      7074       7075       7086       7085       7195       7196       7207       7206  
      7075       7076       7087       7086       7196       7197       7208       7207  
      7076       7077       7088       7087       7197       7198       7209       7208  
      7077       7078       7089       7088       7198       7199       7210       7209  
      7078       7079       7090       7089       7199       7200       7211       7210  
      7079       7080       7091       7090       7200       7201       7212       7211  
      7080       7081       7092       7091       7201       7202       7213       7212  
      7081       7082       7093       7092       7202       7203       7214       7213  
      7082       7083       7094       7093       7203       7204       7215       7214  
      7083       7084       7095       7094       7204       7205       7216       7215  
      7085       7086       7097       7096       7206       7207       7218       7217  
      7086       7087       7098       7097       7207       7208       7219       7218  
      7087       7088       7099       7098       7208       7209       7220       7219  
      7088       7089       7100       7099       7209       7210       7221       7220  
      7089       7090       7101       7100       7210       7211       7222       7221  
      7090       7091       7102       7101       7211       7212       7223       7222  
      7091       7092       7103       7102       7212       7213       7224       7223  
      7092       7093       7104       7103       7213       7214       7225       7224  
      7093       7094       7105       7104       7214       7215       7226       7225  
      7094       7095       7106       7105       7215       7216       7227       7226  
      7096       7097       7108       7107       7217       7218       7229       7228  
      7097       7098       7109       7108       7218       7219       7230       7229  
      7098       7099       7110       7109       7219       7220       7231       7230  
      7099       7100       7111       7110       7220       7221       7232       7231  
      7100       7101       7112       7111       7221       7222       7233       7232  
      7101       7102       7113       7112       7222       7223       7234       7233  
      7102       7103       7114       7113       7223       7224       7235       7234  
      7103       7104       7115       7114       7224       7225       7236       7235  
      7104       7105       7116       7115       7225       7226       7237       7236  
      7105       7106       7117       7116       7226       7227       7238       7237  
      7107       7108       7119       7118       7228       7229       7240       7239  
      7108       7109       7120       7119       7229       7230       7241       7240  
      7109       7110       7121       7120       7230       7231       7242       7241  
      7110       7111       7122       7121       7231       7232       7243       7242  
      7111       7112       7123       7122       7232       7233       7244       7243  
      7112       7113       7124       7123       7233       7234       7245       7244  
      7113       7114       7125       7124       7234       7235       7246       7245  
      7114       7115       7126       7125       7235       7236       7247       7246  
      7115       7116       7127       7126       7236       7237       7248       7247  
      7116       7117       7128       7127       7237       7238       7249       7248  
      7118       7119       7130       7129       7239       7240       7251       7250  
      7119       7120       7131       7130       7240       7241       7252       7251  
      7120       7121       7132       7131       7241       7242       7253       7252  
      7121       7122       7133       7132       7242       7243       7254       7253  
      7122       7123       7134       7133       7243       7244       7255       7254  
      7123       7124       7135       7134       7244       7245       7256       7255  
      7124       7125       7136       7135       7245       7246       7257       7256  
      7125       7126       7137       7136       7246       7247       7258       7257  
      7126       7127       7138       7137       7247       7248       7259       7258  
      7127       7128       7139       7138       7248       7249       7260       7259  
      7140       7141       7152       7151       7261       7262       7273       7272  
      7141       7142       7153       7152       7262       7263       7274       7273  
      7142       7143       7154       7153       7263       7264       7275       7274  
      7143       7144       7155       7154       7264       7265       7276       7275  
      7144       7145       7156       7155       7265       7266       7277       7276  
      7145       7146       7157       7156       7266       7267       7278       7277  
      7146       7147       7158       7157       7267       7268       7279       7278  
      7147       7148       7159       7158       7268       7269       7280       7279  
      7148       7149       7160       7159       7269       7270       7281       7280  
      7149       7150       7161       7160       7270       7271       7282       7281  
      7151       7152       7163       7162       7272       7273       7284       7283  
      7152       7153       7164       7163       7273       7274       7285       7284  
      7153       7154       7165       7164       7274       7275       7286       7285  
      7154       7155       7166       7165       7275       7276       7287       7286  
      7155       7156       7167       7166       7276       7277       7288       7287  
      7156       7157       7168       7167       7277       7278       7289       7288  
      7157       7158       7169       7168       7278       7279       7290       7289  
      7158       7159       7170       7169       7279       7280       7291       7290  
      7159       7160       7171       7170       7280       7281       7292       7291  
      7160       7161       7172       7171       7281       7282       7293       7292  
      7162       7163       7174       7173       7283       7284       7295       7294  
      7163       7164       7175       7174       7284       7285       7296       7295  
      7164       7165       7176       7175       7285       7286       7297       7296  
      7165       7166       7177       7176       7286       7287       7298       7297  
      7166       7167       7178       7177       7287       7288       7299       7298  
      7167       7168       7179       7178       7288       7289       7300       7299  
      7168       7169       7180       7179       7289       7290       7301       7300  
      7169       7170       7181       7180       7290       7291       7302       7301  
      7170       7171       7182       7181       7291       7292       7303       7302  
      7171       7172       7183       7182       7292       7293       7304       7303  
      7173       7174       7185       7184       7294       7295       7306       7305  
      7174       7175       7186       7185       7295       7296       7307       7306  
      7175       7176       7187       7186       7296       7297       7308       7307  
      7176       7177       7188       7187       7297       7298       7309       7308  
      7177       7178       7189       7188       7298       7299       7310       7309  
      7178       7179       7190       7189       7299       7300       7311       7310  
      7179       7180       7191       7190       7300       7301       7312       7311  
      7180       7181       7192       7191       7301       7302       7313       7312  
      7181       7182       7193       7192       7302       7303       7314       7313  
      7182       7183       7194       7193       7303       7304       7315       7314  
      7184       7185       7196       7195       7305       7306       7317       7316  
      7185       7186       7197       7196       7306       7307       7318       7317  
      7186       7187       7198       7197       7307       7308       7319       7318  
      7187       7188       7199       7198       7308       7309       7320       7319  
      7188       7189       7200       7199       7309       7310       7321       7320  
      7189       7190       7201       7200       7310       7311       7322       7321  
      7190       7191       7202       7201       7311       7312       7323       7322  
      7191       7192       7203       7202       7312       7313       7324       7323  
      7192       7193       7204       7203       7313       7314       7325       7324  
      7193       7194       7205       7204       7314       7315       7326       7325  
      7195       7196       7207       7206       7316       7317       7328       7327  
      7196       7197       7208       7207       7317       7318       7329       7328  
      7197       7198       7209       7208       7318       7319       7330       7329  
      7198       7199       7210       7209       7319       7320       7331       7330  
      7199       7200       7211       7210       7320       7321       7332       7331  
      7200       7201       7212       7211       7321       7322       7333       7332  
      7201       7202       7213       7212       7322       7323       7334       7333  
      7202       7203       7214       7213       7323       7324       7335       7334  
      7203       7204       7215       7214       7324       7325       7336       7335  
      7204       7205       7216       7215       7325       7326       7337       7336  
      7206       7207       7218       7217       7327       7328       7339       7338  
      7207       7208       7219       7218       7328       7329       7340       7339  
      7208       7209       7220       7219       7329       7330       7341       7340  
      7209       7210       7221       7220       7330       7331       7342       7341  
      7210       7211       7222       7221       7331       7332       7343       7342  
      7211       7212       7223       7222       7332       7333       7344       7343  
      7212       7213       7224       7223       7333       7334       7345       7344  
      7213       7214       7225       7224       7334       7335       7346       7345  
      7214       7215       7226       7225       7335       7336       7347       7346  
      7215       7216       7227       7226       7336       7337       7348       7347  
      7217       7218       7229       7228       7338       7339       7350       7349  
      7218       7219       7230       7229       7339       7340       7351       7350  
      7219       7220       7231       7230       7340       7341       7352       7351  
      7220       7221       7232       7231       7341       7342       7353       7352  
      7221       7222       7233       7232       7342       7343       7354       7353  
      7222       7223       7234       7233       7343       7344       7355       7354  
      7223       7224       7235       7234       7344       7345       7356       7355  
      7224       7225       7236       7235       7345       7346       7357       7356  
      7225       7226       7237       7236       7346       7347       7358       7357  
      7226       7227       7238       7237       7347       7348       7359       7358  
      7228       7229       7240       7239       7349       7350       7361       7360  
      7229       7230       7241       7240       7350       7351       7362       7361  
      7230       7231       7242       7241       7351       7352       7363       7362  
      7231       7232       7243       7242       7352       7353       7364       7363  
      7232       7233       7244       7243       7353       7354       7365       7364  
      7233       7234       7245       7244       7354       7355       7366       7365  
      7234       7235       7246       7245       7355       7356       7367       7366  
      7235       7236       7247       7246       7356       7357       7368       7367  
      7236       7237       7248       7247       7357       7358       7369       7368  
      7237       7238       7249       7248       7358       7359       7370       7369  
      7239       7240       7251       7250       7360       7361       7372       7371  
      7240       7241       7252       7251       7361       7362       7373       7372  
      7241       7242       7253       7252       7362       7363       7374       7373  
      7242       7243       7254       7253       7363       7364       7375       7374  
      7243       7244       7255       7254       7364       7365       7376       7375  
      7244       7245       7256       7255       7365       7366       7377       7376  
      7245       7246       7257       7256       7366       7367       7378       7377  
      7246       7247       7258       7257       7367       7368       7379       7378  
      7247       7248       7259       7258       7368       7369       7380       7379  
      7248       7249       7260       7259       7369       7370       7381       7380  
      7261       7262       7273       7272       7382       7383       7394       7393  
      7262       7263       7274       7273       7383       7384       7395       7394  
      7263       7264       7275       7274       7384       7385       7396       7395  
      7264       7265       7276       7275       7385       7386       7397       7396  
      7265       7266       7277       7276       7386       7387       7398       7397  
      7266       7267       7278       7277       7387       7388       7399       7398  
      7267       7268       7279       7278       7388       7389       7400       7399  
      7268       7269       7280       7279       7389       7390       7401       7400  
      7269       7270       7281       7280       7390       7391       7402       7401  
      7270       7271       7282       7281       7391       7392       7403       7402  
      7272       7273       7284       7283       7393       7394       7405       7404  
      7273       7274       7285       7284       7394       7395       7406       7405  
      7274       7275       7286       7285       7395       7396       7407       7406  
      7275       7276       7287       7286       7396       7397       7408       7407  
      7276       7277       7288       7287       7397       7398       7409       7408  
      7277       7278       7289       7288       7398       7399       7410       7409  
      7278       7279       7290       7289       7399       7400       7411       7410  
      7279       7280       7291       7290       7400       7401       7412       7411  
      7280       7281       7292       7291       7401       7402       7413       7412  
      7281       7282       7293       7292       7402       7403       7414       7413  
      7283       7284       7295       7294       7404       7405       7416       7415  
      7284       7285       7296       7295       7405       7406       7417       7416  
      7285       7286       7297       7296       7406       7407       7418       7417  
      7286       7287       7298       7297       7407       7408       7419       7418  
      7287       7288       7299       7298       7408       7409       7420       7419  
      7288       7289       7300       7299       7409       7410       7421       7420  
      7289       7290       7301       7300       7410       7411       7422       7421  
      7290       7291       7302       7301       7411       7412       7423       7422  
      7291       7292       7303       7302       7412       7413       7424       7423  
      7292       7293       7304       7303       7413       7414       7425       7424  
      7294       7295       7306       7305       7415       7416       7427       7426  
      7295       7296       7307       7306       7416       7417       7428       7427  
      7296       7297       7308       7307       7417       7418       7429       7428  
      7297       7298       7309       7308       7418       7419       7430       7429  
      7298       7299       7310       7309       7419       7420       7431       7430  
      7299       7300       7311       7310       7420       7421       7432       7431  
      7300       7301       7312       7311       7421       7422       7433       7432  
      7301       7302       7313       7312       7422       7423       7434       7433  
      7302       7303       7314       7313       7423       7424       7435       7434  
      7303       7304       7315       7314       7424       7425       7436       7435  
      7305       7306       7317       7316       7426       7427       7438       7437  
      7306       7307       7318       7317       7427       7428       7439       7438  
      7307       7308       7319       7318       7428       7429       7440       7439  
      7308       7309       7320       7319       7429       7430       7441       7440  
      7309       7310       7321       7320       7430       7431       7442       7441  
      7310       7311       7322       7321       7431       7432       7443       7442  
      7311       7312       7323       7322       7432       7433       7444       7443  
      7312       7313       7324       7323       7433       7434       7445       7444  
      7313       7314       7325       7324       7434       7435       7446       7445  
      7314       7315       7326       7325       7435       7436       7447       7446  
      7316       7317       7328       7327       7437       7438       7449       7448  
      7317       7318       7329       7328       7438       7439       7450       7449  
      7318       7319       7330       7329       7439       7440       7451       7450  
      7319       7320       7331       7330       7440       7441       7452       7451  
      7320       7321       7332       7331       7441       7442       7453       7452  
      7321       7322       7333       7332       7442       7443       7454       7453  
      7322       7323       7334       7333       7443       7444       7455       7454  
      7323       7324       7335       7334       7444       7445       7456       7455  
      7324       7325       7336       7335       7445       7446       7457       7456  
      7325       7326       7337       7336       7446       7447       7458       7457  
      7327       7328       7339       7338       7448       7449       7460       7459  
      7328       7329       7340       7339       7449       7450       7461       7460  
      7329       7330       7341       7340       7450       7451       7462       7461  
      7330       7331       7342       7341       7451       7452       7463       7462  
      7331       7332       7343       7342       7452       7453       7464       7463  
      7332       7333       7344       7343       7453       7454       7465       7464  
      7333       7334       7345       7344       7454       7455       7466       7465  
      7334       7335       7346       7345       7455       7456       7467       7466  
      7335       7336       7347       7346       7456       7457       7468       7467  
      7336       7337       7348       7347       7457       7458       7469       7468  
      7338       7339       7350       7349       7459       7460       7471       7470  
      7339       7340       7351       7350       7460       7461       7472       7471  
      7340       7341       7352       7351       7461       7462       7473       7472  
      7341       7342       7353       7352       7462       7463       7474       7473  
      7342       7343       7354       7353       7463       7464       7475       7474  
      7343       7344       7355       7354       7464       7465       7476       7475  
      7344       7345       7356       7355       7465       7466       7477       7476  
      7345       7346       7357       7356       7466       7467       7478       7477  
      7346       7347       7358       7357       7467       7468       7479       7478  
      7347       7348       7359       7358       7468       7469       7480       7479  
      7349       7350       7361       7360       7470       7471       7482       7481  
      7350       7351       7362       7361       7471       7472       7483       7482  
      7351       7352       7363       7362       7472       7473       7484       7483  
      7352       7353       7364       7363       7473       7474       7485       7484  
      7353       7354       7365       7364       7474       7475       7486       7485  
      7354       7355       7366       7365       7475       7476       7487       7486  
      7355       7356       7367       7366       7476       7477       7488       7487  
      7356       7357       7368       7367       7477       7478       7489       7488  
      7357       7358       7369       7368       7478       7479       7490       7489  
      7358       7359       7370       7369       7479       7480       7491       7490  
      7360       7361       7372       7371       7481       7482       7493       7492  
      7361       7362       7373       7372       7482       7483       7494       7493  
      7362       7363       7374       7373       7483       7484       7495       7494  
      7363       7364       7375       7374       7484       7485       7496       7495  
      7364       7365       7376       7375       7485       7486       7497       7496  
      7365       7366       7377       7376       7486       7487       7498       7497  
      7366       7367       7378       7377       7487       7488       7499       7498  
      7367       7368       7379       7378       7488       7489       7500       7499  
      7368       7369       7380       7379       7489       7490       7501       7500  
      7369       7370       7381       7380       7490       7491       7502       7501  
      7382       7383       7394       7393       7503       7504       7515       7514  
      7383       7384       7395       7394       7504       7505       7516       7515  
      7384       7385       7396       7395       7505       7506       7517       7516  
      7385       7386       7397       7396       7506       7507       7518       7517  
      7386       7387       7398       7397       7507       7508       7519       7518  
      7387       7388       7399       7398       7508       7509       7520       7519  
      7388       7389       7400       7399       7509       7510       7521       7520  
      7389       7390       7401       7400       7510       7511       7522       7521  
      7390       7391       7402       7401       7511       7512       7523       7522  
      7391       7392       7403       7402       7512       7513       7524       7523  
      7393       7394       7405       7404       7514       7515       7526       7525  
      7394       7395       7406       7405       7515       7516       7527       7526  
      7395       7396       7407       7406       7516       7517       7528       7527  
      7396       7397       7408       7407       7517       7518       7529       7528  
      7397       7398       7409       7408       7518       7519       7530       7529  
      7398       7399       7410       7409       7519       7520       7531       7530  
      7399       7400       7411       7410       7520       7521       7532       7531  
      7400       7401       7412       7411       7521       7522       7533       7532  
      7401       7402       7413       7412       7522       7523       7534       7533  
      7402       7403       7414       7413       7523       7524       7535       7534  
      7404       7405       7416       7415       7525       7526       7537       7536  
      7405       7406       7417       7416       7526       7527       7538       7537  
      7406       7407       7418       7417       7527       7528       7539       7538  
      7407       7408       7419       7418       7528       7529       7540       7539  
      7408       7409       7420       7419       7529       7530       7541       7540  
      7409       7410       7421       7420       7530       7531       7542       7541  
      7410       7411       7422       7421       7531       7532       7543       7542  
      7411       7412       7423       7422       7532       7533       7544       7543  
      7412       7413       7424       7423       7533       7534       7545       7544  
      7413       7414       7425       7424       7534       7535       7546       7545  
      7415       7416       7427       7426       7536       7537       7548       7547  
      7416       7417       7428       7427       7537       7538       7549       7548  
      7417       7418       7429       7428       7538       7539       7550       7549  
      7418       7419       7430       7429       7539       7540       7551       7550  
      7419       7420       7431       7430       7540       7541       7552       7551  
      7420       7421       7432       7431       7541       7542       7553       7552  
      7421       7422       7433       7432       7542       7543       7554       7553  
      7422       7423       7434       7433       7543       7544       7555       7554  
      7423       7424       7435       7434       7544       7545       7556       7555  
      7424       7425       7436       7435       7545       7546       7557       7556  
      7426       7427       7438       7437       7547       7548       7559       7558  
      7427       7428       7439       7438       7548       7549       7560       7559  
      7428       7429       7440       7439       7549       7550       7561       7560  
      7429       7430       7441       7440       7550       7551       7562       7561  
      7430       7431       7442       7441       7551       7552       7563       7562  
      7431       7432       7443       7442       7552       7553       7564       7563  
      7432       7433       7444       7443       7553       7554       7565       7564  
      7433       7434       7445       7444       7554       7555       7566       7565  
      7434       7435       7446       7445       7555       7556       7567       7566  
      7435       7436       7447       7446       7556       7557       7568       7567  
      7437       7438       7449       7448       7558       7559       7570       7569  
      7438       7439       7450       7449       7559       7560       7571       7570  
      7439       7440       7451       7450       7560       7561       7572       7571  
      7440       7441       7452       7451       7561       7562       7573       7572  
      7441       7442       7453       7452       7562       7563       7574       7573  
      7442       7443       7454       7453       7563       7564       7575       7574  
      7443       7444       7455       7454       7564       7565       7576       7575  
      7444       7445       7456       7455       7565       7566       7577       7576  
      7445       7446       7457       7456       7566       7567       7578       7577  
      7446       7447       7458       7457       7567       7568       7579       7578  
      7448       7449       7460       7459       7569       7570       7581       7580  
      7449       7450       7461       7460       7570       7571       7582       7581  
      7450       7451       7462       7461       7571       7572       7583       7582  
      7451       7452       7463       7462       7572       7573       7584       7583  
      7452       7453       7464       7463       7573       7574       7585       7584  
      7453       7454       7465       7464       7574       7575       7586       7585  
      7454       7455       7466       7465       7575       7576       7587       7586  
      7455       7456       7467       7466       7576       7577       7588       7587  
      7456       7457       7468       7467       7577       7578       7589       7588  
      7457       7458       7469       7468       7578       7579       7590       7589  
      7459       7460       7471       7470       7580       7581       7592       7591  
      7460       7461       7472       7471       7581       7582       7593       7592  
      7461       7462       7473       7472       7582       7583       7594       7593  
      7462       7463       7474       7473       7583       7584       7595       7594  
      7463       7464       7475       7474       7584       7585       7596       7595  
      7464       7465       7476       7475       7585       7586       7597       7596  
      7465       7466       7477       7476       7586       7587       7598       7597  
      7466       7467       7478       7477       7587       7588       7599       7598  
      7467       7468       7479       7478       7588       7589       7600       7599  
      7468       7469       7480       7479       7589       7590       7601       7600  
      7470       7471       7482       7481       7591       7592       7603       7602  
      7471       7472       7483       7482       7592       7593       7604       7603  
      7472       7473       7484       7483       7593       7594       7605       7604  
      7473       7474       7485       7484       7594       7595       7606       7605  
      7474       7475       7486       7485       7595       7596       7607       7606  
      7475       7476       7487       7486       7596       7597       7608       7607  
      7476       7477       7488       7487       7597       7598       7609       7608  
      7477       7478       7489       7488       7598       7599       7610       7609  
      7478       7479       7490       7489       7599       7600       7611       7610  
      7479       7480       7491       7490       7600       7601       7612       7611  
      7481       7482       7493       7492       7602       7603       7614       7613  
      7482       7483       7494       7493       7603       7604       7615       7614  
      7483       7484       7495       7494       7604       7605       7616       7615  
      7484       7485       7496       7495       7605       7606       7617       7616  
      7485       7486       7497       7496       7606       7607       7618       7617  
      7486       7487       7498       7497       7607       7608       7619       7618  
      7487       7488       7499       7498       7608       7609       7620       7619  
      7488       7489       7500       7499       7609       7610       7621       7620  
      7489       7490       7501       7500       7610       7611       7622       7621  
      7490       7491       7502       7501       7611       7612       7623       7622  
      7503       7504       7515       7514       7624       7625       7636       7635  
      7504       7505       7516       7515       7625       7626       7637       7636  
      7505       7506       7517       7516       7626       7627       7638       7637  
      7506       7507       7518       7517       7627       7628       7639       7638  
      7507       7508       7519       7518       7628       7629       7640       7639  
      7508       7509       7520       7519       7629       7630       7641       7640  
      7509       7510       7521       7520       7630       7631       7642       7641  
      7510       7511       7522       7521       7631       7632       7643       7642  
      7511       7512       7523       7522       7632       7633       7644       7643  
      7512       7513       7524       7523       7633       7634       7645       7644  
      7514       7515       7526       7525       7635       7636       7647       7646  
      7515       7516       7527       7526       7636       7637       7648       7647  
      7516       7517       7528       7527       7637       7638       7649       7648  
      7517       7518       7529       7528       7638       7639       7650       7649  
      7518       7519       7530       7529       7639       7640       7651       7650  
      7519       7520       7531       7530       7640       7641       7652       7651  
      7520       7521       7532       7531       7641       7642       7653       7652  
      7521       7522       7533       7532       7642       7643       7654       7653  
      7522       7523       7534       7533       7643       7644       7655       7654  
      7523       7524       7535       7534       7644       7645       7656       7655  
      7525       7526       7537       7536       7646       7647       7658       7657  
      7526       7527       7538       7537       7647       7648       7659       7658  
      7527       7528       7539       7538       7648       7649       7660       7659  
      7528       7529       7540       7539       7649       7650       7661       7660  
      7529       7530       7541       7540       7650       7651       7662       7661  
      7530       7531       7542       7541       7651       7652       7663       7662  
      7531       7532       7543       7542       7652       7653       7664       7663  
      7532       7533       7544       7543       7653       7654       7665       7664  
      7533       7534       7545       7544       7654       7655       7666       7665  
      7534       7535       7546       7545       7655       7656       7667       7666  
      7536       7537       7548       7547       7657       7658       7669       7668  
      7537       7538       7549       7548       7658       7659       7670       7669  
      7538       7539       7550       7549       7659       7660       7671       7670  
      7539       7540       7551       7550       7660       7661       7672       7671  
      7540       7541       7552       7551       7661       7662       7673       7672  
      7541       7542       7553       7552       7662       7663       7674       7673  
      7542       7543       7554       7553       7663       7664       7675       7674  
      7543       7544       7555       7554       7664       7665       7676       7675  
      7544       7545       7556       7555       7665       7666       7677       7676  
      7545       7546       7557       7556       7666       7667       7678       7677  
      7547       7548       7559       7558       7668       7669       7680       7679  
      7548       7549       7560       7559       7669       7670       7681       7680  
      7549       7550       7561       7560       7670       7671       7682       7681  
      7550       7551       7562       7561       7671       7672       7683       7682  
      7551       7552       7563       7562       7672       7673       7684       7683  
      7552       7553       7564       7563       7673       7674       7685       7684  
      7553       7554       7565       7564       7674       7675       7686       7685  
      7554       7555       7566       7565       7675       7676       7687       7686  
      7555       7556       7567       7566       7676       7677       7688       7687  
      7556       7557       7568       7567       7677       7678       7689       7688  
      7558       7559       7570       7569       7679       7680       7691       7690  
      7559       7560       7571       7570       7680       7681       7692       7691  
      7560       7561       7572       7571       7681       7682       7693       7692  
      7561       7562       7573       7572       7682       7683       7694       7693  
      7562       7563       7574       7573       7683       7684       7695       7694  
      7563       7564       7575       7574       7684       7685       7696       7695  
      7564       7565       7576       7575       7685       7686       7697       7696  
      7565       7566       7577       7576       7686       7687       7698       7697  
      7566       7567       7578       7577       7687       7688       7699       7698  
      7567       7568       7579       7578       7688       7689       7700       7699  
      7569       7570       7581       7580       7690       7691       7702       7701  
      7570       7571       7582       7581       7691       7692       7703       7702  
      7571       7572       7583       7582       7692       7693       7704       7703  
      7572       7573       7584       7583       7693       7694       7705       7704  
      7573       7574       7585       7584       7694       7695       7706       7705  
      7574       7575       7586       7585       7695       7696       7707       7706  
      7575       7576       7587       7586       7696       7697       7708       7707  
      7576       7577       7588       7587       7697       7698       7709       7708  
      7577       7578       7589       7588       7698       7699       7710       7709  
      7578       7579       7590       7589       7699       7700       7711       7710  
      7580       7581       7592       7591       7701       7702       7713       7712  
      7581       7582       7593       7592       7702       7703       7714       7713  
      7582       7583       7594       7593       7703       7704       7715       7714  
      7583       7584       7595       7594       7704       7705       7716       7715  
      7584       7585       7596       7595       7705       7706       7717       7716  
      7585       7586       7597       7596       7706       7707       7718       7717  
      7586       7587       7598       7597       7707       7708       7719       7718  
      7587       7588       7599       7598       7708       7709       7720       7719  
      7588       7589       7600       7599       7709       7710       7721       7720  
      7589       7590       7601       7600       7710       7711       7722       7721  
      7591       7592       7603       7602       7712       7713       7724       7723  
      7592       7593       7604       7603       7713       7714       7725       7724  
      7593       7594       7605       7604       7714       7715       7726       7725  
      7594       7595       7606       7605       7715       7716       7727       7726  
      7595       7596       7607       7606       7716       7717       7728       7727  
      7596       7597       7608       7607       7717       7718       7729       7728  
      7597       7598       7609       7608       7718       7719       7730       7729  
      7598       7599       7610       7609       7719       7720       7731       7730  
      7599       7600       7611       7610       7720       7721       7732       7731  
      7600       7601       7612       7611       7721       7722       7733       7732  
      7602       7603       7614       7613       7723       7724       7735       7734  
      7603       7604       7615       7614       7724       7725       7736       7735  
      7604       7605       7616       7615       7725       7726       7737       7736  
      7605       7606       7617       7616       7726       7727       7738       7737  
      7606       7607       7618       7617       7727       7728       7739       7738  
      7607       7608       7619       7618       7728       7729       7740       7739  
      7608       7609       7620       7619       7729       7730       7741       7740  
      7609       7610       7621       7620       7730       7731       7742       7741  
      7610       7611       7622       7621       7731       7732       7743       7742  
      7611       7612       7623       7622       7732       7733       7744       7743  
      7624       7625       7636       7635       7745       7746       7757       7756  
      7625       7626       7637       7636       7746       7747       7758       7757  
      7626       7627       7638       7637       7747       7748       7759       7758  
      7627       7628       7639       7638       7748       7749       7760       7759  
      7628       7629       7640       7639       7749       7750       7761       7760  
      7629       7630       7641       7640       7750       7751       7762       7761  
      7630       7631       7642       7641       7751       7752       7763       7762  
      7631       7632       7643       7642       7752       7753       7764       7763  
      7632       7633       7644       7643       7753       7754       7765       7764  
      7633       7634       7645       7644       7754       7755       7766       7765  
      7635       7636       7647       7646       7756       7757       7768       7767  
      7636       7637       7648       7647       7757       7758       7769       7768  
      7637       7638       7649       7648       7758       7759       7770       7769  
      7638       7639       7650       7649       7759       7760       7771       7770  
      7639       7640       7651       7650       7760       7761       7772       7771  
      7640       7641       7652       7651       7761       7762       7773       7772  
      7641       7642       7653       7652       7762       7763       7774       7773  
      7642       7643       7654       7653       7763       7764       7775       7774  
      7643       7644       7655       7654       7764       7765       7776       7775  
      7644       7645       7656       7655       7765       7766       7777       7776  
      7646       7647       7658       7657       7767       7768       7779       7778  
      7647       7648       7659       7658       7768       7769       7780       7779  
      7648       7649       7660       7659       7769       7770       7781       7780  
      7649       7650       7661       7660       7770       7771       7782       7781  
      7650       7651       7662       7661       7771       7772       7783       7782  
      7651       7652       7663       7662       7772       7773       7784       7783  
      7652       7653       7664       7663       7773       7774       7785       7784  
      7653       7654       7665       7664       7774       7775       7786       7785  
      7654       7655       7666       7665       7775       7776       7787       7786  
      7655       7656       7667       7666       7776       7777       7788       7787  
      7657       7658       7669       7668       7778       7779       7790       7789  
      7658       7659       7670       7669       7779       7780       7791       7790  
      7659       7660       7671       7670       7780       7781       7792       7791  
      7660       7661       7672       7671       7781       7782       7793       7792  
      7661       7662       7673       7672       7782       7783       7794       7793  
      7662       7663       7674       7673       7783       7784       7795       7794  
      7663       7664       7675       7674       7784       7785       7796       7795  
      7664       7665       7676       7675       7785       7786       7797       7796  
      7665       7666       7677       7676       7786       7787       7798       7797  
      7666       7667       7678       7677       7787       7788       7799       7798  
      7668       7669       7680       7679       7789       7790       7801       7800  
      7669       7670       7681       7680       7790       7791       7802       7801  
      7670       7671       7682       7681       7791       7792       7803       7802  
      7671       7672       7683       7682       7792       7793       7804       7803  
      7672       7673       7684       7683       7793       7794       7805       7804  
      7673       7674       7685       7684       7794       7795       7806       7805  
      7674       7675       7686       7685       7795       7796       7807       7806  
      7675       7676       7687       7686       7796       7797       7808       7807  
      7676       7677       7688       7687       7797       7798       7809       7808  
      7677       7678       7689       7688       7798       7799       7810       7809  
      7679       7680       7691       7690       7800       7801       7812       7811  
      7680       7681       7692       7691       7801       7802       7813       7812  
      7681       7682       7693       7692       7802       7803       7814       7813  
      7682       7683       7694       7693       7803       7804       7815       7814  
      7683       7684       7695       7694       7804       7805       7816       7815  
      7684       7685       7696       7695       7805       7806       7817       7816  
      7685       7686       7697       7696       7806       7807       7818       7817  
      7686       7687       7698       7697       7807       7808       7819       7818  
      7687       7688       7699       7698       7808       7809       7820       7819  
      7688       7689       7700       7699       7809       7810       7821       7820  
      7690       7691       7702       7701       7811       7812       7823       7822  
      7691       7692       7703       7702       7812       7813       7824       7823  
      7692       7693       7704       7703       7813       7814       7825       7824  
      7693       7694       7705       7704       7814       7815       7826       7825  
      7694       7695       7706       7705       7815       7816       7827       7826  
      7695       7696       7707       7706       7816       7817       7828       7827  
      7696       7697       7708       7707       7817       7818       7829       7828  
      7697       7698       7709       7708       7818       7819       7830       7829  
      7698       7699       7710       7709       7819       7820       7831       7830  
      7699       7700       7711       7710       7820       7821       7832       7831  
      7701       7702       7713       7712       7822       7823       7834       7833  
      7702       7703       7714       7713       7823       7824       7835       7834  
      7703       7704       7715       7714       7824       7825       7836       7835  
      7704       7705       7716       7715       7825       7826       7837       7836  
      7705       7706       7717       7716       7826       7827       7838       7837  
      7706       7707       7718       7717       7827       7828       7839       7838  
      7707       7708       7719       7718       7828       7829       7840       7839  
      7708       7709       7720       7719       7829       7830       7841       7840  
      7709       7710       7721       7720       7830       7831       7842       7841  
      7710       7711       7722       7721       7831       7832       7843       7842  
      7712       7713       7724       7723       7833       7834       7845       7844  
      7713       7714       7725       7724       7834       7835       7846       7845  
      7714       7715       7726       7725       7835       7836       7847       7846  
      7715       7716       7727       7726       7836       7837       7848       7847  
      7716       7717       7728       7727       7837       7838       7849       7848  
      7717       7718       7729       7728       7838       7839       7850       7849  
      7718       7719       7730       7729       7839       7840       7851       7850  
      7719       7720       7731       7730       7840       7841       7852       7851  
      7720       7721       7732       7731       7841       7842       7853       7852  
      7721       7722       7733       7732       7842       7843       7854       7853  
      7723       7724       7735       7734       7844       7845       7856       7855  
      7724       7725       7736       7735       7845       7846       7857       7856  
      7725       7726       7737       7736       7846       7847       7858       7857  
      7726       7727       7738       7737       7847       7848       7859       7858  
      7727       7728       7739       7738       7848       7849       7860       7859  
      7728       7729       7740       7739       7849       7850       7861       7860  
      7729       7730       7741       7740       7850       7851       7862       7861  
      7730       7731       7742       7741       7851       7852       7863       7862  
      7731       7732       7743       7742       7852       7853       7864       7863  
      7732       7733       7744       7743       7853       7854       7865       7864  
      7745       7746       7757       7756       7866       7867       7878       7877  
      7746       7747       7758       7757       7867       7868       7879       7878  
      7747       7748       7759       7758       7868       7869       7880       7879  
      7748       7749       7760       7759       7869       7870       7881       7880  
      7749       7750       7761       7760       7870       7871       7882       7881  
      7750       7751       7762       7761       7871       7872       7883       7882  
      7751       7752       7763       7762       7872       7873       7884       7883  
      7752       7753       7764       7763       7873       7874       7885       7884  
      7753       7754       7765       7764       7874       7875       7886       7885  
      7754       7755       7766       7765       7875       7876       7887       7886  
      7756       7757       7768       7767       7877       7878       7889       7888  
      7757       7758       7769       7768       7878       7879       7890       7889  
      7758       7759       7770       7769       7879       7880       7891       7890  
      7759       7760       7771       7770       7880       7881       7892       7891  
      7760       7761       7772       7771       7881       7882       7893       7892  
      7761       7762       7773       7772       7882       7883       7894       7893  
      7762       7763       7774       7773       7883       7884       7895       7894  
      7763       7764       7775       7774       7884       7885       7896       7895  
      7764       7765       7776       7775       7885       7886       7897       7896  
      7765       7766       7777       7776       7886       7887       7898       7897  
      7767       7768       7779       7778       7888       7889       7900       7899  
      7768       7769       7780       7779       7889       7890       7901       7900  
      7769       7770       7781       7780       7890       7891       7902       7901  
      7770       7771       7782       7781       7891       7892       7903       7902  
      7771       7772       7783       7782       7892       7893       7904       7903  
      7772       7773       7784       7783       7893       7894       7905       7904  
      7773       7774       7785       7784       7894       7895       7906       7905  
      7774       7775       7786       7785       7895       7896       7907       7906  
      7775       7776       7787       7786       7896       7897       7908       7907  
      7776       7777       7788       7787       7897       7898       7909       7908  
      7778       7779       7790       7789       7899       7900       7911       7910  
      7779       7780       7791       7790       7900       7901       7912       7911  
      7780       7781       7792       7791       7901       7902       7913       7912  
      7781       7782       7793       7792       7902       7903       7914       7913  
      7782       7783       7794       7793       7903       7904       7915       7914  
      7783       7784       7795       7794       7904       7905       7916       7915  
      7784       7785       7796       7795       7905       7906       7917       7916  
      7785       7786       7797       7796       7906       7907       7918       7917  
      7786       7787       7798       7797       7907       7908       7919       7918  
      7787       7788       7799       7798       7908       7909       7920       7919  
      7789       7790       7801       7800       7910       7911       7922       7921  
      7790       7791       7802       7801       7911       7912       7923       7922  
      7791       7792       7803       7802       7912       7913       7924       7923  
      7792       7793       7804       7803       7913       7914       7925       7924  
      7793       7794       7805       7804       7914       7915       7926       7925  
      7794       7795       7806       7805       7915       7916       7927       7926  
      7795       7796       7807       7806       7916       7917       7928       7927  
      7796       7797       7808       7807       7917       7918       7929       7928  
      7797       7798       7809       7808       7918       7919       7930       7929  
      7798       7799       7810       7809       7919       7920       7931       7930  
      7800       7801       7812       7811       7921       7922       7933       7932  
      7801       7802       7813       7812       7922       7923       7934       7933  
      7802       7803       7814       7813       7923       7924       7935       7934  
      7803       7804       7815       7814       7924       7925       7936       7935  
      7804       7805       7816       7815       7925       7926       7937       7936  
      7805       7806       7817       7816       7926       7927       7938       7937  
      7806       7807       7818       7817       7927       7928       7939       7938  
      7807       7808       7819       7818       7928       7929       7940       7939  
      7808       7809       7820       7819       7929       7930       7941       7940  
      7809       7810       7821       7820       7930       7931       7942       7941  
      7811       7812       7823       7822       7932       7933       7944       7943  
      7812       7813       7824       7823       7933       7934       7945       7944  
      7813       7814       7825       7824       7934       7935       7946       7945  
      7814       7815       7826       7825       7935       7936       7947       7946  
      7815       7816       7827       7826       7936       7937       7948       7947  
      7816       7817       7828       7827       7937       7938       7949       7948  
      7817       7818       7829       7828       7938       7939       7950       7949  
      7818       7819       7830       7829       7939       7940       7951       7950  
      7819       7820       7831       7830       7940       7941       7952       7951  
      7820       7821       7832       7831       7941       7942       7953       7952  
      7822       7823       7834       7833       7943       7944       7955       7954  
      7823       7824       7835       7834       7944       7945       7956       7955  
      7824       7825       7836       7835       7945       7946       7957       7956  
      7825       7826       7837       7836       7946       7947       7958       7957  
      7826       7827       7838       7837       7947       7948       7959       7958  
      7827       7828       7839       7838       7948       7949       7960       7959  
      7828       7829       7840       7839       7949       7950       7961       7960  
      7829       7830       7841       7840       7950       7951       7962       7961  
      7830       7831       7842       7841       7951       7952       7963       7962  
      7831       7832       7843       7842       7952       7953       7964       7963  
      7833       7834       7845       7844       7954       7955       7966       7965  
      7834       7835       7846       7845       7955       7956       7967       7966  
      7835       7836       7847       7846       7956       7957       7968       7967  
      7836       7837       7848       7847       7957       7958       7969       7968  
      7837       7838       7849       7848       7958       7959       7970       7969  
      7838       7839       7850       7849       7959       7960       7971       7970  
      7839       7840       7851       7850       7960       7961       7972       7971  
      7840       7841       7852       7851       7961       7962       7973       7972  
      7841       7842       7853       7852       7962       7963       7974       7973  
      7842       7843       7854       7853       7963       7964       7975       7974  
      7844       7845       7856       7855       7965       7966       7977       7976  
      7845       7846       7857       7856       7966       7967       7978       7977  
      7846       7847       7858       7857       7967       7968       7979       7978  
      7847       7848       7859       7858       7968       7969       7980       7979  
      7848       7849       7860       7859       7969       7970       7981       7980  
      7849       7850       7861       7860       7970       7971       7982       7981  
      7850       7851       7862       7861       7971       7972       7983       7982  
      7851       7852       7863       7862       7972       7973       7984       7983  
      7852       7853       7864       7863       7973       7974       7985       7984  
      7853       7854       7865       7864       7974       7975       7986       7985  
      7866       7867       7878       7877       7987       7988       7999       7998  
      7867       7868       7879       7878       7988       7989       8000       7999  
      7868       7869       7880       7879       7989       7990       8001       8000  
      7869       7870       7881       7880       7990       7991       8002       8001  
      7870       7871       7882       7881       7991       7992       8003       8002  
      7871       7872       7883       7882       7992       7993       8004       8003  
      7872       7873       7884       7883       7993       7994       8005       8004  
      7873       7874       7885       7884       7994       7995       8006       8005  
      7874       7875       7886       7885       7995       7996       8007       8006  
      7875       7876       7887       7886       7996       7997       8008       8007  
      7877       7878       7889       7888       7998       7999       8010       8009  
      7878       7879       7890       7889       7999       8000       8011       8010  
      7879       7880       7891       7890       8000       8001       8012       8011  
      7880       7881       7892       7891       8001       8002       8013       8012  
      7881       7882       7893       7892       8002       8003       8014       8013  
      7882       7883       7894       7893       8003       8004       8015       8014  
      7883       7884       7895       7894       8004       8005       8016       8015  
      7884       7885       7896       7895       8005       8006       8017       8016  
      7885       7886       7897       7896       8006       8007       8018       8017  
      7886       7887       7898       7897       8007       8008       8019       8018  
      7888       7889       7900       7899       8009       8010       8021       8020  
      7889       7890       7901       7900       8010       8011       8022       8021  
      7890       7891       7902       7901       8011       8012       8023       8022  
      7891       7892       7903       7902       8012       8013       8024       8023  
      7892       7893       7904       7903       8013       8014       8025       8024  
      7893       7894       7905       7904       8014       8015       8026       8025  
      7894       7895       7906       7905       8015       8016       8027       8026  
      7895       7896       7907       7906       8016       8017       8028       8027  
      7896       7897       7908       7907       8017       8018       8029       8028  
      7897       7898       7909       7908       8018       8019       8030       8029  
      7899       7900       7911       7910       8020       8021       8032       8031  
      7900       7901       7912       7911       8021       8022       8033       8032  
      7901       7902       7913       7912       8022       8023       8034       8033  
      7902       7903       7914       7913       8023       8024       8035       8034  
      7903       7904       7915       7914       8024       8025       8036       8035  
      7904       7905       7916       7915       8025       8026       8037       8036  
      7905       7906       7917       7916       8026       8027       8038       8037  
      7906       7907       7918       7917       8027       8028       8039       8038  
      7907       7908       7919       7918       8028       8029       8040       8039  
      7908       7909       7920       7919       8029       8030       8041       8040  
      7910       7911       7922       7921       8031       8032       8043       8042  
      7911       7912       7923       7922       8032       8033       8044       8043  
      7912       7913       7924       7923       8033       8034       8045       8044  
      7913       7914       7925       7924       8034       8035       8046       8045  
      7914       7915       7926       7925       8035       8036       8047       8046  
      7915       7916       7927       7926       8036       8037       8048       8047  
      7916       7917       7928       7927       8037       8038       8049       8048  
      7917       7918       7929       7928       8038       8039       8050       8049  
      7918       7919       7930       7929       8039       8040       8051       8050  
      7919       7920       7931       7930       8040       8041       8052       8051  
      7921       7922       7933       7932       8042       8043       8054       8053  
      7922       7923       7934       7933       8043       8044       8055       8054  
      7923       7924       7935       7934       8044       8045       8056       8055  
      7924       7925       7936       7935       8045       8046       8057       8056  
      7925       7926       7937       7936       8046       8047       8058       8057  
      7926       7927       7938       7937       8047       8048       8059       8058  
      7927       7928       7939       7938       8048       8049       8060       8059  
      7928       7929       7940       7939       8049       8050       8061       8060  
      7929       7930       7941       7940       8050       8051       8062       8061  
      7930       7931       7942       7941       8051       8052       8063       8062  
      7932       7933       7944       7943       8053       8054       8065       8064  
      7933       7934       7945       7944       8054       8055       8066       8065  
      7934       7935       7946       7945       8055       8056       8067       8066  
      7935       7936       7947       7946       8056       8057       8068       8067  
      7936       7937       7948       7947       8057       8058       8069       8068  
      7937       7938       7949       7948       8058       8059       8070       8069  
      7938       7939       7950       7949       8059       8060       8071       8070  
      7939       7940       7951       7950       8060       8061       8072       8071  
      7940       7941       7952       7951       8061       8062       8073       8072  
      7941       7942       7953       7952       8062       8063       8074       8073  
      7943       7944       7955       7954       8064       8065       8076       8075  
      7944       7945       7956       7955       8065       8066       8077       8076  
      7945       7946       7957       7956       8066       8067       8078       8077  
      7946       7947       7958       7957       8067       8068       8079       8078  
      7947       7948       7959       7958       8068       8069       8080       8079  
      7948       7949       7960       7959       8069       8070       8081       8080  
      7949       7950       7961       7960       8070       8071       8082       8081  
      7950       7951       7962       7961       8071       8072       8083       8082  
      7951       7952       7963       7962       8072       8073       8084       8083  
      7952       7953       7964       7963       8073       8074       8085       8084  
      7954       7955       7966       7965       8075       8076       8087       8086  
      7955       7956       7967       7966       8076       8077       8088       8087  
      7956       7957       7968       7967       8077       8078       8089       8088  
      7957       7958       7969       7968       8078       8079       8090       8089  
      7958       7959       7970       7969       8079       8080       8091       8090  
      7959       7960       7971       7970       8080       8081       8092       8091  
      7960       7961       7972       7971       8081       8082       8093       8092  
      7961       7962       7973       7972       8082       8083       8094       8093  
      7962       7963       7974       7973       8083       8084       8095       8094  
      7963       7964       7975       7974       8084       8085       8096       8095  
      7965       7966       7977       7976       8086       8087       8098       8097  
      7966       7967       7978       7977       8087       8088       8099       8098  
      7967       7968       7979       7978       8088       8089       8100       8099  
      7968       7969       7980       7979       8089       8090       8101       8100  
      7969       7970       7981       7980       8090       8091       8102       8101  
      7970       7971       7982       7981       8091       8092       8103       8102  
      7971       7972       7983       7982       8092       8093       8104       8103  
      7972       7973       7984       7983       8093       8094       8105       8104  
      7973       7974       7985       7984       8094       8095       8106       8105  
      7974       7975       7986       7985       8095       8096       8107       8106  
      7987       7988       7999       7998       8108       8109       8120       8119  
      7988       7989       8000       7999       8109       8110       8121       8120  
      7989       7990       8001       8000       8110       8111       8122       8121  
      7990       7991       8002       8001       8111       8112       8123       8122  
      7991       7992       8003       8002       8112       8113       8124       8123  
      7992       7993       8004       8003       8113       8114       8125       8124  
      7993       7994       8005       8004       8114       8115       8126       8125  
      7994       7995       8006       8005       8115       8116       8127       8126  
      7995       7996       8007       8006       8116       8117       8128       8127  
      7996       7997       8008       8007       8117       8118       8129       8128  
      7998       7999       8010       8009       8119       8120       8131       8130  
      7999       8000       8011       8010       8120       8121       8132       8131  
      8000       8001       8012       8011       8121       8122       8133       8132  
      8001       8002       8013       8012       8122       8123       8134       8133  
      8002       8003       8014       8013       8123       8124       8135       8134  
      8003       8004       8015       8014       8124       8125       8136       8135  
      8004       8005       8016       8015       8125       8126       8137       8136  
      8005       8006       8017       8016       8126       8127       8138       8137  
      8006       8007       8018       8017       8127       8128       8139       8138  
      8007       8008       8019       8018       8128       8129       8140       8139  
      8009       8010       8021       8020       8130       8131       8142       8141  
      8010       8011       8022       8021       8131       8132       8143       8142  
      8011       8012       8023       8022       8132       8133       8144       8143  
      8012       8013       8024       8023       8133       8134       8145       8144  
      8013       8014       8025       8024       8134       8135       8146       8145  
      8014       8015       8026       8025       8135       8136       8147       8146  
      8015       8016       8027       8026       8136       8137       8148       8147  
      8016       8017       8028       8027       8137       8138       8149       8148  
      8017       8018       8029       8028       8138       8139       8150       8149  
      8018       8019       8030       8029       8139       8140       8151       8150  
      8020       8021       8032       8031       8141       8142       8153       8152  
      8021       8022       8033       8032       8142       8143       8154       8153  
      8022       8023       8034       8033       8143       8144       8155       8154  
      8023       8024       8035       8034       8144       8145       8156       8155  
      8024       8025       8036       8035       8145       8146       8157       8156  
      8025       8026       8037       8036       8146       8147       8158       8157  
      8026       8027       8038       8037       8147       8148       8159       8158  
      8027       8028       8039       8038       8148       8149       8160       8159  
      8028       8029       8040       8039       8149       8150       8161       8160  
      8029       8030       8041       8040       8150       8151       8162       8161  
      8031       8032       8043       8042       8152       8153       8164       8163  
      8032       8033       8044       8043       8153       8154       8165       8164  
      8033       8034       8045       8044       8154       8155       8166       8165  
      8034       8035       8046       8045       8155       8156       8167       8166  
      8035       8036       8047       8046       8156       8157       8168       8167  
      8036       8037       8048       8047       8157       8158       8169       8168  
      8037       8038       8049       8048       8158       8159       8170       8169  
      8038       8039       8050       8049       8159       8160       8171       8170  
      8039       8040       8051       8050       8160       8161       8172       8171  
      8040       8041       8052       8051       8161       8162       8173       8172  
      8042       8043       8054       8053       8163       8164       8175       8174  
      8043       8044       8055       8054       8164       8165       8176       8175  
      8044       8045       8056       8055       8165       8166       8177       8176  
      8045       8046       8057       8056       8166       8167       8178       8177  
      8046       8047       8058       8057       8167       8168       8179       8178  
      8047       8048       8059       8058       8168       8169       8180       8179  
      8048       8049       8060       8059       8169       8170       8181       8180  
      8049       8050       8061       8060       8170       8171       8182       8181  
      8050       8051       8062       8061       8171       8172       8183       8182  
      8051       8052       8063       8062       8172       8173       8184       8183  
      8053       8054       8065       8064       8174       8175       8186       8185  
      8054       8055       8066       8065       8175       8176       8187       8186  
      8055       8056       8067       8066       8176       8177       8188       8187  
      8056       8057       8068       8067       8177       8178       8189       8188  
      8057       8058       8069       8068       8178       8179       8190       8189  
      8058       8059       8070       8069       8179       8180       8191       8190  
      8059       8060       8071       8070       8180       8181       8192       8191  
      8060       8061       8072       8071       8181       8182       8193       8192  
      8061       8062       8073       8072       8182       8183       8194       8193  
      8062       8063       8074       8073       8183       8184       8195       8194  
      8064       8065       8076       8075       8185       8186       8197       8196  
      8065       8066       8077       8076       8186       8187       8198       8197  
      8066       8067       8078       8077       8187       8188       8199       8198  
      8067       8068       8079       8078       8188       8189       8200       8199  
      8068       8069       8080       8079       8189       8190       8201       8200  
      8069       8070       8081       8080       8190       8191       8202       8201  
      8070       8071       8082       8081       8191       8192       8203       8202  
      8071       8072       8083       8082       8192       8193       8204       8203  
      8072       8073       8084       8083       8193       8194       8205       8204  
      8073       8074       8085       8084       8194       8195       8206       8205  
      8075       8076       8087       8086       8196       8197       8208       8207  
      8076       8077       8088       8087       8197       8198       8209       8208  
      8077       8078       8089       8088       8198       8199       8210       8209  
      8078       8079       8090       8089       8199       8200       8211       8210  
      8079       8080       8091       8090       8200       8201       8212       8211  
      8080       8081       8092       8091       8201       8202       8213       8212  
      8081       8082       8093       8092       8202       8203       8214       8213  
      8082       8083       8094       8093       8203       8204       8215       8214  
      8083       8084       8095       8094       8204       8205       8216       8215  
      8084       8085       8096       8095       8205       8206       8217       8216  
      8086       8087       8098       8097       8207       8208       8219       8218  
      8087       8088       8099       8098       8208       8209       8220       8219  
      8088       8089       8100       8099       8209       8210       8221       8220  
      8089       8090       8101       8100       8210       8211       8222       8221  
      8090       8091       8102       8101       8211       8212       8223       8222  
      8091       8092       8103       8102       8212       8213       8224       8223  
      8092       8093       8104       8103       8213       8214       8225       8224  
      8093       8094       8105       8104       8214       8215       8226       8225  
      8094       8095       8106       8105       8215       8216       8227       8226  
      8095       8096       8107       8106       8216       8217       8228       8227  
      8108       8109       8120       8119       8229       8230       8241       8240  
      8109       8110       8121       8120       8230       8231       8242       8241  
      8110       8111       8122       8121       8231       8232       8243       8242  
      8111       8112       8123       8122       8232       8233       8244       8243  
      8112       8113       8124       8123       8233       8234       8245       8244  
      8113       8114       8125       8124       8234       8235       8246       8245  
      8114       8115       8126       8125       8235       8236       8247       8246  
      8115       8116       8127       8126       8236       8237       8248       8247  
      8116       8117       8128       8127       8237       8238       8249       8248  
      8117       8118       8129       8128       8238       8239       8250       8249  
      8119       8120       8131       8130       8240       8241       8252       8251  
      8120       8121       8132       8131       8241       8242       8253       8252  
      8121       8122       8133       8132       8242       8243       8254       8253  
      8122       8123       8134       8133       8243       8244       8255       8254  
      8123       8124       8135       8134       8244       8245       8256       8255  
      8124       8125       8136       8135       8245       8246       8257       8256  
      8125       8126       8137       8136       8246       8247       8258       8257  
      8126       8127       8138       8137       8247       8248       8259       8258  
      8127       8128       8139       8138       8248       8249       8260       8259  
      8128       8129       8140       8139       8249       8250       8261       8260  
      8130       8131       8142       8141       8251       8252       8263       8262  
      8131       8132       8143       8142       8252       8253       8264       8263  
      8132       8133       8144       8143       8253       8254       8265       8264  
      8133       8134       8145       8144       8254       8255       8266       8265  
      8134       8135       8146       8145       8255       8256       8267       8266  
      8135       8136       8147       8146       8256       8257       8268       8267  
      8136       8137       8148       8147       8257       8258       8269       8268  
      8137       8138       8149       8148       8258       8259       8270       8269  
      8138       8139       8150       8149       8259       8260       8271       8270  
      8139       8140       8151       8150       8260       8261       8272       8271  
      8141       8142       8153       8152       8262       8263       8274       8273  
      8142       8143       8154       8153       8263       8264       8275       8274  
      8143       8144       8155       8154       8264       8265       8276       8275  
      8144       8145       8156       8155       8265       8266       8277       8276  
      8145       8146       8157       8156       8266       8267       8278       8277  
      8146       8147       8158       8157       8267       8268       8279       8278  
      8147       8148       8159       8158       8268       8269       8280       8279  
      8148       8149       8160       8159       8269       8270       8281       8280  
      8149       8150       8161       8160       8270       8271       8282       8281  
      8150       8151       8162       8161       8271       8272       8283       8282  
      8152       8153       8164       8163       8273       8274       8285       8284  
      8153       8154       8165       8164       8274       8275       8286       8285  
      8154       8155       8166       8165       8275       8276       8287       8286  
      8155       8156       8167       8166       8276       8277       8288       8287  
      8156       8157       8168       8167       8277       8278       8289       8288  
      8157       8158       8169       8168       8278       8279       8290       8289  
      8158       8159       8170       8169       8279       8280       8291       8290  
      8159       8160       8171       8170       8280       8281       8292       8291  
      8160       8161       8172       8171       8281       8282       8293       8292  
      8161       8162       8173       8172       8282       8283       8294       8293  
      8163       8164       8175       8174       8284       8285       8296       8295  
      8164       8165       8176       8175       8285       8286       8297       8296  
      8165       8166       8177       8176       8286       8287       8298       8297  
      8166       8167       8178       8177       8287       8288       8299       8298  
      8167       8168       8179       8178       8288       8289       8300       8299  
      8168       8169       8180       8179       8289       8290       8301       8300  
      8169       8170       8181       8180       8290       8291       8302       8301  
      8170       8171       8182       8181       8291       8292       8303       8302  
      8171       8172       8183       8182       8292       8293       8304       8303  
      8172       8173       8184       8183       8293       8294       8305       8304  
      8174       8175       8186       8185       8295       8296       8307       8306  
      8175       8176       8187       8186       8296       8297       8308       8307  
      8176       8177       8188       8187       8297       8298       8309       8308  
      8177       8178       8189       8188       8298       8299       8310       8309  
      8178       8179       8190       8189       8299       8300       8311       8310  
      8179       8180       8191       8190       8300       8301       8312       8311  
      8180       8181       8192       8191       8301       8302       8313       8312  
      8181       8182       8193       8192       8302       8303       8314       8313  
      8182       8183       8194       8193       8303       8304       8315       8314  
      8183       8184       8195       8194       8304       8305       8316       8315  
      8185       8186       8197       8196       8306       8307       8318       8317  
      8186       8187       8198       8197       8307       8308       8319       8318  
      8187       8188       8199       8198       8308       8309       8320       8319  
      8188       8189       8200       8199       8309       8310       8321       8320  
      8189       8190       8201       8200       8310       8311       8322       8321  
      8190       8191       8202       8201       8311       8312       8323       8322  
      8191       8192       8203       8202       8312       8313       8324       8323  
      8192       8193       8204       8203       8313       8314       8325       8324  
      8193       8194       8205       8204       8314       8315       8326       8325  
      8194       8195       8206       8205       8315       8316       8327       8326  
      8196       8197       8208       8207       8317       8318       8329       8328  
      8197       8198       8209       8208       8318       8319       8330       8329  
      8198       8199       8210       8209       8319       8320       8331       8330  
      8199       8200       8211       8210       8320       8321       8332       8331  
      8200       8201       8212       8211       8321       8322       8333       8332  
      8201       8202       8213       8212       8322       8323       8334       8333  
      8202       8203       8214       8213       8323       8324       8335       8334  
      8203       8204       8215       8214       8324       8325       8336       8335  
      8204       8205       8216       8215       8325       8326       8337       8336  
      8205       8206       8217       8216       8326       8327       8338       8337  
      8207       8208       8219       8218       8328       8329       8340       8339  
      8208       8209       8220       8219       8329       8330       8341       8340  
      8209       8210       8221       8220       8330       8331       8342       8341  
      8210       8211       8222       8221       8331       8332       8343       8342  
      8211       8212       8223       8222       8332       8333       8344       8343  
      8212       8213       8224       8223       8333       8334       8345       8344  
      8213       8214       8225       8224       8334       8335       8346       8345  
      8214       8215       8226       8225       8335       8336       8347       8346  
      8215       8216       8227       8226       8336       8337       8348       8347  
      8216       8217       8228       8227       8337       8338       8349       8348  
      8229       8230       8241       8240       8350       8351       8362       8361  
      8230       8231       8242       8241       8351       8352       8363       8362  
      8231       8232       8243       8242       8352       8353       8364       8363  
      8232       8233       8244       8243       8353       8354       8365       8364  
      8233       8234       8245       8244       8354       8355       8366       8365  
      8234       8235       8246       8245       8355       8356       8367       8366  
      8235       8236       8247       8246       8356       8357       8368       8367  
      8236       8237       8248       8247       8357       8358       8369       8368  
      8237       8238       8249       8248       8358       8359       8370       8369  
      8238       8239       8250       8249       8359       8360       8371       8370  
      8240       8241       8252       8251       8361       8362       8373       8372  
      8241       8242       8253       8252       8362       8363       8374       8373  
      8242       8243       8254       8253       8363       8364       8375       8374  
      8243       8244       8255       8254       8364       8365       8376       8375  
      8244       8245       8256       8255       8365       8366       8377       8376  
      8245       8246       8257       8256       8366       8367       8378       8377  
      8246       8247       8258       8257       8367       8368       8379       8378  
      8247       8248       8259       8258       8368       8369       8380       8379  
      8248       8249       8260       8259       8369       8370       8381       8380  
      8249       8250       8261       8260       8370       8371       8382       8381  
      8251       8252       8263       8262       8372       8373       8384       8383  
      8252       8253       8264       8263       8373       8374       8385       8384  
      8253       8254       8265       8264       8374       8375       8386       8385  
      8254       8255       8266       8265       8375       8376       8387       8386  
      8255       8256       8267       8266       8376       8377       8388       8387  
      8256       8257       8268       8267       8377       8378       8389       8388  
      8257       8258       8269       8268       8378       8379       8390       8389  
      8258       8259       8270       8269       8379       8380       8391       8390  
      8259       8260       8271       8270       8380       8381       8392       8391  
      8260       8261       8272       8271       8381       8382       8393       8392  
      8262       8263       8274       8273       8383       8384       8395       8394  
      8263       8264       8275       8274       8384       8385       8396       8395  
      8264       8265       8276       8275       8385       8386       8397       8396  
      8265       8266       8277       8276       8386       8387       8398       8397  
      8266       8267       8278       8277       8387       8388       8399       8398  
      8267       8268       8279       8278       8388       8389       8400       8399  
      8268       8269       8280       8279       8389       8390       8401       8400  
      8269       8270       8281       8280       8390       8391       8402       8401  
      8270       8271       8282       8281       8391       8392       8403       8402  
      8271       8272       8283       8282       8392       8393       8404       8403  
      8273       8274       8285       8284       8394       8395       8406       8405  
      8274       8275       8286       8285       8395       8396       8407       8406  
      8275       8276       8287       8286       8396       8397       8408       8407  
      8276       8277       8288       8287       8397       8398       8409       8408  
      8277       8278       8289       8288       8398       8399       8410       8409  
      8278       8279       8290       8289       8399       8400       8411       8410  
      8279       8280       8291       8290       8400       8401       8412       8411  
      8280       8281       8292       8291       8401       8402       8413       8412  
      8281       8282       8293       8292       8402       8403       8414       8413  
      8282       8283       8294       8293       8403       8404       8415       8414  
      8284       8285       8296       8295       8405       8406       8417       8416  
      8285       8286       8297       8296       8406       8407       8418       8417  
      8286       8287       8298       8297       8407       8408       8419       8418  
      8287       8288       8299       8298       8408       8409       8420       8419  
      8288       8289       8300       8299       8409       8410       8421       8420  
      8289       8290       8301       8300       8410       8411       8422       8421  
      8290       8291       8302       8301       8411       8412       8423       8422  
      8291       8292       8303       8302       8412       8413       8424       8423  
      8292       8293       8304       8303       8413       8414       8425       8424  
      8293       8294       8305       8304       8414       8415       8426       8425  
      8295       8296       8307       8306       8416       8417       8428       8427  
      8296       8297       8308       8307       8417       8418       8429       8428  
      8297       8298       8309       8308       8418       8419       8430       8429  
      8298       8299       8310       8309       8419       8420       8431       8430  
      8299       8300       8311       8310       8420       8421       8432       8431  
      8300       8301       8312       8311       8421       8422       8433       8432  
      8301       8302       8313       8312       8422       8423       8434       8433  
      8302       8303       8314       8313       8423       8424       8435       8434  
      8303       8304       8315       8314       8424       8425       8436       8435  
      8304       8305       8316       8315       8425       8426       8437       8436  
      8306       8307       8318       8317       8427       8428       8439       8438  
      8307       8308       8319       8318       8428       8429       8440       8439  
      8308       8309       8320       8319       8429       8430       8441       8440  
      8309       8310       8321       8320       8430       8431       8442       8441  
      8310       8311       8322       8321       8431       8432       8443       8442  
      8311       8312       8323       8322       8432       8433       8444       8443  
      8312       8313       8324       8323       8433       8434       8445       8444  
      8313       8314       8325       8324       8434       8435       8446       8445  
      8314       8315       8326       8325       8435       8436       8447       8446  
      8315       8316       8327       8326       8436       8437       8448       8447  
      8317       8318       8329       8328       8438       8439       8450       8449  
      8318       8319       8330       8329       8439       8440       8451       8450  
      8319       8320       8331       8330       8440       8441       8452       8451  
      8320       8321       8332       8331       8441       8442       8453       8452  
      8321       8322       8333       8332       8442       8443       8454       8453  
      8322       8323       8334       8333       8443       8444       8455       8454  
      8323       8324       8335       8334       8444       8445       8456       8455  
      8324       8325       8336       8335       8445       8446       8457       8456  
      8325       8326       8337       8336       8446       8447       8458       8457  
      8326       8327       8338       8337       8447       8448       8459       8458  
      8328       8329       8340       8339       8449       8450       8461       8460  
      8329       8330       8341       8340       8450       8451       8462       8461  
      8330       8331       8342       8341       8451       8452       8463       8462  
      8331       8332       8343       8342       8452       8453       8464       8463  
      8332       8333       8344       8343       8453       8454       8465       8464  
      8333       8334       8345       8344       8454       8455       8466       8465  
      8334       8335       8346       8345       8455       8456       8467       8466  
      8335       8336       8347       8346       8456       8457       8468       8467  
      8336       8337       8348       8347       8457       8458       8469       8468  
      8337       8338       8349       8348       8458       8459       8470       8469  
      8350       8351       8362       8361       8471       8472       8483       8482  
      8351       8352       8363       8362       8472       8473       8484       8483  
      8352       8353       8364       8363       8473       8474       8485       8484  
      8353       8354       8365       8364       8474       8475       8486       8485  
      8354       8355       8366       8365       8475       8476       8487       8486  
      8355       8356       8367       8366       8476       8477       8488       8487  
      8356       8357       8368       8367       8477       8478       8489       8488  
      8357       8358       8369       8368       8478       8479       8490       8489  
      8358       8359       8370       8369       8479       8480       8491       8490  
      8359       8360       8371       8370       8480       8481       8492       8491  
      8361       8362       8373       8372       8482       8483       8494       8493  
      8362       8363       8374       8373       8483       8484       8495       8494  
      8363       8364       8375       8374       8484       8485       8496       8495  
      8364       8365       8376       8375       8485       8486       8497       8496  
      8365       8366       8377       8376       8486       8487       8498       8497  
      8366       8367       8378       8377       8487       8488       8499       8498  
      8367       8368       8379       8378       8488       8489       8500       8499  
      8368       8369       8380       8379       8489       8490       8501       8500  
      8369       8370       8381       8380       8490       8491       8502       8501  
      8370       8371       8382       8381       8491       8492       8503       8502  
      8372       8373       8384       8383       8493       8494       8505       8504  
      8373       8374       8385       8384       8494       8495       8506       8505  
      8374       8375       8386       8385       8495       8496       8507       8506  
      8375       8376       8387       8386       8496       8497       8508       8507  
      8376       8377       8388       8387       8497       8498       8509       8508  
      8377       8378       8389       8388       8498       8499       8510       8509  
      8378       8379       8390       8389       8499       8500       8511       8510  
      8379       8380       8391       8390       8500       8501       8512       8511  
      8380       8381       8392       8391       8501       8502       8513       8512  
      8381       8382       8393       8392       8502       8503       8514       8513  
      8383       8384       8395       8394       8504       8505       8516       8515  
      8384       8385       8396       8395       8505       8506       8517       8516  
      8385       8386       8397       8396       8506       8507       8518       8517  
      8386       8387       8398       8397       8507       8508       8519       8518  
      8387       8388       8399       8398       8508       8509       8520       8519  
      8388       8389       8400       8399       8509       8510       8521       8520  
      8389       8390       8401       8400       8510       8511       8522       8521  
      8390       8391       8402       8401       8511       8512       8523       8522  
      8391       8392       8403       8402       8512       8513       8524       8523  
      8392       8393       8404       8403       8513       8514       8525       8524  
      8394       8395       8406       8405       8515       8516       8527       8526  
      8395       8396       8407       8406       8516       8517       8528       8527  
      8396       8397       8408       8407       8517       8518       8529       8528  
      8397       8398       8409       8408       8518       8519       8530       8529  
      8398       8399       8410       8409       8519       8520       8531       8530  
      8399       8400       8411       8410       8520       8521       8532       8531  
      8400       8401       8412       8411       8521       8522       8533       8532  
      8401       8402       8413       8412       8522       8523       8534       8533  
      8402       8403       8414       8413       8523       8524       8535       8534  
      8403       8404       8415       8414       8524       8525       8536       8535  
      8405       8406       8417       8416       8526       8527       8538       8537  
      8406       8407       8418       8417       8527       8528       8539       8538  
      8407       8408       8419       8418       8528       8529       8540       8539  
      8408       8409       8420       8419       8529       8530       8541       8540  
      8409       8410       8421       8420       8530       8531       8542       8541  
      8410       8411       8422       8421       8531       8532       8543       8542  
      8411       8412       8423       8422       8532       8533       8544       8543  
      8412       8413       8424       8423       8533       8534       8545       8544  
      8413       8414       8425       8424       8534       8535       8546       8545  
      8414       8415       8426       8425       8535       8536       8547       8546  
      8416       8417       8428       8427       8537       8538       8549       8548  
      8417       8418       8429       8428       8538       8539       8550       8549  
      8418       8419       8430       8429       8539       8540       8551       8550  
      8419       8420       8431       8430       8540       8541       8552       8551  
      8420       8421       8432       8431       8541       8542       8553       8552  
      8421       8422       8433       8432       8542       8543       8554       8553  
      8422       8423       8434       8433       8543       8544       8555       8554  
      8423       8424       8435       8434       8544       8545       8556       8555  
      8424       8425       8436       8435       8545       8546       8557       8556  
      8425       8426       8437       8436       8546       8547       8558       8557  
      8427       8428       8439       8438       8548       8549       8560       8559  
      8428       8429       8440       8439       8549       8550       8561       8560  
      8429       8430       8441       8440       8550       8551       8562       8561  
      8430       8431       8442       8441       8551       8552       8563       8562  
      8431       8432       8443       8442       8552       8553       8564       8563  
      8432       8433       8444       8443       8553       8554       8565       8564  
      8433       8434       8445       8444       8554       8555       8566       8565  
      8434       8435       8446       8445       8555       8556       8567       8566  
      8435       8436       8447       8446       8556       8557       8568       8567  
      8436       8437       8448       8447       8557       8558       8569       8568  
      8438       8439       8450       8449       8559       8560       8571       8570  
      8439       8440       8451       8450       8560       8561       8572       8571  
      8440       8441       8452       8451       8561       8562       8573       8572  
      8441       8442       8453       8452       8562       8563       8574       8573  
      8442       8443       8454       8453       8563       8564       8575       8574  
      8443       8444       8455       8454       8564       8565       8576       8575  
      8444       8445       8456       8455       8565       8566       8577       8576  
      8445       8446       8457       8456       8566       8567       8578       8577  
      8446       8447       8458       8457       8567       8568       8579       8578  
      8447       8448       8459       8458       8568       8569       8580       8579  
      8449       8450       8461       8460       8570       8571       8582       8581  
      8450       8451       8462       8461       8571       8572       8583       8582  
      8451       8452       8463       8462       8572       8573       8584       8583  
      8452       8453       8464       8463       8573       8574       8585       8584  
      8453       8454       8465       8464       8574       8575       8586       8585  
      8454       8455       8466       8465       8575       8576       8587       8586  
      8455       8456       8467       8466       8576       8577       8588       8587  
      8456       8457       8468       8467       8577       8578       8589       8588  
      8457       8458       8469       8468       8578       8579       8590       8589  
      8458       8459       8470       8469       8579       8580       8591       8590  
      8471       8472       8483       8482       8592       8593       8604       8603  
      8472       8473       8484       8483       8593       8594       8605       8604  
      8473       8474       8485       8484       8594       8595       8606       8605  
      8474       8475       8486       8485       8595       8596       8607       8606  
      8475       8476       8487       8486       8596       8597       8608       8607  
      8476       8477       8488       8487       8597       8598       8609       8608  
      8477       8478       8489       8488       8598       8599       8610       8609  
      8478       8479       8490       8489       8599       8600       8611       8610  
      8479       8480       8491       8490       8600       8601       8612       8611  
      8480       8481       8492       8491       8601       8602       8613       8612  
      8482       8483       8494       8493       8603       8604       8615       8614  
      8483       8484       8495       8494       8604       8605       8616       8615  
      8484       8485       8496       8495       8605       8606       8617       8616  
      8485       8486       8497       8496       8606       8607       8618       8617  
      8486       8487       8498       8497       8607       8608       8619       8618  
      8487       8488       8499       8498       8608       8609       8620       8619  
      8488       8489       8500       8499       8609       8610       8621       8620  
      8489       8490       8501       8500       8610       8611       8622       8621  
      8490       8491       8502       8501       8611       8612       8623       8622  
      8491       8492       8503       8502       8612       8613       8624       8623  
      8493       8494       8505       8504       8614       8615       8626       8625  
      8494       8495       8506       8505       8615       8616       8627       8626  
      8495       8496       8507       8506       8616       8617       8628       8627  
      8496       8497       8508       8507       8617       8618       8629       8628  
      8497       8498       8509       8508       8618       8619       8630       8629  
      8498       8499       8510       8509       8619       8620       8631       8630  
      8499       8500       8511       8510       8620       8621       8632       8631  
      8500       8501       8512       8511       8621       8622       8633       8632  
      8501       8502       8513       8512       8622       8623       8634       8633  
      8502       8503       8514       8513       8623       8624       8635       8634  
      8504       8505       8516       8515       8625       8626       8637       8636  
      8505       8506       8517       8516       8626       8627       8638       8637  
      8506       8507       8518       8517       8627       8628       8639       8638  
      8507       8508       8519       8518       8628       8629       8640       8639  
      8508       8509       8520       8519       8629       8630       8641       8640  
      8509       8510       8521       8520       8630       8631       8642       8641  
      8510       8511       8522       8521       8631       8632       8643       8642  
      8511       8512       8523       8522       8632       8633       8644       8643  
      8512       8513       8524       8523       8633       8634       8645       8644  
      8513       8514       8525       8524       8634       8635       8646       8645  
      8515       8516       8527       8526       8636       8637       8648       8647  
      8516       8517       8528       8527       8637       8638       8649       8648  
      8517       8518       8529       8528       8638       8639       8650       8649  
      8518       8519       8530       8529       8639       8640       8651       8650  
      8519       8520       8531       8530       8640       8641       8652       8651  
      8520       8521       8532       8531       8641       8642       8653       8652  
      8521       8522       8533       8532       8642       8643       8654       8653  
      8522       8523       8534       8533       8643       8644       8655       8654  
      8523       8524       8535       8534       8644       8645       8656       8655  
      8524       8525       8536       8535       8645       8646       8657       8656  
      8526       8527       8538       8537       8647       8648       8659       8658  
      8527       8528       8539       8538       8648       8649       8660       8659  
      8528       8529       8540       8539       8649       8650       8661       8660  
      8529       8530       8541       8540       8650       8651       8662       8661  
      8530       8531       8542       8541       8651       8652       8663       8662  
      8531       8532       8543       8542       8652       8653       8664       8663  
      8532       8533       8544       8543       8653       8654       8665       8664  
      8533       8534       8545       8544       8654       8655       8666       8665  
      8534       8535       8546       8545       8655       8656       8667       8666  
      8535       8536       8547       8546       8656       8657       8668       8667  
      8537       8538       8549       8548       8658       8659       8670       8669  
      8538       8539       8550       8549       8659       8660       8671       8670  
      8539       8540       8551       8550       8660       8661       8672       8671  
      8540       8541       8552       8551       8661       8662       8673       8672  
      8541       8542       8553       8552       8662       8663       8674       8673  
      8542       8543       8554       8553       8663       8664       8675       8674  
      8543       8544       8555       8554       8664       8665       8676       8675  
      8544       8545       8556       8555       8665       8666       8677       8676  
      8545       8546       8557       8556       8666       8667       8678       8677  
      8546       8547       8558       8557       8667       8668       8679       8678  
      8548       8549       8560       8559       8669       8670       8681       8680  
      8549       8550       8561       8560       8670       8671       8682       8681  
      8550       8551       8562       8561       8671       8672       8683       8682  
      8551       8552       8563       8562       8672       8673       8684       8683  
      8552       8553       8564       8563       8673       8674       8685       8684  
      8553       8554       8565       8564       8674       8675       8686       8685  
      8554       8555       8566       8565       8675       8676       8687       8686  
      8555       8556       8567       8566       8676       8677       8688       8687  
      8556       8557       8568       8567       8677       8678       8689       8688  
      8557       8558       8569       8568       8678       8679       8690       8689  
      8559       8560       8571       8570       8680       8681       8692       8691  
      8560       8561       8572       8571       8681       8682       8693       8692  
      8561       8562       8573       8572       8682       8683       8694       8693  
      8562       8563       8574       8573       8683       8684       8695       8694  
      8563       8564       8575       8574       8684       8685       8696       8695  
      8564       8565       8576       8575       8685       8686       8697       8696  
      8565       8566       8577       8576       8686       8687       8698       8697  
      8566       8567       8578       8577       8687       8688       8699       8698  
      8567       8568       8579       8578       8688       8689       8700       8699  
      8568       8569       8580       8579       8689       8690       8701       8700  
      8570       8571       8582       8581       8691       8692       8703       8702  
      8571       8572       8583       8582       8692       8693       8704       8703  
      8572       8573       8584       8583       8693       8694       8705       8704  
      8573       8574       8585       8584       8694       8695       8706       8705  
      8574       8575       8586       8585       8695       8696       8707       8706  
      8575       8576       8587       8586       8696       8697       8708       8707  
      8576       8577       8588       8587       8697       8698       8709       8708  
      8577       8578       8589       8588       8698       8699       8710       8709  
      8578       8579       8590       8589       8699       8700       8711       8710  
      8579       8580       8591       8590       8700       8701       8712       8711  
      8592       8593       8604       8603       8713       8714       8725       8724  
      8593       8594       8605       8604       8714       8715       8726       8725  
      8594       8595       8606       8605       8715       8716       8727       8726  
      8595       8596       8607       8606       8716       8717       8728       8727  
      8596       8597       8608       8607       8717       8718       8729       8728  
      8597       8598       8609       8608       8718       8719       8730       8729  
      8598       8599       8610       8609       8719       8720       8731       8730  
      8599       8600       8611       8610       8720       8721       8732       8731  
      8600       8601       8612       8611       8721       8722       8733       8732  
      8601       8602       8613       8612       8722       8723       8734       8733  
      8603       8604       8615       8614       8724       8725       8736       8735  
      8604       8605       8616       8615       8725       8726       8737       8736  
      8605       8606       8617       8616       8726       8727       8738       8737  
      8606       8607       8618       8617       8727       8728       8739       8738  
      8607       8608       8619       8618       8728       8729       8740       8739  
      8608       8609       8620       8619       8729       8730       8741       8740  
      8609       8610       8621       8620       8730       8731       8742       8741  
      8610       8611       8622       8621       8731       8732       8743       8742  
      8611       8612       8623       8622       8732       8733       8744       8743  
      8612       8613       8624       8623       8733       8734       8745       8744  
      8614       8615       8626       8625       8735       8736       8747       8746  
      8615       8616       8627       8626       8736       8737       8748       8747  
      8616       8617       8628       8627       8737       8738       8749       8748  
      8617       8618       8629       8628       8738       8739       8750       8749  
      8618       8619       8630       8629       8739       8740       8751       8750  
      8619       8620       8631       8630       8740       8741       8752       8751  
      8620       8621       8632       8631       8741       8742       8753       8752  
      8621       8622       8633       8632       8742       8743       8754       8753  
      8622       8623       8634       8633       8743       8744       8755       8754  
      8623       8624       8635       8634       8744       8745       8756       8755  
      8625       8626       8637       8636       8746       8747       8758       8757  
      8626       8627       8638       8637       8747       8748       8759       8758  
      8627       8628       8639       8638       8748       8749       8760       8759  
      8628       8629       8640       8639       8749       8750       8761       8760  
      8629       8630       8641       8640       8750       8751       8762       8761  
      8630       8631       8642       8641       8751       8752       8763       8762  
      8631       8632       8643       8642       8752       8753       8764       8763  
      8632       8633       8644       8643       8753       8754       8765       8764  
      8633       8634       8645       8644       8754       8755       8766       8765  
      8634       8635       8646       8645       8755       8756       8767       8766  
      8636       8637       8648       8647       8757       8758       8769       8768  
      8637       8638       8649       8648       8758       8759       8770       8769  
      8638       8639       8650       8649       8759       8760       8771       8770  
      8639       8640       8651       8650       8760       8761       8772       8771  
      8640       8641       8652       8651       8761       8762       8773       8772  
      8641       8642       8653       8652       8762       8763       8774       8773  
      8642       8643       8654       8653       8763       8764       8775       8774  
      8643       8644       8655       8654       8764       8765       8776       8775  
      8644       8645       8656       8655       8765       8766       8777       8776  
      8645       8646       8657       8656       8766       8767       8778       8777  
      8647       8648       8659       8658       8768       8769       8780       8779  
      8648       8649       8660       8659       8769       8770       8781       8780  
      8649       8650       8661       8660       8770       8771       8782       8781  
      8650       8651       8662       8661       8771       8772       8783       8782  
      8651       8652       8663       8662       8772       8773       8784       8783  
      8652       8653       8664       8663       8773       8774       8785       8784  
      8653       8654       8665       8664       8774       8775       8786       8785  
      8654       8655       8666       8665       8775       8776       8787       8786  
      8655       8656       8667       8666       8776       8777       8788       8787  
      8656       8657       8668       8667       8777       8778       8789       8788  
      8658       8659       8670       8669       8779       8780       8791       8790  
      8659       8660       8671       8670       8780       8781       8792       8791  
      8660       8661       8672       8671       8781       8782       8793       8792  
      8661       8662       8673       8672       8782       8783       8794       8793  
      8662       8663       8674       8673       8783       8784       8795       8794  
      8663       8664       8675       8674       8784       8785       8796       8795  
      8664       8665       8676       8675       8785       8786       8797       8796  
      8665       8666       8677       8676       8786       8787       8798       8797  
      8666       8667       8678       8677       8787       8788       8799       8798  
      8667       8668       8679       8678       8788       8789       8800       8799  
      8669       8670       8681       8680       8790       8791       8802       8801  
      8670       8671       8682       8681       8791       8792       8803       8802  
      8671       8672       8683       8682       8792       8793       8804       8803  
      8672       8673       8684       8683       8793       8794       8805       8804  
      8673       8674       8685       8684       8794       8795       8806       8805  
      8674       8675       8686       8685       8795       8796       8807       8806  
      8675       8676       8687       8686       8796       8797       8808       8807  
      8676       8677       8688       8687       8797       8798       8809       8808  
      8677       8678       8689       8688       8798       8799       8810       8809  
      8678       8679       8690       8689       8799       8800       8811       8810  
      8680       8681       8692       8691       8801       8802       8813       8812  
      8681       8682       8693       8692       8802       8803       8814       8813  
      8682       8683       8694       8693       8803       8804       8815       8814  
      8683       8684       8695       8694       8804       8805       8816       8815  
      8684       8685       8696       8695       8805       8806       8817       8816  
      8685       8686       8697       8696       8806       8807       8818       8817  
      8686       8687       8698       8697       8807       8808       8819       8818  
      8687       8688       8699       8698       8808       8809       8820       8819  
      8688       8689       8700       8699       8809       8810       8821       8820  
      8689       8690       8701       8700       8810       8811       8822       8821  
      8691       8692       8703       8702       8812       8813       8824       8823  
      8692       8693       8704       8703       8813       8814       8825       8824  
      8693       8694       8705       8704       8814       8815       8826       8825  
      8694       8695       8706       8705       8815       8816       8827       8826  
      8695       8696       8707       8706       8816       8817       8828       8827  
      8696       8697       8708       8707       8817       8818       8829       8828  
      8697       8698       8709       8708       8818       8819       8830       8829  
      8698       8699       8710       8709       8819       8820       8831       8830  
      8699       8700       8711       8710       8820       8821       8832       8831  
      8700       8701       8712       8711       8821       8822       8833       8832  
      8713       8714       8725       8724       8834       8835       8846       8845  
      8714       8715       8726       8725       8835       8836       8847       8846  
      8715       8716       8727       8726       8836       8837       8848       8847  
      8716       8717       8728       8727       8837       8838       8849       8848  
      8717       8718       8729       8728       8838       8839       8850       8849  
      8718       8719       8730       8729       8839       8840       8851       8850  
      8719       8720       8731       8730       8840       8841       8852       8851  
      8720       8721       8732       8731       8841       8842       8853       8852  
      8721       8722       8733       8732       8842       8843       8854       8853  
      8722       8723       8734       8733       8843       8844       8855       8854  
      8724       8725       8736       8735       8845       8846       8857       8856  
      8725       8726       8737       8736       8846       8847       8858       8857  
      8726       8727       8738       8737       8847       8848       8859       8858  
      8727       8728       8739       8738       8848       8849       8860       8859  
      8728       8729       8740       8739       8849       8850       8861       8860  
      8729       8730       8741       8740       8850       8851       8862       8861  
      8730       8731       8742       8741       8851       8852       8863       8862  
      8731       8732       8743       8742       8852       8853       8864       8863  
      8732       8733       8744       8743       8853       8854       8865       8864  
      8733       8734       8745       8744       8854       8855       8866       8865  
      8735       8736       8747       8746       8856       8857       8868       8867  
      8736       8737       8748       8747       8857       8858       8869       8868  
      8737       8738       8749       8748       8858       8859       8870       8869  
      8738       8739       8750       8749       8859       8860       8871       8870  
      8739       8740       8751       8750       8860       8861       8872       8871  
      8740       8741       8752       8751       8861       8862       8873       8872  
      8741       8742       8753       8752       8862       8863       8874       8873  
      8742       8743       8754       8753       8863       8864       8875       8874  
      8743       8744       8755       8754       8864       8865       8876       8875  
      8744       8745       8756       8755       8865       8866       8877       8876  
      8746       8747       8758       8757       8867       8868       8879       8878  
      8747       8748       8759       8758       8868       8869       8880       8879  
      8748       8749       8760       8759       8869       8870       8881       8880  
      8749       8750       8761       8760       8870       8871       8882       8881  
      8750       8751       8762       8761       8871       8872       8883       8882  
      8751       8752       8763       8762       8872       8873       8884       8883  
      8752       8753       8764       8763       8873       8874       8885       8884  
      8753       8754       8765       8764       8874       8875       8886       8885  
      8754       8755       8766       8765       8875       8876       8887       8886  
      8755       8756       8767       8766       8876       8877       8888       8887  
      8757       8758       8769       8768       8878       8879       8890       8889  
      8758       8759       8770       8769       8879       8880       8891       8890  
      8759       8760       8771       8770       8880       8881       8892       8891  
      8760       8761       8772       8771       8881       8882       8893       8892  
      8761       8762       8773       8772       8882       8883       8894       8893  
      8762       8763       8774       8773       8883       8884       8895       8894  
      8763       8764       8775       8774       8884       8885       8896       8895  
      8764       8765       8776       8775       8885       8886       8897       8896  
      8765       8766       8777       8776       8886       8887       8898       8897  
      8766       8767       8778       8777       8887       8888       8899       8898  
      8768       8769       8780       8779       8889       8890       8901       8900  
      8769       8770       8781       8780       8890       8891       8902       8901  
      8770       8771       8782       8781       8891       8892       8903       8902  
      8771       8772       8783       8782       8892       8893       8904       8903  
      8772       8773       8784       8783       8893       8894       8905       8904  
      8773       8774       8785       8784       8894       8895       8906       8905  
      8774       8775       8786       8785       8895       8896       8907       8906  
      8775       8776       8787       8786       8896       8897       8908       8907  
      8776       8777       8788       8787       8897       8898       8909       8908  
      8777       8778       8789       8788       8898       8899       8910       8909  
      8779       8780       8791       8790       8900       8901       8912       8911  
      8780       8781       8792       8791       8901       8902       8913       8912  
      8781       8782       8793       8792       8902       8903       8914       8913  
      8782       8783       8794       8793       8903       8904       8915       8914  
      8783       8784       8795       8794       8904       8905       8916       8915  
      8784       8785       8796       8795       8905       8906       8917       8916  
      8785       8786       8797       8796       8906       8907       8918       8917  
      8786       8787       8798       8797       8907       8908       8919       8918  
      8787       8788       8799       8798       8908       8909       8920       8919  
      8788       8789       8800       8799       8909       8910       8921       8920  
      8790       8791       8802       8801       8911       8912       8923       8922  
      8791       8792       8803       8802       8912       8913       8924       8923  
      8792       8793       8804       8803       8913       8914       8925       8924  
      8793       8794       8805       8804       8914       8915       8926       8925  
      8794       8795       8806       8805       8915       8916       8927       8926  
      8795       8796       8807       8806       8916       8917       8928       8927  
      8796       8797       8808       8807       8917       8918       8929       8928  
      8797       8798       8809       8808       8918       8919       8930       8929  
      8798       8799       8810       8809       8919       8920       8931       8930  
      8799       8800       8811       8810       8920       8921       8932       8931  
      8801       8802       8813       8812       8922       8923       8934       8933  
      8802       8803       8814       8813       8923       8924       8935       8934  
      8803       8804       8815       8814       8924       8925       8936       8935  
      8804       8805       8816       8815       8925       8926       8937       8936  
      8805       8806       8817       8816       8926       8927       8938       8937  
      8806       8807       8818       8817       8927       8928       8939       8938  
      8807       8808       8819       8818       8928       8929       8940       8939  
      8808       8809       8820       8819       8929       8930       8941       8940  
      8809       8810       8821       8820       8930       8931       8942       8941  
      8810       8811       8822       8821       8931       8932       8943       8942  
      8812       8813       8824       8823       8933       8934       8945       8944  
      8813       8814       8825       8824       8934       8935       8946       8945  
      8814       8815       8826       8825       8935       8936       8947       8946  
      8815       8816       8827       8826       8936       8937       8948       8947  
      8816       8817       8828       8827       8937       8938       8949       8948  
      8817       8818       8829       8828       8938       8939       8950       8949  
      8818       8819       8830       8829       8939       8940       8951       8950  
      8819       8820       8831       8830       8940       8941       8952       8951  
      8820       8821       8832       8831       8941       8942       8953       8952  
      8821       8822       8833       8832       8942       8943       8954       8953  
      8834       8835       8846       8845       8955       8956       8967       8966  
      8835       8836       8847       8846       8956       8957       8968       8967  
      8836       8837       8848       8847       8957       8958       8969       8968  
      8837       8838       8849       8848       8958       8959       8970       8969  
      8838       8839       8850       8849       8959       8960       8971       8970  
      8839       8840       8851       8850       8960       8961       8972       8971  
      8840       8841       8852       8851       8961       8962       8973       8972  
      8841       8842       8853       8852       8962       8963       8974       8973  
      8842       8843       8854       8853       8963       8964       8975       8974  
      8843       8844       8855       8854       8964       8965       8976       8975  
      8845       8846       8857       8856       8966       8967       8978       8977  
      8846       8847       8858       8857       8967       8968       8979       8978  
      8847       8848       8859       8858       8968       8969       8980       8979  
      8848       8849       8860       8859       8969       8970       8981       8980  
      8849       8850       8861       8860       8970       8971       8982       8981  
      8850       8851       8862       8861       8971       8972       8983       8982  
      8851       8852       8863       8862       8972       8973       8984       8983  
      8852       8853       8864       8863       8973       8974       8985       8984  
      8853       8854       8865       8864       8974       8975       8986       8985  
      8854       8855       8866       8865       8975       8976       8987       8986  
      8856       8857       8868       8867       8977       8978       8989       8988  
      8857       8858       8869       8868       8978       8979       8990       8989  
      8858       8859       8870       8869       8979       8980       8991       8990  
      8859       8860       8871       8870       8980       8981       8992       8991  
      8860       8861       8872       8871       8981       8982       8993       8992  
      8861       8862       8873       8872       8982       8983       8994       8993  
      8862       8863       8874       8873       8983       8984       8995       8994  
      8863       8864       8875       8874       8984       8985       8996       8995  
      8864       8865       8876       8875       8985       8986       8997       8996  
      8865       8866       8877       8876       8986       8987       8998       8997  
      8867       8868       8879       8878       8988       8989       9000       8999  
      8868       8869       8880       8879       8989       8990       9001       9000  
      8869       8870       8881       8880       8990       8991       9002       9001  
      8870       8871       8882       8881       8991       8992       9003       9002  
      8871       8872       8883       8882       8992       8993       9004       9003  
      8872       8873       8884       8883       8993       8994       9005       9004  
      8873       8874       8885       8884       8994       8995       9006       9005  
      8874       8875       8886       8885       8995       8996       9007       9006  
      8875       8876       8887       8886       8996       8997       9008       9007  
      8876       8877       8888       8887       8997       8998       9009       9008  
      8878       8879       8890       8889       8999       9000       9011       9010  
      8879       8880       8891       8890       9000       9001       9012       9011  
      8880       8881       8892       8891       9001       9002       9013       9012  
      8881       8882       8893       8892       9002       9003       9014       9013  
      8882       8883       8894       8893       9003       9004       9015       9014  
      8883       8884       8895       8894       9004       9005       9016       9015  
      8884       8885       8896       8895       9005       9006       9017       9016  
      8885       8886       8897       8896       9006       9007       9018       9017  
      8886       8887       8898       8897       9007       9008       9019       9018  
      8887       8888       8899       8898       9008       9009       9020       9019  
      8889       8890       8901       8900       9010       9011       9022       9021  
      8890       8891       8902       8901       9011       9012       9023       9022  
      8891       8892       8903       8902       9012       9013       9024       9023  
      8892       8893       8904       8903       9013       9014       9025       9024  
      8893       8894       8905       8904       9014       9015       9026       9025  
      8894       8895       8906       8905       9015       9016       9027       9026  
      8895       8896       8907       8906       9016       9017       9028       9027  
      8896       8897       8908       8907       9017       9018       9029       9028  
      8897       8898       8909       8908       9018       9019       9030       9029  
      8898       8899       8910       8909       9019       9020       9031       9030  
      8900       8901       8912       8911       9021       9022       9033       9032  
      8901       8902       8913       8912       9022       9023       9034       9033  
      8902       8903       8914       8913       9023       9024       9035       9034  
      8903       8904       8915       8914       9024       9025       9036       9035  
      8904       8905       8916       8915       9025       9026       9037       9036  
      8905       8906       8917       8916       9026       9027       9038       9037  
      8906       8907       8918       8917       9027       9028       9039       9038  
      8907       8908       8919       8918       9028       9029       9040       9039  
      8908       8909       8920       8919       9029       9030       9041       9040  
      8909       8910       8921       8920       9030       9031       9042       9041  
      8911       8912       8923       8922       9032       9033       9044       9043  
      8912       8913       8924       8923       9033       9034       9045       9044  
      8913       8914       8925       8924       9034       9035       9046       9045  
      8914       8915       8926       8925       9035       9036       9047       9046  
      8915       8916       8927       8926       9036       9037       9048       9047  
      8916       8917       8928       8927       9037       9038       9049       9048  
      8917       8918       8929       8928       9038       9039       9050       9049  
      8918       8919       8930       8929       9039       9040       9051       9050  
      8919       8920       8931       8930       9040       9041       9052       9051  
      8920       8921       8932       8931       9041       9042       9053       9052  
      8922       8923       8934       8933       9043       9044       9055       9054  
      8923       8924       8935       8934       9044       9045       9056       9055  
      8924       8925       8936       8935       9045       9046       9057       9056  
      8925       8926       8937       8936       9046       9047       9058       9057  
      8926       8927       8938       8937       9047       9048       9059       9058  
      8927       8928       8939       8938       9048       9049       9060       9059  
      8928       8929       8940       8939       9049       9050       9061       9060  
      8929       8930       8941       8940       9050       9051       9062       9061  
      8930       8931       8942       8941       9051       9052       9063       9062  
      8931       8932       8943       8942       9052       9053       9064       9063  
      8933       8934       8945       8944       9054       9055       9066       9065  
      8934       8935       8946       8945       9055       9056       9067       9066  
      8935       8936       8947       8946       9056       9057       9068       9067  
      8936       8937       8948       8947       9057       9058       9069       9068  
      8937       8938       8949       8948       9058       9059       9070       9069  
      8938       8939       8950       8949       9059       9060       9071       9070  
      8939       8940       8951       8950       9060       9061       9072       9071  
      8940       8941       8952       8951       9061       9062       9073       9072  
      8941       8942       8953       8952       9062       9063       9074       9073  
      8942       8943       8954       8953       9063       9064       9075       9074  
      8955       8956       8967       8966       9076       9077       9088       9087  
      8956       8957       8968       8967       9077       9078       9089       9088  
      8957       8958       8969       8968       9078       9079       9090       9089  
      8958       8959       8970       8969       9079       9080       9091       9090  
      8959       8960       8971       8970       9080       9081       9092       9091  
      8960       8961       8972       8971       9081       9082       9093       9092  
      8961       8962       8973       8972       9082       9083       9094       9093  
      8962       8963       8974       8973       9083       9084       9095       9094  
      8963       8964       8975       8974       9084       9085       9096       9095  
      8964       8965       8976       8975       9085       9086       9097       9096  
      8966       8967       8978       8977       9087       9088       9099       9098  
      8967       8968       8979       8978       9088       9089       9100       9099  
      8968       8969       8980       8979       9089       9090       9101       9100  
      8969       8970       8981       8980       9090       9091       9102       9101  
      8970       8971       8982       8981       9091       9092       9103       9102  
      8971       8972       8983       8982       9092       9093       9104       9103  
      8972       8973       8984       8983       9093       9094       9105       9104  
      8973       8974       8985       8984       9094       9095       9106       9105  
      8974       8975       8986       8985       9095       9096       9107       9106  
      8975       8976       8987       8986       9096       9097       9108       9107  
      8977       8978       8989       8988       9098       9099       9110       9109  
      8978       8979       8990       8989       9099       9100       9111       9110  
      8979       8980       8991       8990       9100       9101       9112       9111  
      8980       8981       8992       8991       9101       9102       9113       9112  
      8981       8982       8993       8992       9102       9103       9114       9113  
      8982       8983       8994       8993       9103       9104       9115       9114  
      8983       8984       8995       8994       9104       9105       9116       9115  
      8984       8985       8996       8995       9105       9106       9117       9116  
      8985       8986       8997       8996       9106       9107       9118       9117  
      8986       8987       8998       8997       9107       9108       9119       9118  
      8988       8989       9000       8999       9109       9110       9121       9120  
      8989       8990       9001       9000       9110       9111       9122       9121  
      8990       8991       9002       9001       9111       9112       9123       9122  
      8991       8992       9003       9002       9112       9113       9124       9123  
      8992       8993       9004       9003       9113       9114       9125       9124  
      8993       8994       9005       9004       9114       9115       9126       9125  
      8994       8995       9006       9005       9115       9116       9127       9126  
      8995       8996       9007       9006       9116       9117       9128       9127  
      8996       8997       9008       9007       9117       9118       9129       9128  
      8997       8998       9009       9008       9118       9119       9130       9129  
      8999       9000       9011       9010       9120       9121       9132       9131  
      9000       9001       9012       9011       9121       9122       9133       9132  
      9001       9002       9013       9012       9122       9123       9134       9133  
      9002       9003       9014       9013       9123       9124       9135       9134  
      9003       9004       9015       9014       9124       9125       9136       9135  
      9004       9005       9016       9015       9125       9126       9137       9136  
      9005       9006       9017       9016       9126       9127       9138       9137  
      9006       9007       9018       9017       9127       9128       9139       9138  
      9007       9008       9019       9018       9128       9129       9140       9139  
      9008       9009       9020       9019       9129       9130       9141       9140  
      9010       9011       9022       9021       9131       9132       9143       9142  
      9011       9012       9023       9022       9132       9133       9144       9143  
      9012       9013       9024       9023       9133       9134       9145       9144  
      9013       9014       9025       9024       9134       9135       9146       9145  
      9014       9015       9026       9025       9135       9136       9147       9146  
      9015       9016       9027       9026       9136       9137       9148       9147  
      9016       9017       9028       9027       9137       9138       9149       9148  
      9017       9018       9029       9028       9138       9139       9150       9149  
      9018       9019       9030       9029       9139       9140       9151       9150  
      9019       9020       9031       9030       9140       9141       9152       9151  
      9021       9022       9033       9032       9142       9143       9154       9153  
      9022       9023       9034       9033       9143       9144       9155       9154  
      9023       9024       9035       9034       9144       9145       9156       9155  
      9024       9025       9036       9035       9145       9146       9157       9156  
      9025       9026       9037       9036       9146       9147       9158       9157  
      9026       9027       9038       9037       9147       9148       9159       9158  
      9027       9028       9039       9038       9148       9149       9160       9159  
      9028       9029       9040       9039       9149       9150       9161       9160  
      9029       9030       9041       9040       9150       9151       9162       9161  
      9030       9031       9042       9041       9151       9152       9163       9162  
      9032       9033       9044       9043       9153       9154       9165       9164  
      9033       9034       9045       9044       9154       9155       9166       9165  
      9034       9035       9046       9045       9155       9156       9167       9166  
      9035       9036       9047       9046       9156       9157       9168       9167  
      9036       9037       9048       9047       9157       9158       9169       9168  
      9037       9038       9049       9048       9158       9159       9170       9169  
      9038       9039       9050       9049       9159       9160       9171       9170  
      9039       9040       9051       9050       9160       9161       9172       9171  
      9040       9041       9052       9051       9161       9162       9173       9172  
      9041       9042       9053       9052       9162       9163       9174       9173  
      9043       9044       9055       9054       9164       9165       9176       9175  
      9044       9045       9056       9055       9165       9166       9177       9176  
      9045       9046       9057       9056       9166       9167       9178       9177  
      9046       9047       9058       9057       9167       9168       9179       9178  
      9047       9048       9059       9058       9168       9169       9180       9179  
      9048       9049       9060       9059       9169       9170       9181       9180  
      9049       9050       9061       9060       9170       9171       9182       9181  
      9050       9051       9062       9061       9171       9172       9183       9182  
      9051       9052       9063       9062       9172       9173       9184       9183  
      9052       9053       9064       9063       9173       9174       9185       9184  
      9054       9055       9066       9065       9175       9176       9187       9186  
      9055       9056       9067       9066       9176       9177       9188       9187  
      9056       9057       9068       9067       9177       9178       9189       9188  
      9057       9058       9069       9068       9178       9179       9190       9189  
      9058       9059       9070       9069       9179       9180       9191       9190  
      9059       9060       9071       9070       9180       9181       9192       9191  
      9060       9061       9072       9071       9181       9182       9193       9192  
      9061       9062       9073       9072       9182       9183       9194       9193  
      9062       9063       9074       9073       9183       9184       9195       9194  
      9063       9064       9075       9074       9184       9185       9196       9195  
      9076       9077       9088       9087       9197       9198       9209       9208  
      9077       9078       9089       9088       9198       9199       9210       9209  
      9078       9079       9090       9089       9199       9200       9211       9210  
      9079       9080       9091       9090       9200       9201       9212       9211  
      9080       9081       9092       9091       9201       9202       9213       9212  
      9081       9082       9093       9092       9202       9203       9214       9213  
      9082       9083       9094       9093       9203       9204       9215       9214  
      9083       9084       9095       9094       9204       9205       9216       9215  
      9084       9085       9096       9095       9205       9206       9217       9216  
      9085       9086       9097       9096       9206       9207       9218       9217  
      9087       9088       9099       9098       9208       9209       9220       9219  
      9088       9089       9100       9099       9209       9210       9221       9220  
      9089       9090       9101       9100       9210       9211       9222       9221  
      9090       9091       9102       9101       9211       9212       9223       9222  
      9091       9092       9103       9102       9212       9213       9224       9223  
      9092       9093       9104       9103       9213       9214       9225       9224  
      9093       9094       9105       9104       9214       9215       9226       9225  
      9094       9095       9106       9105       9215       9216       9227       9226  
      9095       9096       9107       9106       9216       9217       9228       9227  
      9096       9097       9108       9107       9217       9218       9229       9228  
      9098       9099       9110       9109       9219       9220       9231       9230  
      9099       9100       9111       9110       9220       9221       9232       9231  
      9100       9101       9112       9111       9221       9222       9233       9232  
      9101       9102       9113       9112       9222       9223       9234       9233  
      9102       9103       9114       9113       9223       9224       9235       9234  
      9103       9104       9115       9114       9224       9225       9236       9235  
      9104       9105       9116       9115       9225       9226       9237       9236  
      9105       9106       9117       9116       9226       9227       9238       9237  
      9106       9107       9118       9117       9227       9228       9239       9238  
      9107       9108       9119       9118       9228       9229       9240       9239  
      9109       9110       9121       9120       9230       9231       9242       9241  
      9110       9111       9122       9121       9231       9232       9243       9242  
      9111       9112       9123       9122       9232       9233       9244       9243  
      9112       9113       9124       9123       9233       9234       9245       9244  
      9113       9114       9125       9124       9234       9235       9246       9245  
      9114       9115       9126       9125       9235       9236       9247       9246  
      9115       9116       9127       9126       9236       9237       9248       9247  
      9116       9117       9128       9127       9237       9238       9249       9248  
      9117       9118       9129       9128       9238       9239       9250       9249  
      9118       9119       9130       9129       9239       9240       9251       9250  
      9120       9121       9132       9131       9241       9242       9253       9252  
      9121       9122       9133       9132       9242       9243       9254       9253  
      9122       9123       9134       9133       9243       9244       9255       9254  
      9123       9124       9135       9134       9244       9245       9256       9255  
      9124       9125       9136       9135       9245       9246       9257       9256  
      9125       9126       9137       9136       9246       9247       9258       9257  
      9126       9127       9138       9137       9247       9248       9259       9258  
      9127       9128       9139       9138       9248       9249       9260       9259  
      9128       9129       9140       9139       9249       9250       9261       9260  
      9129       9130       9141       9140       9250       9251       9262       9261  
      9131       9132       9143       9142       9252       9253       9264       9263  
      9132       9133       9144       9143       9253       9254       9265       9264  
      9133       9134       9145       9144       9254       9255       9266       9265  
      9134       9135       9146       9145       9255       9256       9267       9266  
      9135       9136       9147       9146       9256       9257       9268       9267  
      9136       9137       9148       9147       9257       9258       9269       9268  
      9137       9138       9149       9148       9258       9259       9270       9269  
      9138       9139       9150       9149       9259       9260       9271       9270  
      9139       9140       9151       9150       9260       9261       9272       9271  
      9140       9141       9152       9151       9261       9262       9273       9272  
      9142       9143       9154       9153       9263       9264       9275       9274  
      9143       9144       9155       9154       9264       9265       9276       9275  
      9144       9145       9156       9155       9265       9266       9277       9276  
      9145       9146       9157       9156       9266       9267       9278       9277  
      9146       9147       9158       9157       9267       9268       9279       9278  
      9147       9148       9159       9158       9268       9269       9280       9279  
      9148       9149       9160       9159       9269       9270       9281       9280  
      9149       9150       9161       9160       9270       9271       9282       9281  
      9150       9151       9162       9161       9271       9272       9283       9282  
      9151       9152       9163       9162       9272       9273       9284       9283  
      9153       9154       9165       9164       9274       9275       9286       9285  
      9154       9155       9166       9165       9275       9276       9287       9286  
      9155       9156       9167       9166       9276       9277       9288       9287  
      9156       9157       9168       9167       9277       9278       9289       9288  
      9157       9158       9169       9168       9278       9279       9290       9289  
      9158       9159       9170       9169       9279       9280       9291       9290  
      9159       9160       9171       9170       9280       9281       9292       9291  
      9160       9161       9172       9171       9281       9282       9293       9292  
      9161       9162       9173       9172       9282       9283       9294       9293  
      9162       9163       9174       9173       9283       9284       9295       9294  
      9164       9165       9176       9175       9285       9286       9297       9296  
      9165       9166       9177       9176       9286       9287       9298       9297  
      9166       9167       9178       9177       9287       9288       9299       9298  
      9167       9168       9179       9178       9288       9289       9300       9299  
      9168       9169       9180       9179       9289       9290       9301       9300  
      9169       9170       9181       9180       9290       9291       9302       9301  
      9170       9171       9182       9181       9291       9292       9303       9302  
      9171       9172       9183       9182       9292       9293       9304       9303  
      9172       9173       9184       9183       9293       9294       9305       9304  
      9173       9174       9185       9184       9294       9295       9306       9305  
      9175       9176       9187       9186       9296       9297       9308       9307  
      9176       9177       9188       9187       9297       9298       9309       9308  
      9177       9178       9189       9188       9298       9299       9310       9309  
      9178       9179       9190       9189       9299       9300       9311       9310  
      9179       9180       9191       9190       9300       9301       9312       9311  
      9180       9181       9192       9191       9301       9302       9313       9312  
      9181       9182       9193       9192       9302       9303       9314       9313  
      9182       9183       9194       9193       9303       9304       9315       9314  
      9183       9184       9195       9194       9304       9305       9316       9315  
      9184       9185       9196       9195       9305       9306       9317       9316  
      9197       9198       9209       9208       9318       9319       9330       9329  
      9198       9199       9210       9209       9319       9320       9331       9330  
      9199       9200       9211       9210       9320       9321       9332       9331  
      9200       9201       9212       9211       9321       9322       9333       9332  
      9201       9202       9213       9212       9322       9323       9334       9333  
      9202       9203       9214       9213       9323       9324       9335       9334  
      9203       9204       9215       9214       9324       9325       9336       9335  
      9204       9205       9216       9215       9325       9326       9337       9336  
      9205       9206       9217       9216       9326       9327       9338       9337  
      9206       9207       9218       9217       9327       9328       9339       9338  
      9208       9209       9220       9219       9329       9330       9341       9340  
      9209       9210       9221       9220       9330       9331       9342       9341  
      9210       9211       9222       9221       9331       9332       9343       9342  
      9211       9212       9223       9222       9332       9333       9344       9343  
      9212       9213       9224       9223       9333       9334       9345       9344  
      9213       9214       9225       9224       9334       9335       9346       9345  
      9214       9215       9226       9225       9335       9336       9347       9346  
      9215       9216       9227       9226       9336       9337       9348       9347  
      9216       9217       9228       9227       9337       9338       9349       9348  
      9217       9218       9229       9228       9338       9339       9350       9349  
      9219       9220       9231       9230       9340       9341       9352       9351  
      9220       9221       9232       9231       9341       9342       9353       9352  
      9221       9222       9233       9232       9342       9343       9354       9353  
      9222       9223       9234       9233       9343       9344       9355       9354  
      9223       9224       9235       9234       9344       9345       9356       9355  
      9224       9225       9236       9235       9345       9346       9357       9356  
      9225       9226       9237       9236       9346       9347       9358       9357  
      9226       9227       9238       9237       9347       9348       9359       9358  
      9227       9228       9239       9238       9348       9349       9360       9359  
      9228       9229       9240       9239       9349       9350       9361       9360  
      9230       9231       9242       9241       9351       9352       9363       9362  
      9231       9232       9243       9242       9352       9353       9364       9363  
      9232       9233       9244       9243       9353       9354       9365       9364  
      9233       9234       9245       9244       9354       9355       9366       9365  
      9234       9235       9246       9245       9355       9356       9367       9366  
      9235       9236       9247       9246       9356       9357       9368       9367  
      9236       9237       9248       9247       9357       9358       9369       9368  
      9237       9238       9249       9248       9358       9359       9370       9369  
      9238       9239       9250       9249       9359       9360       9371       9370  
      9239       9240       9251       9250       9360       9361       9372       9371  
      9241       9242       9253       9252       9362       9363       9374       9373  
      9242       9243       9254       9253       9363       9364       9375       9374  
      9243       9244       9255       9254       9364       9365       9376       9375  
      9244       9245       9256       9255       9365       9366       9377       9376  
      9245       9246       9257       9256       9366       9367       9378       9377  
      9246       9247       9258       9257       9367       9368       9379       9378  
      9247       9248       9259       9258       9368       9369       9380       9379  
      9248       9249       9260       9259       9369       9370       9381       9380  
      9249       9250       9261       9260       9370       9371       9382       9381  
      9250       9251       9262       9261       9371       9372       9383       9382  
      9252       9253       9264       9263       9373       9374       9385       9384  
      9253       9254       9265       9264       9374       9375       9386       9385  
      9254       9255       9266       9265       9375       9376       9387       9386  
      9255       9256       9267       9266       9376       9377       9388       9387  
      9256       9257       9268       9267       9377       9378       9389       9388  
      9257       9258       9269       9268       9378       9379       9390       9389  
      9258       9259       9270       9269       9379       9380       9391       9390  
      9259       9260       9271       9270       9380       9381       9392       9391  
      9260       9261       9272       9271       9381       9382       9393       9392  
      9261       9262       9273       9272       9382       9383       9394       9393  
      9263       9264       9275       9274       9384       9385       9396       9395  
      9264       9265       9276       9275       9385       9386       9397       9396  
      9265       9266       9277       9276       9386       9387       9398       9397  
      9266       9267       9278       9277       9387       9388       9399       9398  
      9267       9268       9279       9278       9388       9389       9400       9399  
      9268       9269       9280       9279       9389       9390       9401       9400  
      9269       9270       9281       9280       9390       9391       9402       9401  
      9270       9271       9282       9281       9391       9392       9403       9402  
      9271       9272       9283       9282       9392       9393       9404       9403  
      9272       9273       9284       9283       9393       9394       9405       9404  
      9274       9275       9286       9285       9395       9396       9407       9406  
      9275       9276       9287       9286       9396       9397       9408       9407  
      9276       9277       9288       9287       9397       9398       9409       9408  
      9277       9278       9289       9288       9398       9399       9410       9409  
      9278       9279       9290       9289       9399       9400       9411       9410  
      9279       9280       9291       9290       9400       9401       9412       9411  
      9280       9281       9292       9291       9401       9402       9413       9412  
      9281       9282       9293       9292       9402       9403       9414       9413  
      9282       9283       9294       9293       9403       9404       9415       9414  
      9283       9284       9295       9294       9404       9405       9416       9415  
      9285       9286       9297       9296       9406       9407       9418       9417  
      9286       9287       9298       9297       9407       9408       9419       9418  
      9287       9288       9299       9298       9408       9409       9420       9419  
      9288       9289       9300       9299       9409       9410       9421       9420  
      9289       9290       9301       9300       9410       9411       9422       9421  
      9290       9291       9302       9301       9411       9412       9423       9422  
      9291       9292       9303       9302       9412       9413       9424       9423  
      9292       9293       9304       9303       9413       9414       9425       9424  
      9293       9294       9305       9304       9414       9415       9426       9425  
      9294       9295       9306       9305       9415       9416       9427       9426  
      9296       9297       9308       9307       9417       9418       9429       9428  
      9297       9298       9309       9308       9418       9419       9430       9429  
      9298       9299       9310       9309       9419       9420       9431       9430  
      9299       9300       9311       9310       9420       9421       9432       9431  
      9300       9301       9312       9311       9421       9422       9433       9432  
      9301       9302       9313       9312       9422       9423       9434       9433  
      9302       9303       9314       9313       9423       9424       9435       9434  
      9303       9304       9315       9314       9424       9425       9436       9435  
      9304       9305       9316       9315       9425       9426       9437       9436  
      9305       9306       9317       9316       9426       9427       9438       9437  
      9318       9319       9330       9329       9439       9440       9451       9450  
      9319       9320       9331       9330       9440       9441       9452       9451  
      9320       9321       9332       9331       9441       9442       9453       9452  
      9321       9322       9333       9332       9442       9443       9454       9453  
      9322       9323       9334       9333       9443       9444       9455       9454  
      9323       9324       9335       9334       9444       9445       9456       9455  
      9324       9325       9336       9335       9445       9446       9457       9456  
      9325       9326       9337       9336       9446       9447       9458       9457  
      9326       9327       9338       9337       9447       9448       9459       9458  
      9327       9328       9339       9338       9448       9449       9460       9459  
      9329       9330       9341       9340       9450       9451       9462       9461  
      9330       9331       9342       9341       9451       9452       9463       9462  
      9331       9332       9343       9342       9452       9453       9464       9463  
      9332       9333       9344       9343       9453       9454       9465       9464  
      9333       9334       9345       9344       9454       9455       9466       9465  
      9334       9335       9346       9345       9455       9456       9467       9466  
      9335       9336       9347       9346       9456       9457       9468       9467  
      9336       9337       9348       9347       9457       9458       9469       9468  
      9337       9338       9349       9348       9458       9459       9470       9469  
      9338       9339       9350       9349       9459       9460       9471       9470  
      9340       9341       9352       9351       9461       9462       9473       9472  
      9341       9342       9353       9352       9462       9463       9474       9473  
      9342       9343       9354       9353       9463       9464       9475       9474  
      9343       9344       9355       9354       9464       9465       9476       9475  
      9344       9345       9356       9355       9465       9466       9477       9476  
      9345       9346       9357       9356       9466       9467       9478       9477  
      9346       9347       9358       9357       9467       9468       9479       9478  
      9347       9348       9359       9358       9468       9469       9480       9479  
      9348       9349       9360       9359       9469       9470       9481       9480  
      9349       9350       9361       9360       9470       9471       9482       9481  
      9351       9352       9363       9362       9472       9473       9484       9483  
      9352       9353       9364       9363       9473       9474       9485       9484  
      9353       9354       9365       9364       9474       9475       9486       9485  
      9354       9355       9366       9365       9475       9476       9487       9486  
      9355       9356       9367       9366       9476       9477       9488       9487  
      9356       9357       9368       9367       9477       9478       9489       9488  
      9357       9358       9369       9368       9478       9479       9490       9489  
      9358       9359       9370       9369       9479       9480       9491       9490  
      9359       9360       9371       9370       9480       9481       9492       9491  
      9360       9361       9372       9371       9481       9482       9493       9492  
      9362       9363       9374       9373       9483       9484       9495       9494  
      9363       9364       9375       9374       9484       9485       9496       9495  
      9364       9365       9376       9375       9485       9486       9497       9496  
      9365       9366       9377       9376       9486       9487       9498       9497  
      9366       9367       9378       9377       9487       9488       9499       9498  
      9367       9368       9379       9378       9488       9489       9500       9499  
      9368       9369       9380       9379       9489       9490       9501       9500  
      9369       9370       9381       9380       9490       9491       9502       9501  
      9370       9371       9382       9381       9491       9492       9503       9502  
      9371       9372       9383       9382       9492       9493       9504       9503  
      9373       9374       9385       9384       9494       9495       9506       9505  
      9374       9375       9386       9385       9495       9496       9507       9506  
      9375       9376       9387       9386       9496       9497       9508       9507  
      9376       9377       9388       9387       9497       9498       9509       9508  
      9377       9378       9389       9388       9498       9499       9510       9509  
      9378       9379       9390       9389       9499       9500       9511       9510  
      9379       9380       9391       9390       9500       9501       9512       9511  
      9380       9381       9392       9391       9501       9502       9513       9512  
      9381       9382       9393       9392       9502       9503       9514       9513  
      9382       9383       9394       9393       9503       9504       9515       9514  
      9384       9385       9396       9395       9505       9506       9517       9516  
      9385       9386       9397       9396       9506       9507       9518       9517  
      9386       9387       9398       9397       9507       9508       9519       9518  
      9387       9388       9399       9398       9508       9509       9520       9519  
      9388       9389       9400       9399       9509       9510       9521       9520  
      9389       9390       9401       9400       9510       9511       9522       9521  
      9390       9391       9402       9401       9511       9512       9523       9522  
      9391       9392       9403       9402       9512       9513       9524       9523  
      9392       9393       9404       9403       9513       9514       9525       9524  
      9393       9394       9405       9404       9514       9515       9526       9525  
      9395       9396       9407       9406       9516       9517       9528       9527  
      9396       9397       9408       9407       9517       9518       9529       9528  
      9397       9398       9409       9408       9518       9519       9530       9529  
      9398       9399       9410       9409       9519       9520       9531       9530  
      9399       9400       9411       9410       9520       9521       9532       9531  
      9400       9401       9412       9411       9521       9522       9533       9532  
      9401       9402       9413       9412       9522       9523       9534       9533  
      9402       9403       9414       9413       9523       9524       9535       9534  
      9403       9404       9415       9414       9524       9525       9536       9535  
      9404       9405       9416       9415       9525       9526       9537       9536  
      9406       9407       9418       9417       9527       9528       9539       9538  
      9407       9408       9419       9418       9528       9529       9540       9539  
      9408       9409       9420       9419       9529       9530       9541       9540  
      9409       9410       9421       9420       9530       9531       9542       9541  
      9410       9411       9422       9421       9531       9532       9543       9542  
      9411       9412       9423       9422       9532       9533       9544       9543  
      9412       9413       9424       9423       9533       9534       9545       9544  
      9413       9414       9425       9424       9534       9535       9546       9545  
      9414       9415       9426       9425       9535       9536       9547       9546  
      9415       9416       9427       9426       9536       9537       9548       9547  
      9417       9418       9429       9428       9538       9539       9550       9549  
      9418       9419       9430       9429       9539       9540       9551       9550  
      9419       9420       9431       9430       9540       9541       9552       9551  
      9420       9421       9432       9431       9541       9542       9553       9552  
      9421       9422       9433       9432       9542       9543       9554       9553  
      9422       9423       9434       9433       9543       9544       9555       9554  
      9423       9424       9435       9434       9544       9545       9556       9555  
      9424       9425       9436       9435       9545       9546       9557       9556  
      9425       9426       9437       9436       9546       9547       9558       9557  
      9426       9427       9438       9437       9547       9548       9559       9558  
      9439       9440       9451       9450       9560       9561       9572       9571  
      9440       9441       9452       9451       9561       9562       9573       9572  
      9441       9442       9453       9452       9562       9563       9574       9573  
      9442       9443       9454       9453       9563       9564       9575       9574  
      9443       9444       9455       9454       9564       9565       9576       9575  
      9444       9445       9456       9455       9565       9566       9577       9576  
      9445       9446       9457       9456       9566       9567       9578       9577  
      9446       9447       9458       9457       9567       9568       9579       9578  
      9447       9448       9459       9458       9568       9569       9580       9579  
      9448       9449       9460       9459       9569       9570       9581       9580  
      9450       9451       9462       9461       9571       9572       9583       9582  
      9451       9452       9463       9462       9572       9573       9584       9583  
      9452       9453       9464       9463       9573       9574       9585       9584  
      9453       9454       9465       9464       9574       9575       9586       9585  
      9454       9455       9466       9465       9575       9576       9587       9586  
      9455       9456       9467       9466       9576       9577       9588       9587  
      9456       9457       9468       9467       9577       9578       9589       9588  
      9457       9458       9469       9468       9578       9579       9590       9589  
      9458       9459       9470       9469       9579       9580       9591       9590  
      9459       9460       9471       9470       9580       9581       9592       9591  
      9461       9462       9473       9472       9582       9583       9594       9593  
      9462       9463       9474       9473       9583       9584       9595       9594  
      9463       9464       9475       9474       9584       9585       9596       9595  
      9464       9465       9476       9475       9585       9586       9597       9596  
      9465       9466       9477       9476       9586       9587       9598       9597  
      9466       9467       9478       9477       9587       9588       9599       9598  
      9467       9468       9479       9478       9588       9589       9600       9599  
      9468       9469       9480       9479       9589       9590       9601       9600  
      9469       9470       9481       9480       9590       9591       9602       9601  
      9470       9471       9482       9481       9591       9592       9603       9602  
      9472       9473       9484       9483       9593       9594       9605       9604  
      9473       9474       9485       9484       9594       9595       9606       9605  
      9474       9475       9486       9485       9595       9596       9607       9606  
      9475       9476       9487       9486       9596       9597       9608       9607  
      9476       9477       9488       9487       9597       9598       9609       9608  
      9477       9478       9489       9488       9598       9599       9610       9609  
      9478       9479       9490       9489       9599       9600       9611       9610  
      9479       9480       9491       9490       9600       9601       9612       9611  
      9480       9481       9492       9491       9601       9602       9613       9612  
      9481       9482       9493       9492       9602       9603       9614       9613  
      9483       9484       9495       9494       9604       9605       9616       9615  
      9484       9485       9496       9495       9605       9606       9617       9616  
      9485       9486       9497       9496       9606       9607       9618       9617  
      9486       9487       9498       9497       9607       9608       9619       9618  
      9487       9488       9499       9498       9608       9609       9620       9619  
      9488       9489       9500       9499       9609       9610       9621       9620  
      9489       9490       9501       9500       9610       9611       9622       9621  
      9490       9491       9502       9501       9611       9612       9623       9622  
      9491       9492       9503       9502       9612       9613       9624       9623  
      9492       9493       9504       9503       9613       9614       9625       9624  
      9494       9495       9506       9505       9615       9616       9627       9626  
      9495       9496       9507       9506       9616       9617       9628       9627  
      9496       9497       9508       9507       9617       9618       9629       9628  
      9497       9498       9509       9508       9618       9619       9630       9629  
      9498       9499       9510       9509       9619       9620       9631       9630  
      9499       9500       9511       9510       9620       9621       9632       9631  
      9500       9501       9512       9511       9621       9622       9633       9632  
      9501       9502       9513       9512       9622       9623       9634       9633  
      9502       9503       9514       9513       9623       9624       9635       9634  
      9503       9504       9515       9514       9624       9625       9636       9635  
      9505       9506       9517       9516       9626       9627       9638       9637  
      9506       9507       9518       9517       9627       9628       9639       9638  
      9507       9508       9519       9518       9628       9629       9640       9639  
      9508       9509       9520       9519       9629       9630       9641       9640  
      9509       9510       9521       9520       9630       9631       9642       9641  
      9510       9511       9522       9521       9631       9632       9643       9642  
      9511       9512       9523       9522       9632       9633       9644       9643  
      9512       9513       9524       9523       9633       9634       9645       9644  
      9513       9514       9525       9524       9634       9635       9646       9645  
      9514       9515       9526       9525       9635       9636       9647       9646  
      9516       9517       9528       9527       9637       9638       9649       9648  
      9517       9518       9529       9528       9638       9639       9650       9649  
      9518       9519       9530       9529       9639       9640       9651       9650  
      9519       9520       9531       9530       9640       9641       9652       9651  
      9520       9521       9532       9531       9641       9642       9653       9652  
      9521       9522       9533       9532       9642       9643       9654       9653  
      9522       9523       9534       9533       9643       9644       9655       9654  
      9523       9524       9535       9534       9644       9645       9656       9655  
      9524       9525       9536       9535       9645       9646       9657       9656  
      9525       9526       9537       9536       9646       9647       9658       9657  
      9527       9528       9539       9538       9648       9649       9660       9659  
      9528       9529       9540       9539       9649       9650       9661       9660  
      9529       9530       9541       9540       9650       9651       9662       9661  
      9530       9531       9542       9541       9651       9652       9663       9662  
      9531       9532       9543       9542       9652       9653       9664       9663  
      9532       9533       9544       9543       9653       9654       9665       9664  
      9533       9534       9545       9544       9654       9655       9666       9665  
      9534       9535       9546       9545       9655       9656       9667       9666  
      9535       9536       9547       9546       9656       9657       9668       9667  
      9536       9537       9548       9547       9657       9658       9669       9668  
      9538       9539       9550       9549       9659       9660       9671       9670  
      9539       9540       9551       9550       9660       9661       9672       9671  
      9540       9541       9552       9551       9661       9662       9673       9672  
      9541       9542       9553       9552       9662       9663       9674       9673  
      9542       9543       9554       9553       9663       9664       9675       9674  
      9543       9544       9555       9554       9664       9665       9676       9675  
      9544       9545       9556       9555       9665       9666       9677       9676  
      9545       9546       9557       9556       9666       9667       9678       9677  
      9546       9547       9558       9557       9667       9668       9679       9678  
      9547       9548       9559       9558       9668       9669       9680       9679  
      9560       9561       9572       9571       9681       9682       9693       9692  
      9561       9562       9573       9572       9682       9683       9694       9693  
      9562       9563       9574       9573       9683       9684       9695       9694  
      9563       9564       9575       9574       9684       9685       9696       9695  
      9564       9565       9576       9575       9685       9686       9697       9696  
      9565       9566       9577       9576       9686       9687       9698       9697  
      9566       9567       9578       9577       9687       9688       9699       9698  
      9567       9568       9579       9578       9688       9689       9700       9699  
      9568       9569       9580       9579       9689       9690       9701       9700  
      9569       9570       9581       9580       9690       9691       9702       9701  
      9571       9572       9583       9582       9692       9693       9704       9703  
      9572       9573       9584       9583       9693       9694       9705       9704  
      9573       9574       9585       9584       9694       9695       9706       9705  
      9574       9575       9586       9585       9695       9696       9707       9706  
      9575       9576       9587       9586       9696       9697       9708       9707  
      9576       9577       9588       9587       9697       9698       9709       9708  
      9577       9578       9589       9588       9698       9699       9710       9709  
      9578       9579       9590       9589       9699       9700       9711       9710  
      9579       9580       9591       9590       9700       9701       9712       9711  
      9580       9581       9592       9591       9701       9702       9713       9712  
      9582       9583       9594       9593       9703       9704       9715       9714  
      9583       9584       9595       9594       9704       9705       9716       9715  
      9584       9585       9596       9595       9705       9706       9717       9716  
      9585       9586       9597       9596       9706       9707       9718       9717  
      9586       9587       9598       9597       9707       9708       9719       9718  
      9587       9588       9599       9598       9708       9709       9720       9719  
      9588       9589       9600       9599       9709       9710       9721       9720  
      9589       9590       9601       9600       9710       9711       9722       9721  
      9590       9591       9602       9601       9711       9712       9723       9722  
      9591       9592       9603       9602       9712       9713       9724       9723  
      9593       9594       9605       9604       9714       9715       9726       9725  
      9594       9595       9606       9605       9715       9716       9727       9726  
      9595       9596       9607       9606       9716       9717       9728       9727  
      9596       9597       9608       9607       9717       9718       9729       9728  
      9597       9598       9609       9608       9718       9719       9730       9729  
      9598       9599       9610       9609       9719       9720       9731       9730  
      9599       9600       9611       9610       9720       9721       9732       9731  
      9600       9601       9612       9611       9721       9722       9733       9732  
      9601       9602       9613       9612       9722       9723       9734       9733  
      9602       9603       9614       9613       9723       9724       9735       9734  
      9604       9605       9616       9615       9725       9726       9737       9736  
      9605       9606       9617       9616       9726       9727       9738       9737  
      9606       9607       9618       9617       9727       9728       9739       9738  
      9607       9608       9619       9618       9728       9729       9740       9739  
      9608       9609       9620       9619       9729       9730       9741       9740  
      9609       9610       9621       9620       9730       9731       9742       9741  
      9610       9611       9622       9621       9731       9732       9743       9742  
      9611       9612       9623       9622       9732       9733       9744       9743  
      9612       9613       9624       9623       9733       9734       9745       9744  
      9613       9614       9625       9624       9734       9735       9746       9745  
      9615       9616       9627       9626       9736       9737       9748       9747  
      9616       9617       9628       9627       9737       9738       9749       9748  
      9617       9618       9629       9628       9738       9739       9750       9749  
      9618       9619       9630       9629       9739       9740       9751       9750  
      9619       9620       9631       9630       9740       9741       9752       9751  
      9620       9621       9632       9631       9741       9742       9753       9752  
      9621       9622       9633       9632       9742       9743       9754       9753  
      9622       9623       9634       9633       9743       9744       9755       9754  
      9623       9624       9635       9634       9744       9745       9756       9755  
      9624       9625       9636       9635       9745       9746       9757       9756  
      9626       9627       9638       9637       9747       9748       9759       9758  
      9627       9628       9639       9638       9748       9749       9760       9759  
      9628       9629       9640       9639       9749       9750       9761       9760  
      9629       9630       9641       9640       9750       9751       9762       9761  
      9630       9631       9642       9641       9751       9752       9763       9762  
      9631       9632       9643       9642       9752       9753       9764       9763  
      9632       9633       9644       9643       9753       9754       9765       9764  
      9633       9634       9645       9644       9754       9755       9766       9765  
      9634       9635       9646       9645       9755       9756       9767       9766  
      9635       9636       9647       9646       9756       9757       9768       9767  
      9637       9638       9649       9648       9758       9759       9770       9769  
      9638       9639       9650       9649       9759       9760       9771       9770  
      9639       9640       9651       9650       9760       9761       9772       9771  
      9640       9641       9652       9651       9761       9762       9773       9772  
      9641       9642       9653       9652       9762       9763       9774       9773  
      9642       9643       9654       9653       9763       9764       9775       9774  
      9643       9644       9655       9654       9764       9765       9776       9775  
      9644       9645       9656       9655       9765       9766       9777       9776  
      9645       9646       9657       9656       9766       9767       9778       9777  
      9646       9647       9658       9657       9767       9768       9779       9778  
      9648       9649       9660       9659       9769       9770       9781       9780  
      9649       9650       9661       9660       9770       9771       9782       9781  
      9650       9651       9662       9661       9771       9772       9783       9782  
      9651       9652       9663       9662       9772       9773       9784       9783  
      9652       9653       9664       9663       9773       9774       9785       9784  
      9653       9654       9665       9664       9774       9775       9786       9785  
      9654       9655       9666       9665       9775       9776       9787       9786  
      9655       9656       9667       9666       9776       9777       9788       9787  
      9656       9657       9668       9667       9777       9778       9789       9788  
      9657       9658       9669       9668       9778       9779       9790       9789  
      9659       9660       9671       9670       9780       9781       9792       9791  
      9660       9661       9672       9671       9781       9782       9793       9792  
      9661       9662       9673       9672       9782       9783       9794       9793  
      9662       9663       9674       9673       9783       9784       9795       9794  
      9663       9664       9675       9674       9784       9785       9796       9795  
      9664       9665       9676       9675       9785       9786       9797       9796  
      9665       9666       9677       9676       9786       9787       9798       9797  
      9666       9667       9678       9677       9787       9788       9799       9798  
      9667       9668       9679       9678       9788       9789       9800       9799  
      9668       9669       9680       9679       9789       9790       9801       9800  
      9681       9682       9693       9692       9802       9803       9814       9813  
      9682       9683       9694       9693       9803       9804       9815       9814  
      9683       9684       9695       9694       9804       9805       9816       9815  
      9684       9685       9696       9695       9805       9806       9817       9816  
      9685       9686       9697       9696       9806       9807       9818       9817  
      9686       9687       9698       9697       9807       9808       9819       9818  
      9687       9688       9699       9698       9808       9809       9820       9819  
      9688       9689       9700       9699       9809       9810       9821       9820  
      9689       9690       9701       9700       9810       9811       9822       9821  
      9690       9691       9702       9701       9811       9812       9823       9822  
      9692       9693       9704       9703       9813       9814       9825       9824  
      9693       9694       9705       9704       9814       9815       9826       9825  
      9694       9695       9706       9705       9815       9816       9827       9826  
      9695       9696       9707       9706       9816       9817       9828       9827  
      9696       9697       9708       9707       9817       9818       9829       9828  
      9697       9698       9709       9708       9818       9819       9830       9829  
      9698       9699       9710       9709       9819       9820       9831       9830  
      9699       9700       9711       9710       9820       9821       9832       9831  
      9700       9701       9712       9711       9821       9822       9833       9832  
      9701       9702       9713       9712       9822       9823       9834       9833  
      9703       9704       9715       9714       9824       9825       9836       9835  
      9704       9705       9716       9715       9825       9826       9837       9836  
      9705       9706       9717       9716       9826       9827       9838       9837  
      9706       9707       9718       9717       9827       9828       9839       9838  
      9707       9708       9719       9718       9828       9829       9840       9839  
      9708       9709       9720       9719       9829       9830       9841       9840  
      9709       9710       9721       9720       9830       9831       9842       9841  
      9710       9711       9722       9721       9831       9832       9843       9842  
      9711       9712       9723       9722       9832       9833       9844       9843  
      9712       9713       9724       9723       9833       9834       9845       9844  
      9714       9715       9726       9725       9835       9836       9847       9846  
      9715       9716       9727       9726       9836       9837       9848       9847  
      9716       9717       9728       9727       9837       9838       9849       9848  
      9717       9718       9729       9728       9838       9839       9850       9849  
      9718       9719       9730       9729       9839       9840       9851       9850  
      9719       9720       9731       9730       9840       9841       9852       9851  
      9720       9721       9732       9731       9841       9842       9853       9852  
      9721       9722       9733       9732       9842       9843       9854       9853  
      9722       9723       9734       9733       9843       9844       9855       9854  
      9723       9724       9735       9734       9844       9845       9856       9855  
      9725       9726       9737       9736       9846       9847       9858       9857  
      9726       9727       9738       9737       9847       9848       9859       9858  
      9727       9728       9739       9738       9848       9849       9860       9859  
      9728       9729       9740       9739       9849       9850       9861       9860  
      9729       9730       9741       9740       9850       9851       9862       9861  
      9730       9731       9742       9741       9851       9852       9863       9862  
      9731       9732       9743       9742       9852       9853       9864       9863  
      9732       9733       9744       9743       9853       9854       9865       9864  
      9733       9734       9745       9744       9854       9855       9866       9865  
      9734       9735       9746       9745       9855       9856       9867       9866  
      9736       9737       9748       9747       9857       9858       9869       9868  
      9737       9738       9749       9748       9858       9859       9870       9869  
      9738       9739       9750       9749       9859       9860       9871       9870  
      9739       9740       9751       9750       9860       9861       9872       9871  
      9740       9741       9752       9751       9861       9862       9873       9872  
      9741       9742       9753       9752       9862       9863       9874       9873  
      9742       9743       9754       9753       9863       9864       9875       9874  
      9743       9744       9755       9754       9864       9865       9876       9875  
      9744       9745       9756       9755       9865       9866       9877       9876  
      9745       9746       9757       9756       9866       9867       9878       9877  
      9747       9748       9759       9758       9868       9869       9880       9879  
      9748       9749       9760       9759       9869       9870       9881       9880  
      9749       9750       9761       9760       9870       9871       9882       9881  
      9750       9751       9762       9761       9871       9872       9883       9882  
      9751       9752       9763       9762       9872       9873       9884       9883  
      9752       9753       9764       9763       9873       9874       9885       9884  
      9753       9754       9765       9764       9874       9875       9886       9885  
      9754       9755       9766       9765       9875       9876       9887       9886  
      9755       9756       9767       9766       9876       9877       9888       9887  
      9756       9757       9768       9767       9877       9878       9889       9888  
      9758       9759       9770       9769       9879       9880       9891       9890  
      9759       9760       9771       9770       9880       9881       9892       9891  
      9760       9761       9772       9771       9881       9882       9893       9892  
      9761       9762       9773       9772       9882       9883       9894       9893  
      9762       9763       9774       9773       9883       9884       9895       9894  
      9763       9764       9775       9774       9884       9885       9896       9895  
      9764       9765       9776       9775       9885       9886       9897       9896  
      9765       9766       9777       9776       9886       9887       9898       9897  
      9766       9767       9778       9777       9887       9888       9899       9898  
      9767       9768       9779       9778       9888       9889       9900       9899  
      9769       9770       9781       9780       9890       9891       9902       9901  
      9770       9771       9782       9781       9891       9892       9903       9902  
      9771       9772       9783       9782       9892       9893       9904       9903  
      9772       9773       9784       9783       9893       9894       9905       9904  
      9773       9774       9785       9784       9894       9895       9906       9905  
      9774       9775       9786       9785       9895       9896       9907       9906  
      9775       9776       9787       9786       9896       9897       9908       9907  
      9776       9777       9788       9787       9897       9898       9909       9908  
      9777       9778       9789       9788       9898       9899       9910       9909  
      9778       9779       9790       9789       9899       9900       9911       9910  
      9780       9781       9792       9791       9901       9902       9913       9912  
      9781       9782       9793       9792       9902       9903       9914       9913  
      9782       9783       9794       9793       9903       9904       9915       9914  
      9783       9784       9795       9794       9904       9905       9916       9915  
      9784       9785       9796       9795       9905       9906       9917       9916  
      9785       9786       9797       9796       9906       9907       9918       9917  
      9786       9787       9798       9797       9907       9908       9919       9918  
      9787       9788       9799       9798       9908       9909       9920       9919  
      9788       9789       9800       9799       9909       9910       9921       9920  
      9789       9790       9801       9800       9910       9911       9922       9921  
      9802       9803       9814       9813       9923       9924       9935       9934  
      9803       9804       9815       9814       9924       9925       9936       9935  
      9804       9805       9816       9815       9925       9926       9937       9936  
      9805       9806       9817       9816       9926       9927       9938       9937  
      9806       9807       9818       9817       9927       9928       9939       9938  
      9807       9808       9819       9818       9928       9929       9940       9939  
      9808       9809       9820       9819       9929       9930       9941       9940  
      9809       9810       9821       9820       9930       9931       9942       9941  
      9810       9811       9822       9821       9931       9932       9943       9942  
      9811       9812       9823       9822       9932       9933       9944       9943  
      9813       9814       9825       9824       9934       9935       9946       9945  
      9814       9815       9826       9825       9935       9936       9947       9946  
      9815       9816       9827       9826       9936       9937       9948       9947  
      9816       9817       9828       9827       9937       9938       9949       9948  
      9817       9818       9829       9828       9938       9939       9950       9949  
      9818       9819       9830       9829       9939       9940       9951       9950  
      9819       9820       9831       9830       9940       9941       9952       9951  
      9820       9821       9832       9831       9941       9942       9953       9952  
      9821       9822       9833       9832       9942       9943       9954       9953  
      9822       9823       9834       9833       9943       9944       9955       9954  
      9824       9825       9836       9835       9945       9946       9957       9956  
      9825       9826       9837       9836       9946       9947       9958       9957  
      9826       9827       9838       9837       9947       9948       9959       9958  
      9827       9828       9839       9838       9948       9949       9960       9959  
      9828       9829       9840       9839       9949       9950       9961       9960  
      9829       9830       9841       9840       9950       9951       9962       9961  
      9830       9831       9842       9841       9951       9952       9963       9962  
      9831       9832       9843       9842       9952       9953       9964       9963  
      9832       9833       9844       9843       9953       9954       9965       9964  
      9833       9834       9845       9844       9954       9955       9966       9965  
      9835       9836       9847       9846       9956       9957       9968       9967  
      9836       9837       9848       9847       9957       9958       9969       9968  
      9837       9838       9849       9848       9958       9959       9970       9969  
      9838       9839       9850       9849       9959       9960       9971       9970  
      9839       9840       9851       9850       9960       9961       9972       9971  
      9840       9841       9852       9851       9961       9962       9973       9972  
      9841       9842       9853       9852       9962       9963       9974       9973  
      9842       9843       9854       9853       9963       9964       9975       9974  
      9843       9844       9855       9854       9964       9965       9976       9975  
      9844       9845       9856       9855       9965       9966       9977       9976  
      9846       9847       9858       9857       9967       9968       9979       9978  
      9847       9848       9859       9858       9968       9969       9980       9979  
      9848       9849       9860       9859       9969       9970       9981       9980  
      9849       9850       9861       9860       9970       9971       9982       9981  
      9850       9851       9862       9861       9971       9972       9983       9982  
      9851       9852       9863       9862       9972       9973       9984       9983  
      9852       9853       9864       9863       9973       9974       9985       9984  
      9853       9854       9865       9864       9974       9975       9986       9985  
      9854       9855       9866       9865       9975       9976       9987       9986  
      9855       9856       9867       9866       9976       9977       9988       9987  
      9857       9858       9869       9868       9978       9979       9990       9989  
      9858       9859       9870       9869       9979       9980       9991       9990  
      9859       9860       9871       9870       9980       9981       9992       9991  
      9860       9861       9872       9871       9981       9982       9993       9992  
      9861       9862       9873       9872       9982       9983       9994       9993  
      9862       9863       9874       9873       9983       9984       9995       9994  
      9863       9864       9875       9874       9984       9985       9996       9995  
      9864       9865       9876       9875       9985       9986       9997       9996  
      9865       9866       9877       9876       9986       9987       9998       9997  
      9866       9867       9878       9877       9987       9988       9999       9998  
      9868       9869       9880       9879       9989       9990      10001      10000  
      9869       9870       9881       9880       9990       9991      10002      10001  
      9870       9871       9882       9881       9991       9992      10003      10002  
      9871       9872       9883       9882       9992       9993      10004      10003  
      9872       9873       9884       9883       9993       9994      10005      10004  
      9873       9874       9885       9884       9994       9995      10006      10005  
      9874       9875       9886       9885       9995       9996      10007      10006  
      9875       9876       9887       9886       9996       9997      10008      10007  
      9876       9877       9888       9887       9997       9998      10009      10008  
      9877       9878       9889       9888       9998       9999      10010      10009  
      9879       9880       9891       9890      10000      10001      10012      10011  
      9880       9881       9892       9891      10001      10002      10013      10012  
      9881       9882       9893       9892      10002      10003      10014      10013  
      9882       9883       9894       9893      10003      10004      10015      10014  
      9883       9884       9895       9894      10004      10005      10016      10015  
      9884       9885       9896       9895      10005      10006      10017      10016  
      9885       9886       9897       9896      10006      10007      10018      10017  
      9886       9887       9898       9897      10007      10008      10019      10018  
      9887       9888       9899       9898      10008      10009      10020      10019  
      9888       9889       9900       9899      10009      10010      10021      10020  
      9890       9891       9902       9901      10011      10012      10023      10022  
      9891       9892       9903       9902      10012      10013      10024      10023  
      9892       9893       9904       9903      10013      10014      10025      10024  
      9893       9894       9905       9904      10014      10015      10026      10025  
      9894       9895       9906       9905      10015      10016      10027      10026  
      9895       9896       9907       9906      10016      10017      10028      10027  
      9896       9897       9908       9907      10017      10018      10029      10028  
      9897       9898       9909       9908      10018      10019      10030      10029  
      9898       9899       9910       9909      10019      10020      10031      10030  
      9899       9900       9911       9910      10020      10021      10032      10031  
      9901       9902       9913       9912      10022      10023      10034      10033  
      9902       9903       9914       9913      10023      10024      10035      10034  
      9903       9904       9915       9914      10024      10025      10036      10035  
      9904       9905       9916       9915      10025      10026      10037      10036  
      9905       9906       9917       9916      10026      10027      10038      10037  
      9906       9907       9918       9917      10027      10028      10039      10038  
      9907       9908       9919       9918      10028      10029      10040      10039  
      9908       9909       9920       9919      10029      10030      10041      10040  
      9909       9910       9921       9920      10030      10031      10042      10041  
      9910       9911       9922       9921      10031      10032      10043      10042  
      9923       9924       9935       9934      10044      10045      10056      10055  
      9924       9925       9936       9935      10045      10046      10057      10056  
      9925       9926       9937       9936      10046      10047      10058      10057  
      9926       9927       9938       9937      10047      10048      10059      10058  
      9927       9928       9939       9938      10048      10049      10060      10059  
      9928       9929       9940       9939      10049      10050      10061      10060  
      9929       9930       9941       9940      10050      10051      10062      10061  
      9930       9931       9942       9941      10051      10052      10063      10062  
      9931       9932       9943       9942      10052      10053      10064      10063  
      9932       9933       9944       9943      10053      10054      10065      10064  
      9934       9935       9946       9945      10055      10056      10067      10066  
      9935       9936       9947       9946      10056      10057      10068      10067  
      9936       9937       9948       9947      10057      10058      10069      10068  
      9937       9938       9949       9948      10058      10059      10070      10069  
      9938       9939       9950       9949      10059      10060      10071      10070  
      9939       9940       9951       9950      10060      10061      10072      10071  
      9940       9941       9952       9951      10061      10062      10073      10072  
      9941       9942       9953       9952      10062      10063      10074      10073  
      9942       9943       9954       9953      10063      10064      10075      10074  
      9943       9944       9955       9954      10064      10065      10076      10075  
      9945       9946       9957       9956      10066      10067      10078      10077  
      9946       9947       9958       9957      10067      10068      10079      10078  
      9947       9948       9959       9958      10068      10069      10080      10079  
      9948       9949       9960       9959      10069      10070      10081      10080  
      9949       9950       9961       9960      10070      10071      10082      10081  
      9950       9951       9962       9961      10071      10072      10083      10082  
      9951       9952       9963       9962      10072      10073      10084      10083  
      9952       9953       9964       9963      10073      10074      10085      10084  
      9953       9954       9965       9964      10074      10075      10086      10085  
      9954       9955       9966       9965      10075      10076      10087      10086  
      9956       9957       9968       9967      10077      10078      10089      10088  
      9957       9958       9969       9968      10078      10079      10090      10089  
      9958       9959       9970       9969      10079      10080      10091      10090  
      9959       9960       9971       9970      10080      10081      10092      10091  
      9960       9961       9972       9971      10081      10082      10093      10092  
      9961       9962       9973       9972      10082      10083      10094      10093  
      9962       9963       9974       9973      10083      10084      10095      10094  
      9963       9964       9975       9974      10084      10085      10096      10095  
      9964       9965       9976       9975      10085      10086      10097      10096  
      9965       9966       9977       9976      10086      10087      10098      10097  
      9967       9968       9979       9978      10088      10089      10100      10099  
      9968       9969       9980       9979      10089      10090      10101      10100  
      9969       9970       9981       9980      10090      10091      10102      10101  
      9970       9971       9982       9981      10091      10092      10103      10102  
      9971       9972       9983       9982      10092      10093      10104      10103  
      9972       9973       9984       9983      10093      10094      10105      10104  
      9973       9974       9985       9984      10094      10095      10106      10105  
      9974       9975       9986       9985      10095      10096      10107      10106  
      9975       9976       9987       9986      10096      10097      10108      10107  
      9976       9977       9988       9987      10097      10098      10109      10108  
      9978       9979       9990       9989      10099      10100      10111      10110  
      9979       9980       9991       9990      10100      10101      10112      10111  
      9980       9981       9992       9991      10101      10102      10113      10112  
      9981       9982       9993       9992      10102      10103      10114      10113  
      9982       9983       9994       9993      10103      10104      10115      10114  
      9983       9984       9995       9994      10104      10105      10116      10115  
      9984       9985       9996       9995      10105      10106      10117      10116  
      9985       9986       9997       9996      10106      10107      10118      10117  
      9986       9987       9998       9997      10107      10108      10119      10118  
      9987       9988       9999       9998      10108      10109      10120      10119  
      9989       9990      10001      10000      10110      10111      10122      10121  
      9990       9991      10002      10001      10111      10112      10123      10122  
      9991       9992      10003      10002      10112      10113      10124      10123  
      9992       9993      10004      10003      10113      10114      10125      10124  
      9993       9994      10005      10004      10114      10115      10126      10125  
      9994       9995      10006      10005      10115      10116      10127      10126  
      9995       9996      10007      10006      10116      10117      10128      10127  
      9996       9997      10008      10007      10117      10118      10129      10128  
      9997       9998      10009      10008      10118      10119      10130      10129  
      9998       9999      10010      10009      10119      10120      10131      10130  
     10000      10001      10012      10011      10121      10122      10133      10132  
     10001      10002      10013      10012      10122      10123      10134      10133  
     10002      10003      10014      10013      10123      10124      10135      10134  
     10003      10004      10015      10014      10124      10125      10136      10135  
     10004      10005      10016      10015      10125      10126      10137      10136  
     10005      10006      10017      10016      10126      10127      10138      10137  
     10006      10007      10018      10017      10127      10128      10139      10138  
     10007      10008      10019      10018      10128      10129      10140      10139  
     10008      10009      10020      10019      10129      10130      10141      10140  
     10009      10010      10021      10020      10130      10131      10142      10141  
     10011      10012      10023      10022      10132      10133      10144      10143  
     10012      10013      10024      10023      10133      10134      10145      10144  
     10013      10014      10025      10024      10134      10135      10146      10145  
     10014      10015      10026      10025      10135      10136      10147      10146  
     10015      10016      10027      10026      10136      10137      10148      10147  
     10016      10017      10028      10027      10137      10138      10149      10148  
     10017      10018      10029      10028      10138      10139      10150      10149  
     10018      10019      10030      10029      10139      10140      10151      10150  
     10019      10020      10031      10030      10140      10141      10152      10151  
     10020      10021      10032      10031      10141      10142      10153      10152  
     10022      10023      10034      10033      10143      10144      10155      10154  
     10023      10024      10035      10034      10144      10145      10156      10155  
     10024      10025      10036      10035      10145      10146      10157      10156  
     10025      10026      10037      10036      10146      10147      10158      10157  
     10026      10027      10038      10037      10147      10148      10159      10158  
     10027      10028      10039      10038      10148      10149      10160      10159  
     10028      10029      10040      10039      10149      10150      10161      10160  
     10029      10030      10041      10040      10150      10151      10162      10161  
     10030      10031      10042      10041      10151      10152      10163      10162  
     10031      10032      10043      10042      10152      10153      10164      10163  
     10044      10045      10056      10055      10165      10166      10177      10176  
     10045      10046      10057      10056      10166      10167      10178      10177  
     10046      10047      10058      10057      10167      10168      10179      10178  
     10047      10048      10059      10058      10168      10169      10180      10179  
     10048      10049      10060      10059      10169      10170      10181      10180  
     10049      10050      10061      10060      10170      10171      10182      10181  
     10050      10051      10062      10061      10171      10172      10183      10182  
     10051      10052      10063      10062      10172      10173      10184      10183  
     10052      10053      10064      10063      10173      10174      10185      10184  
     10053      10054      10065      10064      10174      10175      10186      10185  
     10055      10056      10067      10066      10176      10177      10188      10187  
     10056      10057      10068      10067      10177      10178      10189      10188  
     10057      10058      10069      10068      10178      10179      10190      10189  
     10058      10059      10070      10069      10179      10180      10191      10190  
     10059      10060      10071      10070      10180      10181      10192      10191  
     10060      10061      10072      10071      10181      10182      10193      10192  
     10061      10062      10073      10072      10182      10183      10194      10193  
     10062      10063      10074      10073      10183      10184      10195      10194  
     10063      10064      10075      10074      10184      10185      10196      10195  
     10064      10065      10076      10075      10185      10186      10197      10196  
     10066      10067      10078      10077      10187      10188      10199      10198  
     10067      10068      10079      10078      10188      10189      10200      10199  
     10068      10069      10080      10079      10189      10190      10201      10200  
     10069      10070      10081      10080      10190      10191      10202      10201  
     10070      10071      10082      10081      10191      10192      10203      10202  
     10071      10072      10083      10082      10192      10193      10204      10203  
     10072      10073      10084      10083      10193      10194      10205      10204  
     10073      10074      10085      10084      10194      10195      10206      10205  
     10074      10075      10086      10085      10195      10196      10207      10206  
     10075      10076      10087      10086      10196      10197      10208      10207  
     10077      10078      10089      10088      10198      10199      10210      10209  
     10078      10079      10090      10089      10199      10200      10211      10210  
     10079      10080      10091      10090      10200      10201      10212      10211  
     10080      10081      10092      10091      10201      10202      10213      10212  
     10081      10082      10093      10092      10202      10203      10214      10213  
     10082      10083      10094      10093      10203      10204      10215      10214  
     10083      10084      10095      10094      10204      10205      10216      10215  
     10084      10085      10096      10095      10205      10206      10217      10216  
     10085      10086      10097      10096      10206      10207      10218      10217  
     10086      10087      10098      10097      10207      10208      10219      10218  
     10088      10089      10100      10099      10209      10210      10221      10220  
     10089      10090      10101      10100      10210      10211      10222      10221  
     10090      10091      10102      10101      10211      10212      10223      10222  
     10091      10092      10103      10102      10212      10213      10224      10223  
     10092      10093      10104      10103      10213      10214      10225      10224  
     10093      10094      10105      10104      10214      10215      10226      10225  
     10094      10095      10106      10105      10215      10216      10227      10226  
     10095      10096      10107      10106      10216      10217      10228      10227  
     10096      10097      10108      10107      10217      10218      10229      10228  
     10097      10098      10109      10108      10218      10219      10230      10229  
     10099      10100      10111      10110      10220      10221      10232      10231  
     10100      10101      10112      10111      10221      10222      10233      10232  
     10101      10102      10113      10112      10222      10223      10234      10233  
     10102      10103      10114      10113      10223      10224      10235      10234  
     10103      10104      10115      10114      10224      10225      10236      10235  
     10104      10105      10116      10115      10225      10226      10237      10236  
     10105      10106      10117      10116      10226      10227      10238      10237  
     10106      10107      10118      10117      10227      10228      10239      10238  
     10107      10108      10119      10118      10228      10229      10240      10239  
     10108      10109      10120      10119      10229      10230      10241      10240  
     10110      10111      10122      10121      10231      10232      10243      10242  
     10111      10112      10123      10122      10232      10233      10244      10243  
     10112      10113      10124      10123      10233      10234      10245      10244  
     10113      10114      10125      10124      10234      10235      10246      10245  
     10114      10115      10126      10125      10235      10236      10247      10246  
     10115      10116      10127      10126      10236      10237      10248      10247  
     10116      10117      10128      10127      10237      10238      10249      10248  
     10117      10118      10129      10128      10238      10239      10250      10249  
     10118      10119      10130      10129      10239      10240      10251      10250  
     10119      10120      10131      10130      10240      10241      10252      10251  
     10121      10122      10133      10132      10242      10243      10254      10253  
     10122      10123      10134      10133      10243      10244      10255      10254  
     10123      10124      10135      10134      10244      10245      10256      10255  
     10124      10125      10136      10135      10245      10246      10257      10256  
     10125      10126      10137      10136      10246      10247      10258      10257  
     10126      10127      10138      10137      10247      10248      10259      10258  
     10127      10128      10139      10138      10248      10249      10260      10259  
     10128      10129      10140      10139      10249      10250      10261      10260  
     10129      10130      10141      10140      10250      10251      10262      10261  
     10130      10131      10142      10141      10251      10252      10263      10262  
     10132      10133      10144      10143      10253      10254      10265      10264  
     10133      10134      10145      10144      10254      10255      10266      10265  
     10134      10135      10146      10145      10255      10256      10267      10266  
     10135      10136      10147      10146      10256      10257      10268      10267  
     10136      10137      10148      10147      10257      10258      10269      10268  
     10137      10138      10149      10148      10258      10259      10270      10269  
     10138      10139      10150      10149      10259      10260      10271      10270  
     10139      10140      10151      10150      10260      10261      10272      10271  
     10140      10141      10152      10151      10261      10262      10273      10272  
     10141      10142      10153      10152      10262      10263      10274      10273  
     10143      10144      10155      10154      10264      10265      10276      10275  
     10144      10145      10156      10155      10265      10266      10277      10276  
     10145      10146      10157      10156      10266      10267      10278      10277  
     10146      10147      10158      10157      10267      10268      10279      10278  
     10147      10148      10159      10158      10268      10269      10280      10279  
     10148      10149      10160      10159      10269      10270      10281      10280  
     10149      10150      10161      10160      10270      10271      10282      10281  
     10150      10151      10162      10161      10271      10272      10283      10282  
     10151      10152      10163      10162      10272      10273      10284      10283  
     10152      10153      10164      10163      10273      10274      10285      10284  
     10165      10166      10177      10176      10286      10287      10298      10297  
     10166      10167      10178      10177      10287      10288      10299      10298  
     10167      10168      10179      10178      10288      10289      10300      10299  
     10168      10169      10180      10179      10289      10290      10301      10300  
     10169      10170      10181      10180      10290      10291      10302      10301  
     10170      10171      10182      10181      10291      10292      10303      10302  
     10171      10172      10183      10182      10292      10293      10304      10303  
     10172      10173      10184      10183      10293      10294      10305      10304  
     10173      10174      10185      10184      10294      10295      10306      10305  
     10174      10175      10186      10185      10295      10296      10307      10306  
     10176      10177      10188      10187      10297      10298      10309      10308  
     10177      10178      10189      10188      10298      10299      10310      10309  
     10178      10179      10190      10189      10299      10300      10311      10310  
     10179      10180      10191      10190      10300      10301      10312      10311  
     10180      10181      10192      10191      10301      10302      10313      10312  
     10181      10182      10193      10192      10302      10303      10314      10313  
     10182      10183      10194      10193      10303      10304      10315      10314  
     10183      10184      10195      10194      10304      10305      10316      10315  
     10184      10185      10196      10195      10305      10306      10317      10316  
     10185      10186      10197      10196      10306      10307      10318      10317  
     10187      10188      10199      10198      10308      10309      10320      10319  
     10188      10189      10200      10199      10309      10310      10321      10320  
     10189      10190      10201      10200      10310      10311      10322      10321  
     10190      10191      10202      10201      10311      10312      10323      10322  
     10191      10192      10203      10202      10312      10313      10324      10323  
     10192      10193      10204      10203      10313      10314      10325      10324  
     10193      10194      10205      10204      10314      10315      10326      10325  
     10194      10195      10206      10205      10315      10316      10327      10326  
     10195      10196      10207      10206      10316      10317      10328      10327  
     10196      10197      10208      10207      10317      10318      10329      10328  
     10198      10199      10210      10209      10319      10320      10331      10330  
     10199      10200      10211      10210      10320      10321      10332      10331  
     10200      10201      10212      10211      10321      10322      10333      10332  
     10201      10202      10213      10212      10322      10323      10334      10333  
     10202      10203      10214      10213      10323      10324      10335      10334  
     10203      10204      10215      10214      10324      10325      10336      10335  
     10204      10205      10216      10215      10325      10326      10337      10336  
     10205      10206      10217      10216      10326      10327      10338      10337  
     10206      10207      10218      10217      10327      10328      10339      10338  
     10207      10208      10219      10218      10328      10329      10340      10339  
     10209      10210      10221      10220      10330      10331      10342      10341  
     10210      10211      10222      10221      10331      10332      10343      10342  
     10211      10212      10223      10222      10332      10333      10344      10343  
     10212      10213      10224      10223      10333      10334      10345      10344  
     10213      10214      10225      10224      10334      10335      10346      10345  
     10214      10215      10226      10225      10335      10336      10347      10346  
     10215      10216      10227      10226      10336      10337      10348      10347  
     10216      10217      10228      10227      10337      10338      10349      10348  
     10217      10218      10229      10228      10338      10339      10350      10349  
     10218      10219      10230      10229      10339      10340      10351      10350  
     10220      10221      10232      10231      10341      10342      10353      10352  
     10221      10222      10233      10232      10342      10343      10354      10353  
     10222      10223      10234      10233      10343      10344      10355      10354  
     10223      10224      10235      10234      10344      10345      10356      10355  
     10224      10225      10236      10235      10345      10346      10357      10356  
     10225      10226      10237      10236      10346      10347      10358      10357  
     10226      10227      10238      10237      10347      10348      10359      10358  
     10227      10228      10239      10238      10348      10349      10360      10359  
     10228      10229      10240      10239      10349      10350      10361      10360  
     10229      10230      10241      10240      10350      10351      10362      10361  
     10231      10232      10243      10242      10352      10353      10364      10363  
     10232      10233      10244      10243      10353      10354      10365      10364  
     10233      10234      10245      10244      10354      10355      10366      10365  
     10234      10235      10246      10245      10355      10356      10367      10366  
     10235      10236      10247      10246      10356      10357      10368      10367  
     10236      10237      10248      10247      10357      10358      10369      10368  
     10237      10238      10249      10248      10358      10359      10370      10369  
     10238      10239      10250      10249      10359      10360      10371      10370  
     10239      10240      10251      10250      10360      10361      10372      10371  
     10240      10241      10252      10251      10361      10362      10373      10372  
     10242      10243      10254      10253      10363      10364      10375      10374  
     10243      10244      10255      10254      10364      10365      10376      10375  
     10244      10245      10256      10255      10365      10366      10377      10376  
     10245      10246      10257      10256      10366      10367      10378      10377  
     10246      10247      10258      10257      10367      10368      10379      10378  
     10247      10248      10259      10258      10368      10369      10380      10379  
     10248      10249      10260      10259      10369      10370      10381      10380  
     10249      10250      10261      10260      10370      10371      10382      10381  
     10250      10251      10262      10261      10371      10372      10383      10382  
     10251      10252      10263      10262      10372      10373      10384      10383  
     10253      10254      10265      10264      10374      10375      10386      10385  
     10254      10255      10266      10265      10375      10376      10387      10386  
     10255      10256      10267      10266      10376      10377      10388      10387  
     10256      10257      10268      10267      10377      10378      10389      10388  
     10257      10258      10269      10268      10378      10379      10390      10389  
     10258      10259      10270      10269      10379      10380      10391      10390  
     10259      10260      10271      10270      10380      10381      10392      10391  
     10260      10261      10272      10271      10381      10382      10393      10392  
     10261      10262      10273      10272      10382      10383      10394      10393  
     10262      10263      10274      10273      10383      10384      10395      10394  
     10264      10265      10276      10275      10385      10386      10397      10396  
     10265      10266      10277      10276      10386      10387      10398      10397  
     10266      10267      10278      10277      10387      10388      10399      10398  
     10267      10268      10279      10278      10388      10389      10400      10399  
     10268      10269      10280      10279      10389      10390      10401      10400  
     10269      10270      10281      10280      10390      10391      10402      10401  
     10270      10271      10282      10281      10391      10392      10403      10402  
     10271      10272      10283      10282      10392      10393      10404      10403  
     10272      10273      10284      10283      10393      10394      10405      10404  
     10273      10274      10285      10284      10394      10395      10406      10405  
     10286      10287      10298      10297      10407      10408      10419      10418  
     10287      10288      10299      10298      10408      10409      10420      10419  
     10288      10289      10300      10299      10409      10410      10421      10420  
     10289      10290      10301      10300      10410      10411      10422      10421  
     10290      10291      10302      10301      10411      10412      10423      10422  
     10291      10292      10303      10302      10412      10413      10424      10423  
     10292      10293      10304      10303      10413      10414      10425      10424  
     10293      10294      10305      10304      10414      10415      10426      10425  
     10294      10295      10306      10305      10415      10416      10427      10426  
     10295      10296      10307      10306      10416      10417      10428      10427  
     10297      10298      10309      10308      10418      10419      10430      10429  
     10298      10299      10310      10309      10419      10420      10431      10430  
     10299      10300      10311      10310      10420      10421      10432      10431  
     10300      10301      10312      10311      10421      10422      10433      10432  
     10301      10302      10313      10312      10422      10423      10434      10433  
     10302      10303      10314      10313      10423      10424      10435      10434  
     10303      10304      10315      10314      10424      10425      10436      10435  
     10304      10305      10316      10315      10425      10426      10437      10436  
     10305      10306      10317      10316      10426      10427      10438      10437  
     10306      10307      10318      10317      10427      10428      10439      10438  
     10308      10309      10320      10319      10429      10430      10441      10440  
     10309      10310      10321      10320      10430      10431      10442      10441  
     10310      10311      10322      10321      10431      10432      10443      10442  
     10311      10312      10323      10322      10432      10433      10444      10443  
     10312      10313      10324      10323      10433      10434      10445      10444  
     10313      10314      10325      10324      10434      10435      10446      10445  
     10314      10315      10326      10325      10435      10436      10447      10446  
     10315      10316      10327      10326      10436      10437      10448      10447  
     10316      10317      10328      10327      10437      10438      10449      10448  
     10317      10318      10329      10328      10438      10439      10450      10449  
     10319      10320      10331      10330      10440      10441      10452      10451  
     10320      10321      10332      10331      10441      10442      10453      10452  
     10321      10322      10333      10332      10442      10443      10454      10453  
     10322      10323      10334      10333      10443      10444      10455      10454  
     10323      10324      10335      10334      10444      10445      10456      10455  
     10324      10325      10336      10335      10445      10446      10457      10456  
     10325      10326      10337      10336      10446      10447      10458      10457  
     10326      10327      10338      10337      10447      10448      10459      10458  
     10327      10328      10339      10338      10448      10449      10460      10459  
     10328      10329      10340      10339      10449      10450      10461      10460  
     10330      10331      10342      10341      10451      10452      10463      10462  
     10331      10332      10343      10342      10452      10453      10464      10463  
     10332      10333      10344      10343      10453      10454      10465      10464  
     10333      10334      10345      10344      10454      10455      10466      10465  
     10334      10335      10346      10345      10455      10456      10467      10466  
     10335      10336      10347      10346      10456      10457      10468      10467  
     10336      10337      10348      10347      10457      10458      10469      10468  
     10337      10338      10349      10348      10458      10459      10470      10469  
     10338      10339      10350      10349      10459      10460      10471      10470  
     10339      10340      10351      10350      10460      10461      10472      10471  
     10341      10342      10353      10352      10462      10463      10474      10473  
     10342      10343      10354      10353      10463      10464      10475      10474  
     10343      10344      10355      10354      10464      10465      10476      10475  
     10344      10345      10356      10355      10465      10466      10477      10476  
     10345      10346      10357      10356      10466      10467      10478      10477  
     10346      10347      10358      10357      10467      10468      10479      10478  
     10347      10348      10359      10358      10468      10469      10480      10479  
     10348      10349      10360      10359      10469      10470      10481      10480  
     10349      10350      10361      10360      10470      10471      10482      10481  
     10350      10351      10362      10361      10471      10472      10483      10482  
     10352      10353      10364      10363      10473      10474      10485      10484  
     10353      10354      10365      10364      10474      10475      10486      10485  
     10354      10355      10366      10365      10475      10476      10487      10486  
     10355      10356      10367      10366      10476      10477      10488      10487  
     10356      10357      10368      10367      10477      10478      10489      10488  
     10357      10358      10369      10368      10478      10479      10490      10489  
     10358      10359      10370      10369      10479      10480      10491      10490  
     10359      10360      10371      10370      10480      10481      10492      10491  
     10360      10361      10372      10371      10481      10482      10493      10492  
     10361      10362      10373      10372      10482      10483      10494      10493  
     10363      10364      10375      10374      10484      10485      10496      10495  
     10364      10365      10376      10375      10485      10486      10497      10496  
     10365      10366      10377      10376      10486      10487      10498      10497  
     10366      10367      10378      10377      10487      10488      10499      10498  
     10367      10368      10379      10378      10488      10489      10500      10499  
     10368      10369      10380      10379      10489      10490      10501      10500  
     10369      10370      10381      10380      10490      10491      10502      10501  
     10370      10371      10382      10381      10491      10492      10503      10502  
     10371      10372      10383      10382      10492      10493      10504      10503  
     10372      10373      10384      10383      10493      10494      10505      10504  
     10374      10375      10386      10385      10495      10496      10507      10506  
     10375      10376      10387      10386      10496      10497      10508      10507  
     10376      10377      10388      10387      10497      10498      10509      10508  
     10377      10378      10389      10388      10498      10499      10510      10509  
     10378      10379      10390      10389      10499      10500      10511      10510  
     10379      10380      10391      10390      10500      10501      10512      10511  
     10380      10381      10392      10391      10501      10502      10513      10512  
     10381      10382      10393      10392      10502      10503      10514      10513  
     10382      10383      10394      10393      10503      10504      10515      10514  
     10383      10384      10395      10394      10504      10505      10516      10515  
     10385      10386      10397      10396      10506      10507      10518      10517  
     10386      10387      10398      10397      10507      10508      10519      10518  
     10387      10388      10399      10398      10508      10509      10520      10519  
     10388      10389      10400      10399      10509      10510      10521      10520  
     10389      10390      10401      10400      10510      10511      10522      10521  
     10390      10391      10402      10401      10511      10512      10523      10522  
     10391      10392      10403      10402      10512      10513      10524      10523  
     10392      10393      10404      10403      10513      10514      10525      10524  
     10393      10394      10405      10404      10514      10515      10526      10525  
     10394      10395      10406      10405      10515      10516      10527      10526  
     10407      10408      10419      10418      10528      10529      10540      10539  
     10408      10409      10420      10419      10529      10530      10541      10540  
     10409      10410      10421      10420      10530      10531      10542      10541  
     10410      10411      10422      10421      10531      10532      10543      10542  
     10411      10412      10423      10422      10532      10533      10544      10543  
     10412      10413      10424      10423      10533      10534      10545      10544  
     10413      10414      10425      10424      10534      10535      10546      10545  
     10414      10415      10426      10425      10535      10536      10547      10546  
     10415      10416      10427      10426      10536      10537      10548      10547  
     10416      10417      10428      10427      10537      10538      10549      10548  
     10418      10419      10430      10429      10539      10540      10551      10550  
     10419      10420      10431      10430      10540      10541      10552      10551  
     10420      10421      10432      10431      10541      10542      10553      10552  
     10421      10422      10433      10432      10542      10543      10554      10553  
     10422      10423      10434      10433      10543      10544      10555      10554  
     10423      10424      10435      10434      10544      10545      10556      10555  
     10424      10425      10436      10435      10545      10546      10557      10556  
     10425      10426      10437      10436      10546      10547      10558      10557  
     10426      10427      10438      10437      10547      10548      10559      10558  
     10427      10428      10439      10438      10548      10549      10560      10559  
     10429      10430      10441      10440      10550      10551      10562      10561  
     10430      10431      10442      10441      10551      10552      10563      10562  
     10431      10432      10443      10442      10552      10553      10564      10563  
     10432      10433      10444      10443      10553      10554      10565      10564  
     10433      10434      10445      10444      10554      10555      10566      10565  
     10434      10435      10446      10445      10555      10556      10567      10566  
     10435      10436      10447      10446      10556      10557      10568      10567  
     10436      10437      10448      10447      10557      10558      10569      10568  
     10437      10438      10449      10448      10558      10559      10570      10569  
     10438      10439      10450      10449      10559      10560      10571      10570  
     10440      10441      10452      10451      10561      10562      10573      10572  
     10441      10442      10453      10452      10562      10563      10574      10573  
     10442      10443      10454      10453      10563      10564      10575      10574  
     10443      10444      10455      10454      10564      10565      10576      10575  
     10444      10445      10456      10455      10565      10566      10577      10576  
     10445      10446      10457      10456      10566      10567      10578      10577  
     10446      10447      10458      10457      10567      10568      10579      10578  
     10447      10448      10459      10458      10568      10569      10580      10579  
     10448      10449      10460      10459      10569      10570      10581      10580  
     10449      10450      10461      10460      10570      10571      10582      10581  
     10451      10452      10463      10462      10572      10573      10584      10583  
     10452      10453      10464      10463      10573      10574      10585      10584  
     10453      10454      10465      10464      10574      10575      10586      10585  
     10454      10455      10466      10465      10575      10576      10587      10586  
     10455      10456      10467      10466      10576      10577      10588      10587  
     10456      10457      10468      10467      10577      10578      10589      10588  
     10457      10458      10469      10468      10578      10579      10590      10589  
     10458      10459      10470      10469      10579      10580      10591      10590  
     10459      10460      10471      10470      10580      10581      10592      10591  
     10460      10461      10472      10471      10581      10582      10593      10592  
     10462      10463      10474      10473      10583      10584      10595      10594  
     10463      10464      10475      10474      10584      10585      10596      10595  
     10464      10465      10476      10475      10585      10586      10597      10596  
     10465      10466      10477      10476      10586      10587      10598      10597  
     10466      10467      10478      10477      10587      10588      10599      10598  
     10467      10468      10479      10478      10588      10589      10600      10599  
     10468      10469      10480      10479      10589      10590      10601      10600  
     10469      10470      10481      10480      10590      10591      10602      10601  
     10470      10471      10482      10481      10591      10592      10603      10602  
     10471      10472      10483      10482      10592      10593      10604      10603  
     10473      10474      10485      10484      10594      10595      10606      10605  
     10474      10475      10486      10485      10595      10596      10607      10606  
     10475      10476      10487      10486      10596      10597      10608      10607  
     10476      10477      10488      10487      10597      10598      10609      10608  
     10477      10478      10489      10488      10598      10599      10610      10609  
     10478      10479      10490      10489      10599      10600      10611      10610  
     10479      10480      10491      10490      10600      10601      10612      10611  
     10480      10481      10492      10491      10601      10602      10613      10612  
     10481      10482      10493      10492      10602      10603      10614      10613  
     10482      10483      10494      10493      10603      10604      10615      10614  
     10484      10485      10496      10495      10605      10606      10617      10616  
     10485      10486      10497      10496      10606      10607      10618      10617  
     10486      10487      10498      10497      10607      10608      10619      10618  
     10487      10488      10499      10498      10608      10609      10620      10619  
     10488      10489      10500      10499      10609      10610      10621      10620  
     10489      10490      10501      10500      10610      10611      10622      10621  
     10490      10491      10502      10501      10611      10612      10623      10622  
     10491      10492      10503      10502      10612      10613      10624      10623  
     10492      10493      10504      10503      10613      10614      10625      10624  
     10493      10494      10505      10504      10614      10615      10626      10625  
     10495      10496      10507      10506      10616      10617      10628      10627  
     10496      10497      10508      10507      10617      10618      10629      10628  
     10497      10498      10509      10508      10618      10619      10630      10629  
     10498      10499      10510      10509      10619      10620      10631      10630  
     10499      10500      10511      10510      10620      10621      10632      10631  
     10500      10501      10512      10511      10621      10622      10633      10632  
     10501      10502      10513      10512      10622      10623      10634      10633  
     10502      10503      10514      10513      10623      10624      10635      10634  
     10503      10504      10515      10514      10624      10625      10636      10635  
     10504      10505      10516      10515      10625      10626      10637      10636  
     10506      10507      10518      10517      10627      10628      10639      10638  
     10507      10508      10519      10518      10628      10629      10640      10639  
     10508      10509      10520      10519      10629      10630      10641      10640  
     10509      10510      10521      10520      10630      10631      10642      10641  
     10510      10511      10522      10521      10631      10632      10643      10642  
     10511      10512      10523      10522      10632      10633      10644      10643  
     10512      10513      10524      10523      10633      10634      10645      10644  
     10513      10514      10525      10524      10634      10635      10646      10645  
     10514      10515      10526      10525      10635      10636      10647      10646  
     10515      10516      10527      10526      10636      10637      10648      10647  
     10528      10529      10540      10539      10649      10650      10661      10660  
     10529      10530      10541      10540      10650      10651      10662      10661  
     10530      10531      10542      10541      10651      10652      10663      10662  
     10531      10532      10543      10542      10652      10653      10664      10663  
     10532      10533      10544      10543      10653      10654      10665      10664  
     10533      10534      10545      10544      10654      10655      10666      10665  
     10534      10535      10546      10545      10655      10656      10667      10666  
     10535      10536      10547      10546      10656      10657      10668      10667  
     10536      10537      10548      10547      10657      10658      10669      10668  
     10537      10538      10549      10548      10658      10659      10670      10669  
     10539      10540      10551      10550      10660      10661      10672      10671  
     10540      10541      10552      10551      10661      10662      10673      10672  
     10541      10542      10553      10552      10662      10663      10674      10673  
     10542      10543      10554      10553      10663      10664      10675      10674  
     10543      10544      10555      10554      10664      10665      10676      10675  
     10544      10545      10556      10555      10665      10666      10677      10676  
     10545      10546      10557      10556      10666      10667      10678      10677  
     10546      10547      10558      10557      10667      10668      10679      10678  
     10547      10548      10559      10558      10668      10669      10680      10679  
     10548      10549      10560      10559      10669      10670      10681      10680  
     10550      10551      10562      10561      10671      10672      10683      10682  
     10551      10552      10563      10562      10672      10673      10684      10683  
     10552      10553      10564      10563      10673      10674      10685      10684  
     10553      10554      10565      10564      10674      10675      10686      10685  
     10554      10555      10566      10565      10675      10676      10687      10686  
     10555      10556      10567      10566      10676      10677      10688      10687  
     10556      10557      10568      10567      10677      10678      10689      10688  
     10557      10558      10569      10568      10678      10679      10690      10689  
     10558      10559      10570      10569      10679      10680      10691      10690  
     10559      10560      10571      10570      10680      10681      10692      10691  
     10561      10562      10573      10572      10682      10683      10694      10693  
     10562      10563      10574      10573      10683      10684      10695      10694  
     10563      10564      10575      10574      10684      10685      10696      10695  
     10564      10565      10576      10575      10685      10686      10697      10696  
     10565      10566      10577      10576      10686      10687      10698      10697  
     10566      10567      10578      10577      10687      10688      10699      10698  
     10567      10568      10579      10578      10688      10689      10700      10699  
     10568      10569      10580      10579      10689      10690      10701      10700  
     10569      10570      10581      10580      10690      10691      10702      10701  
     10570      10571      10582      10581      10691      10692      10703      10702  
     10572      10573      10584      10583      10693      10694      10705      10704  
     10573      10574      10585      10584      10694      10695      10706      10705  
     10574      10575      10586      10585      10695      10696      10707      10706  
     10575      10576      10587      10586      10696      10697      10708      10707  
     10576      10577      10588      10587      10697      10698      10709      10708  
     10577      10578      10589      10588      10698      10699      10710      10709  
     10578      10579      10590      10589      10699      10700      10711      10710  
     10579      10580      10591      10590      10700      10701      10712      10711  
     10580      10581      10592      10591      10701      10702      10713      10712  
     10581      10582      10593      10592      10702      10703      10714      10713  
     10583      10584      10595      10594      10704      10705      10716      10715  
     10584      10585      10596      10595      10705      10706      10717      10716  
     10585      10586      10597      10596      10706      10707      10718      10717  
     10586      10587      10598      10597      10707      10708      10719      10718  
     10587      10588      10599      10598      10708      10709      10720      10719  
     10588      10589      10600      10599      10709      10710      10721      10720  
     10589      10590      10601      10600      10710      10711      10722      10721  
     10590      10591      10602      10601      10711      10712      10723      10722  
     10591      10592      10603      10602      10712      10713      10724      10723  
     10592      10593      10604      10603      10713      10714      10725      10724  
     10594      10595      10606      10605      10715      10716      10727      10726  
     10595      10596      10607      10606      10716      10717      10728      10727  
     10596      10597      10608      10607      10717      10718      10729      10728  
     10597      10598      10609      10608      10718      10719      10730      10729  
     10598      10599      10610      10609      10719      10720      10731      10730  
     10599      10600      10611      10610      10720      10721      10732      10731  
     10600      10601      10612      10611      10721      10722      10733      10732  
     10601      10602      10613      10612      10722      10723      10734      10733  
     10602      10603      10614      10613      10723      10724      10735      10734  
     10603      10604      10615      10614      10724      10725      10736      10735  
     10605      10606      10617      10616      10726      10727      10738      10737  
     10606      10607      10618      10617      10727      10728      10739      10738  
     10607      10608      10619      10618      10728      10729      10740      10739  
     10608      10609      10620      10619      10729      10730      10741      10740  
     10609      10610      10621      10620      10730      10731      10742      10741  
     10610      10611      10622      10621      10731      10732      10743      10742  
     10611      10612      10623      10622      10732      10733      10744      10743  
     10612      10613      10624      10623      10733      10734      10745      10744  
     10613      10614      10625      10624      10734      10735      10746      10745  
     10614      10615      10626      10625      10735      10736      10747      10746  
     10616      10617      10628      10627      10737      10738      10749      10748  
     10617      10618      10629      10628      10738      10739      10750      10749  
     10618      10619      10630      10629      10739      10740      10751      10750  
     10619      10620      10631      10630      10740      10741      10752      10751  
     10620      10621      10632      10631      10741      10742      10753      10752  
     10621      10622      10633      10632      10742      10743      10754      10753  
     10622      10623      10634      10633      10743      10744      10755      10754  
     10623      10624      10635      10634      10744      10745      10756      10755  
     10624      10625      10636      10635      10745      10746      10757      10756  
     10625      10626      10637      10636      10746      10747      10758      10757  
     10627      10628      10639      10638      10748      10749      10760      10759  
     10628      10629      10640      10639      10749      10750      10761      10760  
     10629      10630      10641      10640      10750      10751      10762      10761  
     10630      10631      10642      10641      10751      10752      10763      10762  
     10631      10632      10643      10642      10752      10753      10764      10763  
     10632      10633      10644      10643      10753      10754      10765      10764  
     10633      10634      10645      10644      10754      10755      10766      10765  
     10634      10635      10646      10645      10755      10756      10767      10766  
     10635      10636      10647      10646      10756      10757      10768      10767  
     10636      10637      10648      10647      10757      10758      10769      10768  
     10649      10650      10661      10660      10770      10771      10782      10781  
     10650      10651      10662      10661      10771      10772      10783      10782  
     10651      10652      10663      10662      10772      10773      10784      10783  
     10652      10653      10664      10663      10773      10774      10785      10784  
     10653      10654      10665      10664      10774      10775      10786      10785  
     10654      10655      10666      10665      10775      10776      10787      10786  
     10655      10656      10667      10666      10776      10777      10788      10787  
     10656      10657      10668      10667      10777      10778      10789      10788  
     10657      10658      10669      10668      10778      10779      10790      10789  
     10658      10659      10670      10669      10779      10780      10791      10790  
     10660      10661      10672      10671      10781      10782      10793      10792  
     10661      10662      10673      10672      10782      10783      10794      10793  
     10662      10663      10674      10673      10783      10784      10795      10794  
     10663      10664      10675      10674      10784      10785      10796      10795  
     10664      10665      10676      10675      10785      10786      10797      10796  
     10665      10666      10677      10676      10786      10787      10798      10797  
     10666      10667      10678      10677      10787      10788      10799      10798  
     10667      10668      10679      10678      10788      10789      10800      10799  
     10668      10669      10680      10679      10789      10790      10801      10800  
     10669      10670      10681      10680      10790      10791      10802      10801  
     10671      10672      10683      10682      10792      10793      10804      10803  
     10672      10673      10684      10683      10793      10794      10805      10804  
     10673      10674      10685      10684      10794      10795      10806      10805  
     10674      10675      10686      10685      10795      10796      10807      10806  
     10675      10676      10687      10686      10796      10797      10808      10807  
     10676      10677      10688      10687      10797      10798      10809      10808  
     10677      10678      10689      10688      10798      10799      10810      10809  
     10678      10679      10690      10689      10799      10800      10811      10810  
     10679      10680      10691      10690      10800      10801      10812      10811  
     10680      10681      10692      10691      10801      10802      10813      10812  
     10682      10683      10694      10693      10803      10804      10815      10814  
     10683      10684      10695      10694      10804      10805      10816      10815  
     10684      10685      10696      10695      10805      10806      10817      10816  
     10685      10686      10697      10696      10806      10807      10818      10817  
     10686      10687      10698      10697      10807      10808      10819      10818  
     10687      10688      10699      10698      10808      10809      10820      10819  
     10688      10689      10700      10699      10809      10810      10821      10820  
     10689      10690      10701      10700      10810      10811      10822      10821  
     10690      10691      10702      10701      10811      10812      10823      10822  
     10691      10692      10703      10702      10812      10813      10824      10823  
     10693      10694      10705      10704      10814      10815      10826      10825  
     10694      10695      10706      10705      10815      10816      10827      10826  
     10695      10696      10707      10706      10816      10817      10828      10827  
     10696      10697      10708      10707      10817      10818      10829      10828  
     10697      10698      10709      10708      10818      10819      10830      10829  
     10698      10699      10710      10709      10819      10820      10831      10830  
     10699      10700      10711      10710      10820      10821      10832      10831  
     10700      10701      10712      10711      10821      10822      10833      10832  
     10701      10702      10713      10712      10822      10823      10834      10833  
     10702      10703      10714      10713      10823      10824      10835      10834  
     10704      10705      10716      10715      10825      10826      10837      10836  
     10705      10706      10717      10716      10826      10827      10838      10837  
     10706      10707      10718      10717      10827      10828      10839      10838  
     10707      10708      10719      10718      10828      10829      10840      10839  
     10708      10709      10720      10719      10829      10830      10841      10840  
     10709      10710      10721      10720      10830      10831      10842      10841  
     10710      10711      10722      10721      10831      10832      10843      10842  
     10711      10712      10723      10722      10832      10833      10844      10843  
     10712      10713      10724      10723      10833      10834      10845      10844  
     10713      10714      10725      10724      10834      10835      10846      10845  
     10715      10716      10727      10726      10836      10837      10848      10847  
     10716      10717      10728      10727      10837      10838      10849      10848  
     10717      10718      10729      10728      10838      10839      10850      10849  
     10718      10719      10730      10729      10839      10840      10851      10850  
     10719      10720      10731      10730      10840      10841      10852      10851  
     10720      10721      10732      10731      10841      10842      10853      10852  
     10721      10722      10733      10732      10842      10843      10854      10853  
     10722      10723      10734      10733      10843      10844      10855      10854  
     10723      10724      10735      10734      10844      10845      10856      10855  
     10724      10725      10736      10735      10845      10846      10857      10856  
     10726      10727      10738      10737      10847      10848      10859      10858  
     10727      10728      10739      10738      10848      10849      10860      10859  
     10728      10729      10740      10739      10849      10850      10861      10860  
     10729      10730      10741      10740      10850      10851      10862      10861  
     10730      10731      10742      10741      10851      10852      10863      10862  
     10731      10732      10743      10742      10852      10853      10864      10863  
     10732      10733      10744      10743      10853      10854      10865      10864  
     10733      10734      10745      10744      10854      10855      10866      10865  
     10734      10735      10746      10745      10855      10856      10867      10866  
     10735      10736      10747      10746      10856      10857      10868      10867  
     10737      10738      10749      10748      10858      10859      10870      10869  
     10738      10739      10750      10749      10859      10860      10871      10870  
     10739      10740      10751      10750      10860      10861      10872      10871  
     10740      10741      10752      10751      10861      10862      10873      10872  
     10741      10742      10753      10752      10862      10863      10874      10873  
     10742      10743      10754      10753      10863      10864      10875      10874  
     10743      10744      10755      10754      10864      10865      10876      10875  
     10744      10745      10756      10755      10865      10866      10877      10876  
     10745      10746      10757      10756      10866      10867      10878      10877  
     10746      10747      10758      10757      10867      10868      10879      10878  
     10748      10749      10760      10759      10869      10870      10881      10880  
     10749      10750      10761      10760      10870      10871      10882      10881  
     10750      10751      10762      10761      10871      10872      10883      10882  
     10751      10752      10763      10762      10872      10873      10884      10883  
     10752      10753      10764      10763      10873      10874      10885      10884  
     10753      10754      10765      10764      10874      10875      10886      10885  
     10754      10755      10766      10765      10875      10876      10887      10886  
     10755      10756      10767      10766      10876      10877      10888      10887  
     10756      10757      10768      10767      10877      10878      10889      10888  
     10757      10758      10769      10768      10878      10879      10890      10889  
     10770      10771      10782      10781      10891      10892      10903      10902  
     10771      10772      10783      10782      10892      10893      10904      10903  
     10772      10773      10784      10783      10893      10894      10905      10904  
     10773      10774      10785      10784      10894      10895      10906      10905  
     10774      10775      10786      10785      10895      10896      10907      10906  
     10775      10776      10787      10786      10896      10897      10908      10907  
     10776      10777      10788      10787      10897      10898      10909      10908  
     10777      10778      10789      10788      10898      10899      10910      10909  
     10778      10779      10790      10789      10899      10900      10911      10910  
     10779      10780      10791      10790      10900      10901      10912      10911  
     10781      10782      10793      10792      10902      10903      10914      10913  
     10782      10783      10794      10793      10903      10904      10915      10914  
     10783      10784      10795      10794      10904      10905      10916      10915  
     10784      10785      10796      10795      10905      10906      10917      10916  
     10785      10786      10797      10796      10906      10907      10918      10917  
     10786      10787      10798      10797      10907      10908      10919      10918  
     10787      10788      10799      10798      10908      10909      10920      10919  
     10788      10789      10800      10799      10909      10910      10921      10920  
     10789      10790      10801      10800      10910      10911      10922      10921  
     10790      10791      10802      10801      10911      10912      10923      10922  
     10792      10793      10804      10803      10913      10914      10925      10924  
     10793      10794      10805      10804      10914      10915      10926      10925  
     10794      10795      10806      10805      10915      10916      10927      10926  
     10795      10796      10807      10806      10916      10917      10928      10927  
     10796      10797      10808      10807      10917      10918      10929      10928  
     10797      10798      10809      10808      10918      10919      10930      10929  
     10798      10799      10810      10809      10919      10920      10931      10930  
     10799      10800      10811      10810      10920      10921      10932      10931  
     10800      10801      10812      10811      10921      10922      10933      10932  
     10801      10802      10813      10812      10922      10923      10934      10933  
     10803      10804      10815      10814      10924      10925      10936      10935  
     10804      10805      10816      10815      10925      10926      10937      10936  
     10805      10806      10817      10816      10926      10927      10938      10937  
     10806      10807      10818      10817      10927      10928      10939      10938  
     10807      10808      10819      10818      10928      10929      10940      10939  
     10808      10809      10820      10819      10929      10930      10941      10940  
     10809      10810      10821      10820      10930      10931      10942      10941  
     10810      10811      10822      10821      10931      10932      10943      10942  
     10811      10812      10823      10822      10932      10933      10944      10943  
     10812      10813      10824      10823      10933      10934      10945      10944  
     10814      10815      10826      10825      10935      10936      10947      10946  
     10815      10816      10827      10826      10936      10937      10948      10947  
     10816      10817      10828      10827      10937      10938      10949      10948  
     10817      10818      10829      10828      10938      10939      10950      10949  
     10818      10819      10830      10829      10939      10940      10951      10950  
     10819      10820      10831      10830      10940      10941      10952      10951  
     10820      10821      10832      10831      10941      10942      10953      10952  
     10821      10822      10833      10832      10942      10943      10954      10953  
     10822      10823      10834      10833      10943      10944      10955      10954  
     10823      10824      10835      10834      10944      10945      10956      10955  
     10825      10826      10837      10836      10946      10947      10958      10957  
     10826      10827      10838      10837      10947      10948      10959      10958  
     10827      10828      10839      10838      10948      10949      10960      10959  
     10828      10829      10840      10839      10949      10950      10961      10960  
     10829      10830      10841      10840      10950      10951      10962      10961  
     10830      10831      10842      10841      10951      10952      10963      10962  
     10831      10832      10843      10842      10952      10953      10964      10963  
     10832      10833      10844      10843      10953      10954      10965      10964  
     10833      10834      10845      10844      10954      10955      10966      10965  
     10834      10835      10846      10845      10955      10956      10967      10966  
     10836      10837      10848      10847      10957      10958      10969      10968  
     10837      10838      10849      10848      10958      10959      10970      10969  
     10838      10839      10850      10849      10959      10960      10971      10970  
     10839      10840      10851      10850      10960      10961      10972      10971  
     10840      10841      10852      10851      10961      10962      10973      10972  
     10841      10842      10853      10852      10962      10963      10974      10973  
     10842      10843      10854      10853      10963      10964      10975      10974  
     10843      10844      10855      10854      10964      10965      10976      10975  
     10844      10845      10856      10855      10965      10966      10977      10976  
     10845      10846      10857      10856      10966      10967      10978      10977  
     10847      10848      10859      10858      10968      10969      10980      10979  
     10848      10849      10860      10859      10969      10970      10981      10980  
     10849      10850      10861      10860      10970      10971      10982      10981  
     10850      10851      10862      10861      10971      10972      10983      10982  
     10851      10852      10863      10862      10972      10973      10984      10983  
     10852      10853      10864      10863      10973      10974      10985      10984  
     10853      10854      10865      10864      10974      10975      10986      10985  
     10854      10855      10866      10865      10975      10976      10987      10986  
     10855      10856      10867      10866      10976      10977      10988      10987  
     10856      10857      10868      10867      10977      10978      10989      10988  
     10858      10859      10870      10869      10979      10980      10991      10990  
     10859      10860      10871      10870      10980      10981      10992      10991  
     10860      10861      10872      10871      10981      10982      10993      10992  
     10861      10862      10873      10872      10982      10983      10994      10993  
     10862      10863      10874      10873      10983      10984      10995      10994  
     10863      10864      10875      10874      10984      10985      10996      10995  
     10864      10865      10876      10875      10985      10986      10997      10996  
     10865      10866      10877      10876      10986      10987      10998      10997  
     10866      10867      10878      10877      10987      10988      10999      10998  
     10867      10868      10879      10878      10988      10989      11000      10999  
     10869      10870      10881      10880      10990      10991      11002      11001  
     10870      10871      10882      10881      10991      10992      11003      11002  
     10871      10872      10883      10882      10992      10993      11004      11003  
     10872      10873      10884      10883      10993      10994      11005      11004  
     10873      10874      10885      10884      10994      10995      11006      11005  
     10874      10875      10886      10885      10995      10996      11007      11006  
     10875      10876      10887      10886      10996      10997      11008      11007  
     10876      10877      10888      10887      10997      10998      11009      11008  
     10877      10878      10889      10888      10998      10999      11010      11009  
     10878      10879      10890      10889      10999      11000      11011      11010  
     10891      10892      10903      10902      11012      11013      11024      11023  
     10892      10893      10904      10903      11013      11014      11025      11024  
     10893      10894      10905      10904      11014      11015      11026      11025  
     10894      10895      10906      10905      11015      11016      11027      11026  
     10895      10896      10907      10906      11016      11017      11028      11027  
     10896      10897      10908      10907      11017      11018      11029      11028  
     10897      10898      10909      10908      11018      11019      11030      11029  
     10898      10899      10910      10909      11019      11020      11031      11030  
     10899      10900      10911      10910      11020      11021      11032      11031  
     10900      10901      10912      10911      11021      11022      11033      11032  
     10902      10903      10914      10913      11023      11024      11035      11034  
     10903      10904      10915      10914      11024      11025      11036      11035  
     10904      10905      10916      10915      11025      11026      11037      11036  
     10905      10906      10917      10916      11026      11027      11038      11037  
     10906      10907      10918      10917      11027      11028      11039      11038  
     10907      10908      10919      10918      11028      11029      11040      11039  
     10908      10909      10920      10919      11029      11030      11041      11040  
     10909      10910      10921      10920      11030      11031      11042      11041  
     10910      10911      10922      10921      11031      11032      11043      11042  
     10911      10912      10923      10922      11032      11033      11044      11043  
     10913      10914      10925      10924      11034      11035      11046      11045  
     10914      10915      10926      10925      11035      11036      11047      11046  
     10915      10916      10927      10926      11036      11037      11048      11047  
     10916      10917      10928      10927      11037      11038      11049      11048  
     10917      10918      10929      10928      11038      11039      11050      11049  
     10918      10919      10930      10929      11039      11040      11051      11050  
     10919      10920      10931      10930      11040      11041      11052      11051  
     10920      10921      10932      10931      11041      11042      11053      11052  
     10921      10922      10933      10932      11042      11043      11054      11053  
     10922      10923      10934      10933      11043      11044      11055      11054  
     10924      10925      10936      10935      11045      11046      11057      11056  
     10925      10926      10937      10936      11046      11047      11058      11057  
     10926      10927      10938      10937      11047      11048      11059      11058  
     10927      10928      10939      10938      11048      11049      11060      11059  
     10928      10929      10940      10939      11049      11050      11061      11060  
     10929      10930      10941      10940      11050      11051      11062      11061  
     10930      10931      10942      10941      11051      11052      11063      11062  
     10931      10932      10943      10942      11052      11053      11064      11063  
     10932      10933      10944      10943      11053      11054      11065      11064  
     10933      10934      10945      10944      11054      11055      11066      11065  
     10935      10936      10947      10946      11056      11057      11068      11067  
     10936      10937      10948      10947      11057      11058      11069      11068  
     10937      10938      10949      10948      11058      11059      11070      11069  
     10938      10939      10950      10949      11059      11060      11071      11070  
     10939      10940      10951      10950      11060      11061      11072      11071  
     10940      10941      10952      10951      11061      11062      11073      11072  
     10941      10942      10953      10952      11062      11063      11074      11073  
     10942      10943      10954      10953      11063      11064      11075      11074  
     10943      10944      10955      10954      11064      11065      11076      11075  
     10944      10945      10956      10955      11065      11066      11077      11076  
     10946      10947      10958      10957      11067      11068      11079      11078  
     10947      10948      10959      10958      11068      11069      11080      11079  
     10948      10949      10960      10959      11069      11070      11081      11080  
     10949      10950      10961      10960      11070      11071      11082      11081  
     10950      10951      10962      10961      11071      11072      11083      11082  
     10951      10952      10963      10962      11072      11073      11084      11083  
     10952      10953      10964      10963      11073      11074      11085      11084  
     10953      10954      10965      10964      11074      11075      11086      11085  
     10954      10955      10966      10965      11075      11076      11087      11086  
     10955      10956      10967      10966      11076      11077      11088      11087  
     10957      10958      10969      10968      11078      11079      11090      11089  
     10958      10959      10970      10969      11079      11080      11091      11090  
     10959      10960      10971      10970      11080      11081      11092      11091  
     10960      10961      10972      10971      11081      11082      11093      11092  
     10961      10962      10973      10972      11082      11083      11094      11093  
     10962      10963      10974      10973      11083      11084      11095      11094  
     10963      10964      10975      10974      11084      11085      11096      11095  
     10964      10965      10976      10975      11085      11086      11097      11096  
     10965      10966      10977      10976      11086      11087      11098      11097  
     10966      10967      10978      10977      11087      11088      11099      11098  
     10968      10969      10980      10979      11089      11090      11101      11100  
     10969      10970      10981      10980      11090      11091      11102      11101  
     10970      10971      10982      10981      11091      11092      11103      11102  
     10971      10972      10983      10982      11092      11093      11104      11103  
     10972      10973      10984      10983      11093      11094      11105      11104  
     10973      10974      10985      10984      11094      11095      11106      11105  
     10974      10975      10986      10985      11095      11096      11107      11106  
     10975      10976      10987      10986      11096      11097      11108      11107  
     10976      10977      10988      10987      11097      11098      11109      11108  
     10977      10978      10989      10988      11098      11099      11110      11109  
     10979      10980      10991      10990      11100      11101      11112      11111  
     10980      10981      10992      10991      11101      11102      11113      11112  
     10981      10982      10993      10992      11102      11103      11114      11113  
     10982      10983      10994      10993      11103      11104      11115      11114  
     10983      10984      10995      10994      11104      11105      11116      11115  
     10984      10985      10996      10995      11105      11106      11117      11116  
     10985      10986      10997      10996      11106      11107      11118      11117  
     10986      10987      10998      10997      11107      11108      11119      11118  
     10987      10988      10999      10998      11108      11109      11120      11119  
     10988      10989      11000      10999      11109      11110      11121      11120  
     10990      10991      11002      11001      11111      11112      11123      11122  
     10991      10992      11003      11002      11112      11113      11124      11123  
     10992      10993      11004      11003      11113      11114      11125      11124  
     10993      10994      11005      11004      11114      11115      11126      11125  
     10994      10995      11006      11005      11115      11116      11127      11126  
     10995      10996      11007      11006      11116      11117      11128      11127  
     10996      10997      11008      11007      11117      11118      11129      11128  
     10997      10998      11009      11008      11118      11119      11130      11129  
     10998      10999      11010      11009      11119      11120      11131      11130  
     10999      11000      11011      11010      11120      11121      11132      11131  
     11012      11013      11024      11023      11133      11134      11145      11144  
     11013      11014      11025      11024      11134      11135      11146      11145  
     11014      11015      11026      11025      11135      11136      11147      11146  
     11015      11016      11027      11026      11136      11137      11148      11147  
     11016      11017      11028      11027      11137      11138      11149      11148  
     11017      11018      11029      11028      11138      11139      11150      11149  
     11018      11019      11030      11029      11139      11140      11151      11150  
     11019      11020      11031      11030      11140      11141      11152      11151  
     11020      11021      11032      11031      11141      11142      11153      11152  
     11021      11022      11033      11032      11142      11143      11154      11153  
     11023      11024      11035      11034      11144      11145      11156      11155  
     11024      11025      11036      11035      11145      11146      11157      11156  
     11025      11026      11037      11036      11146      11147      11158      11157  
     11026      11027      11038      11037      11147      11148      11159      11158  
     11027      11028      11039      11038      11148      11149      11160      11159  
     11028      11029      11040      11039      11149      11150      11161      11160  
     11029      11030      11041      11040      11150      11151      11162      11161  
     11030      11031      11042      11041      11151      11152      11163      11162  
     11031      11032      11043      11042      11152      11153      11164      11163  
     11032      11033      11044      11043      11153      11154      11165      11164  
     11034      11035      11046      11045      11155      11156      11167      11166  
     11035      11036      11047      11046      11156      11157      11168      11167  
     11036      11037      11048      11047      11157      11158      11169      11168  
     11037      11038      11049      11048      11158      11159      11170      11169  
     11038      11039      11050      11049      11159      11160      11171      11170  
     11039      11040      11051      11050      11160      11161      11172      11171  
     11040      11041      11052      11051      11161      11162      11173      11172  
     11041      11042      11053      11052      11162      11163      11174      11173  
     11042      11043      11054      11053      11163      11164      11175      11174  
     11043      11044      11055      11054      11164      11165      11176      11175  
     11045      11046      11057      11056      11166      11167      11178      11177  
     11046      11047      11058      11057      11167      11168      11179      11178  
     11047      11048      11059      11058      11168      11169      11180      11179  
     11048      11049      11060      11059      11169      11170      11181      11180  
     11049      11050      11061      11060      11170      11171      11182      11181  
     11050      11051      11062      11061      11171      11172      11183      11182  
     11051      11052      11063      11062      11172      11173      11184      11183  
     11052      11053      11064      11063      11173      11174      11185      11184  
     11053      11054      11065      11064      11174      11175      11186      11185  
     11054      11055      11066      11065      11175      11176      11187      11186  
     11056      11057      11068      11067      11177      11178      11189      11188  
     11057      11058      11069      11068      11178      11179      11190      11189  
     11058      11059      11070      11069      11179      11180      11191      11190  
     11059      11060      11071      11070      11180      11181      11192      11191  
     11060      11061      11072      11071      11181      11182      11193      11192  
     11061      11062      11073      11072      11182      11183      11194      11193  
     11062      11063      11074      11073      11183      11184      11195      11194  
     11063      11064      11075      11074      11184      11185      11196      11195  
     11064      11065      11076      11075      11185      11186      11197      11196  
     11065      11066      11077      11076      11186      11187      11198      11197  
     11067      11068      11079      11078      11188      11189      11200      11199  
     11068      11069      11080      11079      11189      11190      11201      11200  
     11069      11070      11081      11080      11190      11191      11202      11201  
     11070      11071      11082      11081      11191      11192      11203      11202  
     11071      11072      11083      11082      11192      11193      11204      11203  
     11072      11073      11084      11083      11193      11194      11205      11204  
     11073      11074      11085      11084      11194      11195      11206      11205  
     11074      11075      11086      11085      11195      11196      11207      11206  
     11075      11076      11087      11086      11196      11197      11208      11207  
     11076      11077      11088      11087      11197      11198      11209      11208  
     11078      11079      11090      11089      11199      11200      11211      11210  
     11079      11080      11091      11090      11200      11201      11212      11211  
     11080      11081      11092      11091      11201      11202      11213      11212  
     11081      11082      11093      11092      11202      11203      11214      11213  
     11082      11083      11094      11093      11203      11204      11215      11214  
     11083      11084      11095      11094      11204      11205      11216      11215  
     11084      11085      11096      11095      11205      11206      11217      11216  
     11085      11086      11097      11096      11206      11207      11218      11217  
     11086      11087      11098      11097      11207      11208      11219      11218  
     11087      11088      11099      11098      11208      11209      11220      11219  
     11089      11090      11101      11100      11210      11211      11222      11221  
     11090      11091      11102      11101      11211      11212      11223      11222  
     11091      11092      11103      11102      11212      11213      11224      11223  
     11092      11093      11104      11103      11213      11214      11225      11224  
     11093      11094      11105      11104      11214      11215      11226      11225  
     11094      11095      11106      11105      11215      11216      11227      11226  
     11095      11096      11107      11106      11216      11217      11228      11227  
     11096      11097      11108      11107      11217      11218      11229      11228  
     11097      11098      11109      11108      11218      11219      11230      11229  
     11098      11099      11110      11109      11219      11220      11231      11230  
     11100      11101      11112      11111      11221      11222      11233      11232  
     11101      11102      11113      11112      11222      11223      11234      11233  
     11102      11103      11114      11113      11223      11224      11235      11234  
     11103      11104      11115      11114      11224      11225      11236      11235  
     11104      11105      11116      11115      11225      11226      11237      11236  
     11105      11106      11117      11116      11226      11227      11238      11237  
     11106      11107      11118      11117      11227      11228      11239      11238  
     11107      11108      11119      11118      11228      11229      11240      11239  
     11108      11109      11120      11119      11229      11230      11241      11240  
     11109      11110      11121      11120      11230      11231      11242      11241  
     11111      11112      11123      11122      11232      11233      11244      11243  
     11112      11113      11124      11123      11233      11234      11245      11244  
     11113      11114      11125      11124      11234      11235      11246      11245  
     11114      11115      11126      11125      11235      11236      11247      11246  
     11115      11116      11127      11126      11236      11237      11248      11247  
     11116      11117      11128      11127      11237      11238      11249      11248  
     11117      11118      11129      11128      11238      11239      11250      11249  
     11118      11119      11130      11129      11239      11240      11251      11250  
     11119      11120      11131      11130      11240      11241      11252      11251  
     11120      11121      11132      11131      11241      11242      11253      11252  
     11133      11134      11145      11144      11254      11255      11266      11265  
     11134      11135      11146      11145      11255      11256      11267      11266  
     11135      11136      11147      11146      11256      11257      11268      11267  
     11136      11137      11148      11147      11257      11258      11269      11268  
     11137      11138      11149      11148      11258      11259      11270      11269  
     11138      11139      11150      11149      11259      11260      11271      11270  
     11139      11140      11151      11150      11260      11261      11272      11271  
     11140      11141      11152      11151      11261      11262      11273      11272  
     11141      11142      11153      11152      11262      11263      11274      11273  
     11142      11143      11154      11153      11263      11264      11275      11274  
     11144      11145      11156      11155      11265      11266      11277      11276  
     11145      11146      11157      11156      11266      11267      11278      11277  
     11146      11147      11158      11157      11267      11268      11279      11278  
     11147      11148      11159      11158      11268      11269      11280      11279  
     11148      11149      11160      11159      11269      11270      11281      11280  
     11149      11150      11161      11160      11270      11271      11282      11281  
     11150      11151      11162      11161      11271      11272      11283      11282  
     11151      11152      11163      11162      11272      11273      11284      11283  
     11152      11153      11164      11163      11273      11274      11285      11284  
     11153      11154      11165      11164      11274      11275      11286      11285  
     11155      11156      11167      11166      11276      11277      11288      11287  
     11156      11157      11168      11167      11277      11278      11289      11288  
     11157      11158      11169      11168      11278      11279      11290      11289  
     11158      11159      11170      11169      11279      11280      11291      11290  
     11159      11160      11171      11170      11280      11281      11292      11291  
     11160      11161      11172      11171      11281      11282      11293      11292  
     11161      11162      11173      11172      11282      11283      11294      11293  
     11162      11163      11174      11173      11283      11284      11295      11294  
     11163      11164      11175      11174      11284      11285      11296      11295  
     11164      11165      11176      11175      11285      11286      11297      11296  
     11166      11167      11178      11177      11287      11288      11299      11298  
     11167      11168      11179      11178      11288      11289      11300      11299  
     11168      11169      11180      11179      11289      11290      11301      11300  
     11169      11170      11181      11180      11290      11291      11302      11301  
     11170      11171      11182      11181      11291      11292      11303      11302  
     11171      11172      11183      11182      11292      11293      11304      11303  
     11172      11173      11184      11183      11293      11294      11305      11304  
     11173      11174      11185      11184      11294      11295      11306      11305  
     11174      11175      11186      11185      11295      11296      11307      11306  
     11175      11176      11187      11186      11296      11297      11308      11307  
     11177      11178      11189      11188      11298      11299      11310      11309  
     11178      11179      11190      11189      11299      11300      11311      11310  
     11179      11180      11191      11190      11300      11301      11312      11311  
     11180      11181      11192      11191      11301      11302      11313      11312  
     11181      11182      11193      11192      11302      11303      11314      11313  
     11182      11183      11194      11193      11303      11304      11315      11314  
     11183      11184      11195      11194      11304      11305      11316      11315  
     11184      11185      11196      11195      11305      11306      11317      11316  
     11185      11186      11197      11196      11306      11307      11318      11317  
     11186      11187      11198      11197      11307      11308      11319      11318  
     11188      11189      11200      11199      11309      11310      11321      11320  
     11189      11190      11201      11200      11310      11311      11322      11321  
     11190      11191      11202      11201      11311      11312      11323      11322  
     11191      11192      11203      11202      11312      11313      11324      11323  
     11192      11193      11204      11203      11313      11314      11325      11324  
     11193      11194      11205      11204      11314      11315      11326      11325  
     11194      11195      11206      11205      11315      11316      11327      11326  
     11195      11196      11207      11206      11316      11317      11328      11327  
     11196      11197      11208      11207      11317      11318      11329      11328  
     11197      11198      11209      11208      11318      11319      11330      11329  
     11199      11200      11211      11210      11320      11321      11332      11331  
     11200      11201      11212      11211      11321      11322      11333      11332  
     11201      11202      11213      11212      11322      11323      11334      11333  
     11202      11203      11214      11213      11323      11324      11335      11334  
     11203      11204      11215      11214      11324      11325      11336      11335  
     11204      11205      11216      11215      11325      11326      11337      11336  
     11205      11206      11217      11216      11326      11327      11338      11337  
     11206      11207      11218      11217      11327      11328      11339      11338  
     11207      11208      11219      11218      11328      11329      11340      11339  
     11208      11209      11220      11219      11329      11330      11341      11340  
     11210      11211      11222      11221      11331      11332      11343      11342  
     11211      11212      11223      11222      11332      11333      11344      11343  
     11212      11213      11224      11223      11333      11334      11345      11344  
     11213      11214      11225      11224      11334      11335      11346      11345  
     11214      11215      11226      11225      11335      11336      11347      11346  
     11215      11216      11227      11226      11336      11337      11348      11347  
     11216      11217      11228      11227      11337      11338      11349      11348  
     11217      11218      11229      11228      11338      11339      11350      11349  
     11218      11219      11230      11229      11339      11340      11351      11350  
     11219      11220      11231      11230      11340      11341      11352      11351  
     11221      11222      11233      11232      11342      11343      11354      11353  
     11222      11223      11234      11233      11343      11344      11355      11354  
     11223      11224      11235      11234      11344      11345      11356      11355  
     11224      11225      11236      11235      11345      11346      11357      11356  
     11225      11226      11237      11236      11346      11347      11358      11357  
     11226      11227      11238      11237      11347      11348      11359      11358  
     11227      11228      11239      11238      11348      11349      11360      11359  
     11228      11229      11240      11239      11349      11350      11361      11360  
     11229      11230      11241      11240      11350      11351      11362      11361  
     11230      11231      11242      11241      11351      11352      11363      11362  
     11232      11233      11244      11243      11353      11354      11365      11364  
     11233      11234      11245      11244      11354      11355      11366      11365  
     11234      11235      11246      11245      11355      11356      11367      11366  
     11235      11236      11247      11246      11356      11357      11368      11367  
     11236      11237      11248      11247      11357      11358      11369      11368  
     11237      11238      11249      11248      11358      11359      11370      11369  
     11238      11239      11250      11249      11359      11360      11371      11370  
     11239      11240      11251      11250      11360      11361      11372      11371  
     11240      11241      11252      11251      11361      11362      11373      11372  
     11241      11242      11253      11252      11362      11363      11374      11373  
     11254      11255      11266      11265      11375      11376      11387      11386  
     11255      11256      11267      11266      11376      11377      11388      11387  
     11256      11257      11268      11267      11377      11378      11389      11388  
     11257      11258      11269      11268      11378      11379      11390      11389  
     11258      11259      11270      11269      11379      11380      11391      11390  
     11259      11260      11271      11270      11380      11381      11392      11391  
     11260      11261      11272      11271      11381      11382      11393      11392  
     11261      11262      11273      11272      11382      11383      11394      11393  
     11262      11263      11274      11273      11383      11384      11395      11394  
     11263      11264      11275      11274      11384      11385      11396      11395  
     11265      11266      11277      11276      11386      11387      11398      11397  
     11266      11267      11278      11277      11387      11388      11399      11398  
     11267      11268      11279      11278      11388      11389      11400      11399  
     11268      11269      11280      11279      11389      11390      11401      11400  
     11269      11270      11281      11280      11390      11391      11402      11401  
     11270      11271      11282      11281      11391      11392      11403      11402  
     11271      11272      11283      11282      11392      11393      11404      11403  
     11272      11273      11284      11283      11393      11394      11405      11404  
     11273      11274      11285      11284      11394      11395      11406      11405  
     11274      11275      11286      11285      11395      11396      11407      11406  
     11276      11277      11288      11287      11397      11398      11409      11408  
     11277      11278      11289      11288      11398      11399      11410      11409  
     11278      11279      11290      11289      11399      11400      11411      11410  
     11279      11280      11291      11290      11400      11401      11412      11411  
     11280      11281      11292      11291      11401      11402      11413      11412  
     11281      11282      11293      11292      11402      11403      11414      11413  
     11282      11283      11294      11293      11403      11404      11415      11414  
     11283      11284      11295      11294      11404      11405      11416      11415  
     11284      11285      11296      11295      11405      11406      11417      11416  
     11285      11286      11297      11296      11406      11407      11418      11417  
     11287      11288      11299      11298      11408      11409      11420      11419  
     11288      11289      11300      11299      11409      11410      11421      11420  
     11289      11290      11301      11300      11410      11411      11422      11421  
     11290      11291      11302      11301      11411      11412      11423      11422  
     11291      11292      11303      11302      11412      11413      11424      11423  
     11292      11293      11304      11303      11413      11414      11425      11424  
     11293      11294      11305      11304      11414      11415      11426      11425  
     11294      11295      11306      11305      11415      11416      11427      11426  
     11295      11296      11307      11306      11416      11417      11428      11427  
     11296      11297      11308      11307      11417      11418      11429      11428  
     11298      11299      11310      11309      11419      11420      11431      11430  
     11299      11300      11311      11310      11420      11421      11432      11431  
     11300      11301      11312      11311      11421      11422      11433      11432  
     11301      11302      11313      11312      11422      11423      11434      11433  
     11302      11303      11314      11313      11423      11424      11435      11434  
     11303      11304      11315      11314      11424      11425      11436      11435  
     11304      11305      11316      11315      11425      11426      11437      11436  
     11305      11306      11317      11316      11426      11427      11438      11437  
     11306      11307      11318      11317      11427      11428      11439      11438  
     11307      11308      11319      11318      11428      11429      11440      11439  
     11309      11310      11321      11320      11430      11431      11442      11441  
     11310      11311      11322      11321      11431      11432      11443      11442  
     11311      11312      11323      11322      11432      11433      11444      11443  
     11312      11313      11324      11323      11433      11434      11445      11444  
     11313      11314      11325      11324      11434      11435      11446      11445  
     11314      11315      11326      11325      11435      11436      11447      11446  
     11315      11316      11327      11326      11436      11437      11448      11447  
     11316      11317      11328      11327      11437      11438      11449      11448  
     11317      11318      11329      11328      11438      11439      11450      11449  
     11318      11319      11330      11329      11439      11440      11451      11450  
     11320      11321      11332      11331      11441      11442      11453      11452  
     11321      11322      11333      11332      11442      11443      11454      11453  
     11322      11323      11334      11333      11443      11444      11455      11454  
     11323      11324      11335      11334      11444      11445      11456      11455  
     11324      11325      11336      11335      11445      11446      11457      11456  
     11325      11326      11337      11336      11446      11447      11458      11457  
     11326      11327      11338      11337      11447      11448      11459      11458  
     11327      11328      11339      11338      11448      11449      11460      11459  
     11328      11329      11340      11339      11449      11450      11461      11460  
     11329      11330      11341      11340      11450      11451      11462      11461  
     11331      11332      11343      11342      11452      11453      11464      11463  
     11332      11333      11344      11343      11453      11454      11465      11464  
     11333      11334      11345      11344      11454      11455      11466      11465  
     11334      11335      11346      11345      11455      11456      11467      11466  
     11335      11336      11347      11346      11456      11457      11468      11467  
     11336      11337      11348      11347      11457      11458      11469      11468  
     11337      11338      11349      11348      11458      11459      11470      11469  
     11338      11339      11350      11349      11459      11460      11471      11470  
     11339      11340      11351      11350      11460      11461      11472      11471  
     11340      11341      11352      11351      11461      11462      11473      11472  
     11342      11343      11354      11353      11463      11464      11475      11474  
     11343      11344      11355      11354      11464      11465      11476      11475  
     11344      11345      11356      11355      11465      11466      11477      11476  
     11345      11346      11357      11356      11466      11467      11478      11477  
     11346      11347      11358      11357      11467      11468      11479      11478  
     11347      11348      11359      11358      11468      11469      11480      11479  
     11348      11349      11360      11359      11469      11470      11481      11480  
     11349      11350      11361      11360      11470      11471      11482      11481  
     11350      11351      11362      11361      11471      11472      11483      11482  
     11351      11352      11363      11362      11472      11473      11484      11483  
     11353      11354      11365      11364      11474      11475      11486      11485  
     11354      11355      11366      11365      11475      11476      11487      11486  
     11355      11356      11367      11366      11476      11477      11488      11487  
     11356      11357      11368      11367      11477      11478      11489      11488  
     11357      11358      11369      11368      11478      11479      11490      11489  
     11358      11359      11370      11369      11479      11480      11491      11490  
     11359      11360      11371      11370      11480      11481      11492      11491  
     11360      11361      11372      11371      11481      11482      11493      11492  
     11361      11362      11373      11372      11482      11483      11494      11493  
     11362      11363      11374      11373      11483      11484      11495      11494  
     11375      11376      11387      11386      11496      11497      11508      11507  
     11376      11377      11388      11387      11497      11498      11509      11508  
     11377      11378      11389      11388      11498      11499      11510      11509  
     11378      11379      11390      11389      11499      11500      11511      11510  
     11379      11380      11391      11390      11500      11501      11512      11511  
     11380      11381      11392      11391      11501      11502      11513      11512  
     11381      11382      11393      11392      11502      11503      11514      11513  
     11382      11383      11394      11393      11503      11504      11515      11514  
     11383      11384      11395      11394      11504      11505      11516      11515  
     11384      11385      11396      11395      11505      11506      11517      11516  
     11386      11387      11398      11397      11507      11508      11519      11518  
     11387      11388      11399      11398      11508      11509      11520      11519  
     11388      11389      11400      11399      11509      11510      11521      11520  
     11389      11390      11401      11400      11510      11511      11522      11521  
     11390      11391      11402      11401      11511      11512      11523      11522  
     11391      11392      11403      11402      11512      11513      11524      11523  
     11392      11393      11404      11403      11513      11514      11525      11524  
     11393      11394      11405      11404      11514      11515      11526      11525  
     11394      11395      11406      11405      11515      11516      11527      11526  
     11395      11396      11407      11406      11516      11517      11528      11527  
     11397      11398      11409      11408      11518      11519      11530      11529  
     11398      11399      11410      11409      11519      11520      11531      11530  
     11399      11400      11411      11410      11520      11521      11532      11531  
     11400      11401      11412      11411      11521      11522      11533      11532  
     11401      11402      11413      11412      11522      11523      11534      11533  
     11402      11403      11414      11413      11523      11524      11535      11534  
     11403      11404      11415      11414      11524      11525      11536      11535  
     11404      11405      11416      11415      11525      11526      11537      11536  
     11405      11406      11417      11416      11526      11527      11538      11537  
     11406      11407      11418      11417      11527      11528      11539      11538  
     11408      11409      11420      11419      11529      11530      11541      11540  
     11409      11410      11421      11420      11530      11531      11542      11541  
     11410      11411      11422      11421      11531      11532      11543      11542  
     11411      11412      11423      11422      11532      11533      11544      11543  
     11412      11413      11424      11423      11533      11534      11545      11544  
     11413      11414      11425      11424      11534      11535      11546      11545  
     11414      11415      11426      11425      11535      11536      11547      11546  
     11415      11416      11427      11426      11536      11537      11548      11547  
     11416      11417      11428      11427      11537      11538      11549      11548  
     11417      11418      11429      11428      11538      11539      11550      11549  
     11419      11420      11431      11430      11540      11541      11552      11551  
     11420      11421      11432      11431      11541      11542      11553      11552  
     11421      11422      11433      11432      11542      11543      11554      11553  
     11422      11423      11434      11433      11543      11544      11555      11554  
     11423      11424      11435      11434      11544      11545      11556      11555  
     11424      11425      11436      11435      11545      11546      11557      11556  
     11425      11426      11437      11436      11546      11547      11558      11557  
     11426      11427      11438      11437      11547      11548      11559      11558  
     11427      11428      11439      11438      11548      11549      11560      11559  
     11428      11429      11440      11439      11549      11550      11561      11560  
     11430      11431      11442      11441      11551      11552      11563      11562  
     11431      11432      11443      11442      11552      11553      11564      11563  
     11432      11433      11444      11443      11553      11554      11565      11564  
     11433      11434      11445      11444      11554      11555      11566      11565  
     11434      11435      11446      11445      11555      11556      11567      11566  
     11435      11436      11447      11446      11556      11557      11568      11567  
     11436      11437      11448      11447      11557      11558      11569      11568  
     11437      11438      11449      11448      11558      11559      11570      11569  
     11438      11439      11450      11449      11559      11560      11571      11570  
     11439      11440      11451      11450      11560      11561      11572      11571  
     11441      11442      11453      11452      11562      11563      11574      11573  
     11442      11443      11454      11453      11563      11564      11575      11574  
     11443      11444      11455      11454      11564      11565      11576      11575  
     11444      11445      11456      11455      11565      11566      11577      11576  
     11445      11446      11457      11456      11566      11567      11578      11577  
     11446      11447      11458      11457      11567      11568      11579      11578  
     11447      11448      11459      11458      11568      11569      11580      11579  
     11448      11449      11460      11459      11569      11570      11581      11580  
     11449      11450      11461      11460      11570      11571      11582      11581  
     11450      11451      11462      11461      11571      11572      11583      11582  
     11452      11453      11464      11463      11573      11574      11585      11584  
     11453      11454      11465      11464      11574      11575      11586      11585  
     11454      11455      11466      11465      11575      11576      11587      11586  
     11455      11456      11467      11466      11576      11577      11588      11587  
     11456      11457      11468      11467      11577      11578      11589      11588  
     11457      11458      11469      11468      11578      11579      11590      11589  
     11458      11459      11470      11469      11579      11580      11591      11590  
     11459      11460      11471      11470      11580      11581      11592      11591  
     11460      11461      11472      11471      11581      11582      11593      11592  
     11461      11462      11473      11472      11582      11583      11594      11593  
     11463      11464      11475      11474      11584      11585      11596      11595  
     11464      11465      11476      11475      11585      11586      11597      11596  
     11465      11466      11477      11476      11586      11587      11598      11597  
     11466      11467      11478      11477      11587      11588      11599      11598  
     11467      11468      11479      11478      11588      11589      11600      11599  
     11468      11469      11480      11479      11589      11590      11601      11600  
     11469      11470      11481      11480      11590      11591      11602      11601  
     11470      11471      11482      11481      11591      11592      11603      11602  
     11471      11472      11483      11482      11592      11593      11604      11603  
     11472      11473      11484      11483      11593      11594      11605      11604  
     11474      11475      11486      11485      11595      11596      11607      11606  
     11475      11476      11487      11486      11596      11597      11608      11607  
     11476      11477      11488      11487      11597      11598      11609      11608  
     11477      11478      11489      11488      11598      11599      11610      11609  
     11478      11479      11490      11489      11599      11600      11611      11610  
     11479      11480      11491      11490      11600      11601      11612      11611  
     11480      11481      11492      11491      11601      11602      11613      11612  
     11481      11482      11493      11492      11602      11603      11614      11613  
     11482      11483      11494      11493      11603      11604      11615      11614  
     11483      11484      11495      11494      11604      11605      11616      11615  
     11496      11497      11508      11507      11617      11618      11629      11628  
     11497      11498      11509      11508      11618      11619      11630      11629  
     11498      11499      11510      11509      11619      11620      11631      11630  
     11499      11500      11511      11510      11620      11621      11632      11631  
     11500      11501      11512      11511      11621      11622      11633      11632  
     11501      11502      11513      11512      11622      11623      11634      11633  
     11502      11503      11514      11513      11623      11624      11635      11634  
     11503      11504      11515      11514      11624      11625      11636      11635  
     11504      11505      11516      11515      11625      11626      11637      11636  
     11505      11506      11517      11516      11626      11627      11638      11637  
     11507      11508      11519      11518      11628      11629      11640      11639  
     11508      11509      11520      11519      11629      11630      11641      11640  
     11509      11510      11521      11520      11630      11631      11642      11641  
     11510      11511      11522      11521      11631      11632      11643      11642  
     11511      11512      11523      11522      11632      11633      11644      11643  
     11512      11513      11524      11523      11633      11634      11645      11644  
     11513      11514      11525      11524      11634      11635      11646      11645  
     11514      11515      11526      11525      11635      11636      11647      11646  
     11515      11516      11527      11526      11636      11637      11648      11647  
     11516      11517      11528      11527      11637      11638      11649      11648  
     11518      11519      11530      11529      11639      11640      11651      11650  
     11519      11520      11531      11530      11640      11641      11652      11651  
     11520      11521      11532      11531      11641      11642      11653      11652  
     11521      11522      11533      11532      11642      11643      11654      11653  
     11522      11523      11534      11533      11643      11644      11655      11654  
     11523      11524      11535      11534      11644      11645      11656      11655  
     11524      11525      11536      11535      11645      11646      11657      11656  
     11525      11526      11537      11536      11646      11647      11658      11657  
     11526      11527      11538      11537      11647      11648      11659      11658  
     11527      11528      11539      11538      11648      11649      11660      11659  
     11529      11530      11541      11540      11650      11651      11662      11661  
     11530      11531      11542      11541      11651      11652      11663      11662  
     11531      11532      11543      11542      11652      11653      11664      11663  
     11532      11533      11544      11543      11653      11654      11665      11664  
     11533      11534      11545      11544      11654      11655      11666      11665  
     11534      11535      11546      11545      11655      11656      11667      11666  
     11535      11536      11547      11546      11656      11657      11668      11667  
     11536      11537      11548      11547      11657      11658      11669      11668  
     11537      11538      11549      11548      11658      11659      11670      11669  
     11538      11539      11550      11549      11659      11660      11671      11670  
     11540      11541      11552      11551      11661      11662      11673      11672  
     11541      11542      11553      11552      11662      11663      11674      11673  
     11542      11543      11554      11553      11663      11664      11675      11674  
     11543      11544      11555      11554      11664      11665      11676      11675  
     11544      11545      11556      11555      11665      11666      11677      11676  
     11545      11546      11557      11556      11666      11667      11678      11677  
     11546      11547      11558      11557      11667      11668      11679      11678  
     11547      11548      11559      11558      11668      11669      11680      11679  
     11548      11549      11560      11559      11669      11670      11681      11680  
     11549      11550      11561      11560      11670      11671      11682      11681  
     11551      11552      11563      11562      11672      11673      11684      11683  
     11552      11553      11564      11563      11673      11674      11685      11684  
     11553      11554      11565      11564      11674      11675      11686      11685  
     11554      11555      11566      11565      11675      11676      11687      11686  
     11555      11556      11567      11566      11676      11677      11688      11687  
     11556      11557      11568      11567      11677      11678      11689      11688  
     11557      11558      11569      11568      11678      11679      11690      11689  
     11558      11559      11570      11569      11679      11680      11691      11690  
     11559      11560      11571      11570      11680      11681      11692      11691  
     11560      11561      11572      11571      11681      11682      11693      11692  
     11562      11563      11574      11573      11683      11684      11695      11694  
     11563      11564      11575      11574      11684      11685      11696      11695  
     11564      11565      11576      11575      11685      11686      11697      11696  
     11565      11566      11577      11576      11686      11687      11698      11697  
     11566      11567      11578      11577      11687      11688      11699      11698  
     11567      11568      11579      11578      11688      11689      11700      11699  
     11568      11569      11580      11579      11689      11690      11701      11700  
     11569      11570      11581      11580      11690      11691      11702      11701  
     11570      11571      11582      11581      11691      11692      11703      11702  
     11571      11572      11583      11582      11692      11693      11704      11703  
     11573      11574      11585      11584      11694      11695      11706      11705  
     11574      11575      11586      11585      11695      11696      11707      11706  
     11575      11576      11587      11586      11696      11697      11708      11707  
     11576      11577      11588      11587      11697      11698      11709      11708  
     11577      11578      11589      11588      11698      11699      11710      11709  
     11578      11579      11590      11589      11699      11700      11711      11710  
     11579      11580      11591      11590      11700      11701      11712      11711  
     11580      11581      11592      11591      11701      11702      11713      11712  
     11581      11582      11593      11592      11702      11703      11714      11713  
     11582      11583      11594      11593      11703      11704      11715      11714  
     11584      11585      11596      11595      11705      11706      11717      11716  
     11585      11586      11597      11596      11706      11707      11718      11717  
     11586      11587      11598      11597      11707      11708      11719      11718  
     11587      11588      11599      11598      11708      11709      11720      11719  
     11588      11589      11600      11599      11709      11710      11721      11720  
     11589      11590      11601      11600      11710      11711      11722      11721  
     11590      11591      11602      11601      11711      11712      11723      11722  
     11591      11592      11603      11602      11712      11713      11724      11723  
     11592      11593      11604      11603      11713      11714      11725      11724  
     11593      11594      11605      11604      11714      11715      11726      11725  
     11595      11596      11607      11606      11716      11717      11728      11727  
     11596      11597      11608      11607      11717      11718      11729      11728  
     11597      11598      11609      11608      11718      11719      11730      11729  
     11598      11599      11610      11609      11719      11720      11731      11730  
     11599      11600      11611      11610      11720      11721      11732      11731  
     11600      11601      11612      11611      11721      11722      11733      11732  
     11601      11602      11613      11612      11722      11723      11734      11733  
     11602      11603      11614      11613      11723      11724      11735      11734  
     11603      11604      11615      11614      11724      11725      11736      11735  
     11604      11605      11616      11615      11725      11726      11737      11736  
     11617      11618      11629      11628      11738      11739      11750      11749  
     11618      11619      11630      11629      11739      11740      11751      11750  
     11619      11620      11631      11630      11740      11741      11752      11751  
     11620      11621      11632      11631      11741      11742      11753      11752  
     11621      11622      11633      11632      11742      11743      11754      11753  
     11622      11623      11634      11633      11743      11744      11755      11754  
     11623      11624      11635      11634      11744      11745      11756      11755  
     11624      11625      11636      11635      11745      11746      11757      11756  
     11625      11626      11637      11636      11746      11747      11758      11757  
     11626      11627      11638      11637      11747      11748      11759      11758  
     11628      11629      11640      11639      11749      11750      11761      11760  
     11629      11630      11641      11640      11750      11751      11762      11761  
     11630      11631      11642      11641      11751      11752      11763      11762  
     11631      11632      11643      11642      11752      11753      11764      11763  
     11632      11633      11644      11643      11753      11754      11765      11764  
     11633      11634      11645      11644      11754      11755      11766      11765  
     11634      11635      11646      11645      11755      11756      11767      11766  
     11635      11636      11647      11646      11756      11757      11768      11767  
     11636      11637      11648      11647      11757      11758      11769      11768  
     11637      11638      11649      11648      11758      11759      11770      11769  
     11639      11640      11651      11650      11760      11761      11772      11771  
     11640      11641      11652      11651      11761      11762      11773      11772  
     11641      11642      11653      11652      11762      11763      11774      11773  
     11642      11643      11654      11653      11763      11764      11775      11774  
     11643      11644      11655      11654      11764      11765      11776      11775  
     11644      11645      11656      11655      11765      11766      11777      11776  
     11645      11646      11657      11656      11766      11767      11778      11777  
     11646      11647      11658      11657      11767      11768      11779      11778  
     11647      11648      11659      11658      11768      11769      11780      11779  
     11648      11649      11660      11659      11769      11770      11781      11780  
     11650      11651      11662      11661      11771      11772      11783      11782  
     11651      11652      11663      11662      11772      11773      11784      11783  
     11652      11653      11664      11663      11773      11774      11785      11784  
     11653      11654      11665      11664      11774      11775      11786      11785  
     11654      11655      11666      11665      11775      11776      11787      11786  
     11655      11656      11667      11666      11776      11777      11788      11787  
     11656      11657      11668      11667      11777      11778      11789      11788  
     11657      11658      11669      11668      11778      11779      11790      11789  
     11658      11659      11670      11669      11779      11780      11791      11790  
     11659      11660      11671      11670      11780      11781      11792      11791  
     11661      11662      11673      11672      11782      11783      11794      11793  
     11662      11663      11674      11673      11783      11784      11795      11794  
     11663      11664      11675      11674      11784      11785      11796      11795  
     11664      11665      11676      11675      11785      11786      11797      11796  
     11665      11666      11677      11676      11786      11787      11798      11797  
     11666      11667      11678      11677      11787      11788      11799      11798  
     11667      11668      11679      11678      11788      11789      11800      11799  
     11668      11669      11680      11679      11789      11790      11801      11800  
     11669      11670      11681      11680      11790      11791      11802      11801  
     11670      11671      11682      11681      11791      11792      11803      11802  
     11672      11673      11684      11683      11793      11794      11805      11804  
     11673      11674      11685      11684      11794      11795      11806      11805  
     11674      11675      11686      11685      11795      11796      11807      11806  
     11675      11676      11687      11686      11796      11797      11808      11807  
     11676      11677      11688      11687      11797      11798      11809      11808  
     11677      11678      11689      11688      11798      11799      11810      11809  
     11678      11679      11690      11689      11799      11800      11811      11810  
     11679      11680      11691      11690      11800      11801      11812      11811  
     11680      11681      11692      11691      11801      11802      11813      11812  
     11681      11682      11693      11692      11802      11803      11814      11813  
     11683      11684      11695      11694      11804      11805      11816      11815  
     11684      11685      11696      11695      11805      11806      11817      11816  
     11685      11686      11697      11696      11806      11807      11818      11817  
     11686      11687      11698      11697      11807      11808      11819      11818  
     11687      11688      11699      11698      11808      11809      11820      11819  
     11688      11689      11700      11699      11809      11810      11821      11820  
     11689      11690      11701      11700      11810      11811      11822      11821  
     11690      11691      11702      11701      11811      11812      11823      11822  
     11691      11692      11703      11702      11812      11813      11824      11823  
     11692      11693      11704      11703      11813      11814      11825      11824  
     11694      11695      11706      11705      11815      11816      11827      11826  
     11695      11696      11707      11706      11816      11817      11828      11827  
     11696      11697      11708      11707      11817      11818      11829      11828  
     11697      11698      11709      11708      11818      11819      11830      11829  
     11698      11699      11710      11709      11819      11820      11831      11830  
     11699      11700      11711      11710      11820      11821      11832      11831  
     11700      11701      11712      11711      11821      11822      11833      11832  
     11701      11702      11713      11712      11822      11823      11834      11833  
     11702      11703      11714      11713      11823      11824      11835      11834  
     11703      11704      11715      11714      11824      11825      11836      11835  
     11705      11706      11717      11716      11826      11827      11838      11837  
     11706      11707      11718      11717      11827      11828      11839      11838  
     11707      11708      11719      11718      11828      11829      11840      11839  
     11708      11709      11720      11719      11829      11830      11841      11840  
     11709      11710      11721      11720      11830      11831      11842      11841  
     11710      11711      11722      11721      11831      11832      11843      11842  
     11711      11712      11723      11722      11832      11833      11844      11843  
     11712      11713      11724      11723      11833      11834      11845      11844  
     11713      11714      11725      11724      11834      11835      11846      11845  
     11714      11715      11726      11725      11835      11836      11847      11846  
     11716      11717      11728      11727      11837      11838      11849      11848  
     11717      11718      11729      11728      11838      11839      11850      11849  
     11718      11719      11730      11729      11839      11840      11851      11850  
     11719      11720      11731      11730      11840      11841      11852      11851  
     11720      11721      11732      11731      11841      11842      11853      11852  
     11721      11722      11733      11732      11842      11843      11854      11853  
     11722      11723      11734      11733      11843      11844      11855      11854  
     11723      11724      11735      11734      11844      11845      11856      11855  
     11724      11725      11736      11735      11845      11846      11857      11856  
     11725      11726      11737      11736      11846      11847      11858      11857  
     11738      11739      11750      11749      11859      11860      11871      11870  
     11739      11740      11751      11750      11860      11861      11872      11871  
     11740      11741      11752      11751      11861      11862      11873      11872  
     11741      11742      11753      11752      11862      11863      11874      11873  
     11742      11743      11754      11753      11863      11864      11875      11874  
     11743      11744      11755      11754      11864      11865      11876      11875  
     11744      11745      11756      11755      11865      11866      11877      11876  
     11745      11746      11757      11756      11866      11867      11878      11877  
     11746      11747      11758      11757      11867      11868      11879      11878  
     11747      11748      11759      11758      11868      11869      11880      11879  
     11749      11750      11761      11760      11870      11871      11882      11881  
     11750      11751      11762      11761      11871      11872      11883      11882  
     11751      11752      11763      11762      11872      11873      11884      11883  
     11752      11753      11764      11763      11873      11874      11885      11884  
     11753      11754      11765      11764      11874      11875      11886      11885  
     11754      11755      11766      11765      11875      11876      11887      11886  
     11755      11756      11767      11766      11876      11877      11888      11887  
     11756      11757      11768      11767      11877      11878      11889      11888  
     11757      11758      11769      11768      11878      11879      11890      11889  
     11758      11759      11770      11769      11879      11880      11891      11890  
     11760      11761      11772      11771      11881      11882      11893      11892  
     11761      11762      11773      11772      11882      11883      11894      11893  
     11762      11763      11774      11773      11883      11884      11895      11894  
     11763      11764      11775      11774      11884      11885      11896      11895  
     11764      11765      11776      11775      11885      11886      11897      11896  
     11765      11766      11777      11776      11886      11887      11898      11897  
     11766      11767      11778      11777      11887      11888      11899      11898  
     11767      11768      11779      11778      11888      11889      11900      11899  
     11768      11769      11780      11779      11889      11890      11901      11900  
     11769      11770      11781      11780      11890      11891      11902      11901  
     11771      11772      11783      11782      11892      11893      11904      11903  
     11772      11773      11784      11783      11893      11894      11905      11904  
     11773      11774      11785      11784      11894      11895      11906      11905  
     11774      11775      11786      11785      11895      11896      11907      11906  
     11775      11776      11787      11786      11896      11897      11908      11907  
     11776      11777      11788      11787      11897      11898      11909      11908  
     11777      11778      11789      11788      11898      11899      11910      11909  
     11778      11779      11790      11789      11899      11900      11911      11910  
     11779      11780      11791      11790      11900      11901      11912      11911  
     11780      11781      11792      11791      11901      11902      11913      11912  
     11782      11783      11794      11793      11903      11904      11915      11914  
     11783      11784      11795      11794      11904      11905      11916      11915  
     11784      11785      11796      11795      11905      11906      11917      11916  
     11785      11786      11797      11796      11906      11907      11918      11917  
     11786      11787      11798      11797      11907      11908      11919      11918  
     11787      11788      11799      11798      11908      11909      11920      11919  
     11788      11789      11800      11799      11909      11910      11921      11920  
     11789      11790      11801      11800      11910      11911      11922      11921  
     11790      11791      11802      11801      11911      11912      11923      11922  
     11791      11792      11803      11802      11912      11913      11924      11923  
     11793      11794      11805      11804      11914      11915      11926      11925  
     11794      11795      11806      11805      11915      11916      11927      11926  
     11795      11796      11807      11806      11916      11917      11928      11927  
     11796      11797      11808      11807      11917      11918      11929      11928  
     11797      11798      11809      11808      11918      11919      11930      11929  
     11798      11799      11810      11809      11919      11920      11931      11930  
     11799      11800      11811      11810      11920      11921      11932      11931  
     11800      11801      11812      11811      11921      11922      11933      11932  
     11801      11802      11813      11812      11922      11923      11934      11933  
     11802      11803      11814      11813      11923      11924      11935      11934  
     11804      11805      11816      11815      11925      11926      11937      11936  
     11805      11806      11817      11816      11926      11927      11938      11937  
     11806      11807      11818      11817      11927      11928      11939      11938  
     11807      11808      11819      11818      11928      11929      11940      11939  
     11808      11809      11820      11819      11929      11930      11941      11940  
     11809      11810      11821      11820      11930      11931      11942      11941  
     11810      11811      11822      11821      11931      11932      11943      11942  
     11811      11812      11823      11822      11932      11933      11944      11943  
     11812      11813      11824      11823      11933      11934      11945      11944  
     11813      11814      11825      11824      11934      11935      11946      11945  
     11815      11816      11827      11826      11936      11937      11948      11947  
     11816      11817      11828      11827      11937      11938      11949      11948  
     11817      11818      11829      11828      11938      11939      11950      11949  
     11818      11819      11830      11829      11939      11940      11951      11950  
     11819      11820      11831      11830      11940      11941      11952      11951  
     11820      11821      11832      11831      11941      11942      11953      11952  
     11821      11822      11833      11832      11942      11943      11954      11953  
     11822      11823      11834      11833      11943      11944      11955      11954  
     11823      11824      11835      11834      11944      11945      11956      11955  
     11824      11825      11836      11835      11945      11946      11957      11956  
     11826      11827      11838      11837      11947      11948      11959      11958  
     11827      11828      11839      11838      11948      11949      11960      11959  
     11828      11829      11840      11839      11949      11950      11961      11960  
     11829      11830      11841      11840      11950      11951      11962      11961  
     11830      11831      11842      11841      11951      11952      11963      11962  
     11831      11832      11843      11842      11952      11953      11964      11963  
     11832      11833      11844      11843      11953      11954      11965      11964  
     11833      11834      11845      11844      11954      11955      11966      11965  
     11834      11835      11846      11845      11955      11956      11967      11966  
     11835      11836      11847      11846      11956      11957      11968      11967  
     11837      11838      11849      11848      11958      11959      11970      11969  
     11838      11839      11850      11849      11959      11960      11971      11970  
     11839      11840      11851      11850      11960      11961      11972      11971  
     11840      11841      11852      11851      11961      11962      11973      11972  
     11841      11842      11853      11852      11962      11963      11974      11973  
     11842      11843      11854      11853      11963      11964      11975      11974  
     11843      11844      11855      11854      11964      11965      11976      11975  
     11844      11845      11856      11855      11965      11966      11977      11976  
     11845      11846      11857      11856      11966      11967      11978      11977  
     11846      11847      11858      11857      11967      11968      11979      11978  
     11859      11860      11871      11870      11980      11981      11992      11991  
     11860      11861      11872      11871      11981      11982      11993      11992  
     11861      11862      11873      11872      11982      11983      11994      11993  
     11862      11863      11874      11873      11983      11984      11995      11994  
     11863      11864      11875      11874      11984      11985      11996      11995  
     11864      11865      11876      11875      11985      11986      11997      11996  
     11865      11866      11877      11876      11986      11987      11998      11997  
     11866      11867      11878      11877      11987      11988      11999      11998  
     11867      11868      11879      11878      11988      11989      12000      11999  
     11868      11869      11880      11879      11989      11990      12001      12000  
     11870      11871      11882      11881      11991      11992      12003      12002  
     11871      11872      11883      11882      11992      11993      12004      12003  
     11872      11873      11884      11883      11993      11994      12005      12004  
     11873      11874      11885      11884      11994      11995      12006      12005  
     11874      11875      11886      11885      11995      11996      12007      12006  
     11875      11876      11887      11886      11996      11997      12008      12007  
     11876      11877      11888      11887      11997      11998      12009      12008  
     11877      11878      11889      11888      11998      11999      12010      12009  
     11878      11879      11890      11889      11999      12000      12011      12010  
     11879      11880      11891      11890      12000      12001      12012      12011  
     11881      11882      11893      11892      12002      12003      12014      12013  
     11882      11883      11894      11893      12003      12004      12015      12014  
     11883      11884      11895      11894      12004      12005      12016      12015  
     11884      11885      11896      11895      12005      12006      12017      12016  
     11885      11886      11897      11896      12006      12007      12018      12017  
     11886      11887      11898      11897      12007      12008      12019      12018  
     11887      11888      11899      11898      12008      12009      12020      12019  
     11888      11889      11900      11899      12009      12010      12021      12020  
     11889      11890      11901      11900      12010      12011      12022      12021  
     11890      11891      11902      11901      12011      12012      12023      12022  
     11892      11893      11904      11903      12013      12014      12025      12024  
     11893      11894      11905      11904      12014      12015      12026      12025  
     11894      11895      11906      11905      12015      12016      12027      12026  
     11895      11896      11907      11906      12016      12017      12028      12027  
     11896      11897      11908      11907      12017      12018      12029      12028  
     11897      11898      11909      11908      12018      12019      12030      12029  
     11898      11899      11910      11909      12019      12020      12031      12030  
     11899      11900      11911      11910      12020      12021      12032      12031  
     11900      11901      11912      11911      12021      12022      12033      12032  
     11901      11902      11913      11912      12022      12023      12034      12033  
     11903      11904      11915      11914      12024      12025      12036      12035  
     11904      11905      11916      11915      12025      12026      12037      12036  
     11905      11906      11917      11916      12026      12027      12038      12037  
     11906      11907      11918      11917      12027      12028      12039      12038  
     11907      11908      11919      11918      12028      12029      12040      12039  
     11908      11909      11920      11919      12029      12030      12041      12040  
     11909      11910      11921      11920      12030      12031      12042      12041  
     11910      11911      11922      11921      12031      12032      12043      12042  
     11911      11912      11923      11922      12032      12033      12044      12043  
     11912      11913      11924      11923      12033      12034      12045      12044  
     11914      11915      11926      11925      12035      12036      12047      12046  
     11915      11916      11927      11926      12036      12037      12048      12047  
     11916      11917      11928      11927      12037      12038      12049      12048  
     11917      11918      11929      11928      12038      12039      12050      12049  
     11918      11919      11930      11929      12039      12040      12051      12050  
     11919      11920      11931      11930      12040      12041      12052      12051  
     11920      11921      11932      11931      12041      12042      12053      12052  
     11921      11922      11933      11932      12042      12043      12054      12053  
     11922      11923      11934      11933      12043      12044      12055      12054  
     11923      11924      11935      11934      12044      12045      12056      12055  
     11925      11926      11937      11936      12046      12047      12058      12057  
     11926      11927      11938      11937      12047      12048      12059      12058  
     11927      11928      11939      11938      12048      12049      12060      12059  
     11928      11929      11940      11939      12049      12050      12061      12060  
     11929      11930      11941      11940      12050      12051      12062      12061  
     11930      11931      11942      11941      12051      12052      12063      12062  
     11931      11932      11943      11942      12052      12053      12064      12063  
     11932      11933      11944      11943      12053      12054      12065      12064  
     11933      11934      11945      11944      12054      12055      12066      12065  
     11934      11935      11946      11945      12055      12056      12067      12066  
     11936      11937      11948      11947      12057      12058      12069      12068  
     11937      11938      11949      11948      12058      12059      12070      12069  
     11938      11939      11950      11949      12059      12060      12071      12070  
     11939      11940      11951      11950      12060      12061      12072      12071  
     11940      11941      11952      11951      12061      12062      12073      12072  
     11941      11942      11953      11952      12062      12063      12074      12073  
     11942      11943      11954      11953      12063      12064      12075      12074  
     11943      11944      11955      11954      12064      12065      12076      12075  
     11944      11945      11956      11955      12065      12066      12077      12076  
     11945      11946      11957      11956      12066      12067      12078      12077  
     11947      11948      11959      11958      12068      12069      12080      12079  
     11948      11949      11960      11959      12069      12070      12081      12080  
     11949      11950      11961      11960      12070      12071      12082      12081  
     11950      11951      11962      11961      12071      12072      12083      12082  
     11951      11952      11963      11962      12072      12073      12084      12083  
     11952      11953      11964      11963      12073      12074      12085      12084  
     11953      11954      11965      11964      12074      12075      12086      12085  
     11954      11955      11966      11965      12075      12076      12087      12086  
     11955      11956      11967      11966      12076      12077      12088      12087  
     11956      11957      11968      11967      12077      12078      12089      12088  
     11958      11959      11970      11969      12079      12080      12091      12090  
     11959      11960      11971      11970      12080      12081      12092      12091  
     11960      11961      11972      11971      12081      12082      12093      12092  
     11961      11962      11973      11972      12082      12083      12094      12093  
     11962      11963      11974      11973      12083      12084      12095      12094  
     11963      11964      11975      11974      12084      12085      12096      12095  
     11964      11965      11976      11975      12085      12086      12097      12096  
     11965      11966      11977      11976      12086      12087      12098      12097  
     11966      11967      11978      11977      12087      12088      12099      12098  
     11967      11968      11979      11978      12088      12089      12100      12099  
     11980      11981      11992      11991      12101      12102      12113      12112  
     11981      11982      11993      11992      12102      12103      12114      12113  
     11982      11983      11994      11993      12103      12104      12115      12114  
     11983      11984      11995      11994      12104      12105      12116      12115  
     11984      11985      11996      11995      12105      12106      12117      12116  
     11985      11986      11997      11996      12106      12107      12118      12117  
     11986      11987      11998      11997      12107      12108      12119      12118  
     11987      11988      11999      11998      12108      12109      12120      12119  
     11988      11989      12000      11999      12109      12110      12121      12120  
     11989      11990      12001      12000      12110      12111      12122      12121  
     11991      11992      12003      12002      12112      12113      12124      12123  
     11992      11993      12004      12003      12113      12114      12125      12124  
     11993      11994      12005      12004      12114      12115      12126      12125  
     11994      11995      12006      12005      12115      12116      12127      12126  
     11995      11996      12007      12006      12116      12117      12128      12127  
     11996      11997      12008      12007      12117      12118      12129      12128  
     11997      11998      12009      12008      12118      12119      12130      12129  
     11998      11999      12010      12009      12119      12120      12131      12130  
     11999      12000      12011      12010      12120      12121      12132      12131  
     12000      12001      12012      12011      12121      12122      12133      12132  
     12002      12003      12014      12013      12123      12124      12135      12134  
     12003      12004      12015      12014      12124      12125      12136      12135  
     12004      12005      12016      12015      12125      12126      12137      12136  
     12005      12006      12017      12016      12126      12127      12138      12137  
     12006      12007      12018      12017      12127      12128      12139      12138  
     12007      12008      12019      12018      12128      12129      12140      12139  
     12008      12009      12020      12019      12129      12130      12141      12140  
     12009      12010      12021      12020      12130      12131      12142      12141  
     12010      12011      12022      12021      12131      12132      12143      12142  
     12011      12012      12023      12022      12132      12133      12144      12143  
     12013      12014      12025      12024      12134      12135      12146      12145  
     12014      12015      12026      12025      12135      12136      12147      12146  
     12015      12016      12027      12026      12136      12137      12148      12147  
     12016      12017      12028      12027      12137      12138      12149      12148  
     12017      12018      12029      12028      12138      12139      12150      12149  
     12018      12019      12030      12029      12139      12140      12151      12150  
     12019      12020      12031      12030      12140      12141      12152      12151  
     12020      12021      12032      12031      12141      12142      12153      12152  
     12021      12022      12033      12032      12142      12143      12154      12153  
     12022      12023      12034      12033      12143      12144      12155      12154  
     12024      12025      12036      12035      12145      12146      12157      12156  
     12025      12026      12037      12036      12146      12147      12158      12157  
     12026      12027      12038      12037      12147      12148      12159      12158  
     12027      12028      12039      12038      12148      12149      12160      12159  
     12028      12029      12040      12039      12149      12150      12161      12160  
     12029      12030      12041      12040      12150      12151      12162      12161  
     12030      12031      12042      12041      12151      12152      12163      12162  
     12031      12032      12043      12042      12152      12153      12164      12163  
     12032      12033      12044      12043      12153      12154      12165      12164  
     12033      12034      12045      12044      12154      12155      12166      12165  
     12035      12036      12047      12046      12156      12157      12168      12167  
     12036      12037      12048      12047      12157      12158      12169      12168  
     12037      12038      12049      12048      12158      12159      12170      12169  
     12038      12039      12050      12049      12159      12160      12171      12170  
     12039      12040      12051      12050      12160      12161      12172      12171  
     12040      12041      12052      12051      12161      12162      12173      12172  
     12041      12042      12053      12052      12162      12163      12174      12173  
     12042      12043      12054      12053      12163      12164      12175      12174  
     12043      12044      12055      12054      12164      12165      12176      12175  
     12044      12045      12056      12055      12165      12166      12177      12176  
     12046      12047      12058      12057      12167      12168      12179      12178  
     12047      12048      12059      12058      12168      12169      12180      12179  
     12048      12049      12060      12059      12169      12170      12181      12180  
     12049      12050      12061      12060      12170      12171      12182      12181  
     12050      12051      12062      12061      12171      12172      12183      12182  
     12051      12052      12063      12062      12172      12173      12184      12183  
     12052      12053      12064      12063      12173      12174      12185      12184  
     12053      12054      12065      12064      12174      12175      12186      12185  
     12054      12055      12066      12065      12175      12176      12187      12186  
     12055      12056      12067      12066      12176      12177      12188      12187  
     12057      12058      12069      12068      12178      12179      12190      12189  
     12058      12059      12070      12069      12179      12180      12191      12190  
     12059      12060      12071      12070      12180      12181      12192      12191  
     12060      12061      12072      12071      12181      12182      12193      12192  
     12061      12062      12073      12072      12182      12183      12194      12193  
     12062      12063      12074      12073      12183      12184      12195      12194  
     12063      12064      12075      12074      12184      12185      12196      12195  
     12064      12065      12076      12075      12185      12186      12197      12196  
     12065      12066      12077      12076      12186      12187      12198      12197  
     12066      12067      12078      12077      12187      12188      12199      12198  
     12068      12069      12080      12079      12189      12190      12201      12200  
     12069      12070      12081      12080      12190      12191      12202      12201  
     12070      12071      12082      12081      12191      12192      12203      12202  
     12071      12072      12083      12082      12192      12193      12204      12203  
     12072      12073      12084      12083      12193      12194      12205      12204  
     12073      12074      12085      12084      12194      12195      12206      12205  
     12074      12075      12086      12085      12195      12196      12207      12206  
     12075      12076      12087      12086      12196      12197      12208      12207  
     12076      12077      12088      12087      12197      12198      12209      12208  
     12077      12078      12089      12088      12198      12199      12210      12209  
     12079      12080      12091      12090      12200      12201      12212      12211  
     12080      12081      12092      12091      12201      12202      12213      12212  
     12081      12082      12093      12092      12202      12203      12214      12213  
     12082      12083      12094      12093      12203      12204      12215      12214  
     12083      12084      12095      12094      12204      12205      12216      12215  
     12084      12085      12096      12095      12205      12206      12217      12216  
     12085      12086      12097      12096      12206      12207      12218      12217  
     12086      12087      12098      12097      12207      12208      12219      12218  
     12087      12088      12099      12098      12208      12209      12220      12219  
     12088      12089      12100      12099      12209      12210      12221      12220  
