TITLE="results for TO code"
VARIABLES = "x", "y", "z", "density", "sigmaxx", "sigmayy", "sigmazz", "sigmaxy", "sigmaxz", "sigmayz"
ZONE T="load step 1", NODES= 12221, ELEMENTS= 10000, DATAPACKING=POINT, ZONETYPE=FEBRICK
               0.00000000                0.00000000                0.00000000                1.00000000                0.00000000               -0.00000000                1.83466289               -0.00000000                0.53498297                1.10012659
               1.00000000                0.00000000                0.00000000                1.00000000               -0.00000000                0.00000000                1.26007300                0.00000000                0.02993163                0.74792476
               2.00000000                0.00000000                0.00000000                1.00000000                0.00000000               -0.00000000                0.66883091                0.00000000               -0.16152955                0.37975804
               3.00000000                0.00000000                0.00000000                1.00000000                0.00000000               -0.00000000                0.14498106               -0.00000000               -0.14557520                0.08645893
               4.00000000                0.00000000                0.00000000                1.00000000               -0.00000000                0.00000000               -0.01396037                0.00000000               -0.03214046               -0.00751039
               5.00000000                0.00000000                0.00000000                1.00000000               -0.00000000               -0.00000000               -0.00586425               -0.00000000                0.00172450               -0.00513335
               6.00000000                0.00000000                0.00000000                1.00000000               -0.00000000               -0.00000000               -0.01410383                0.00000000               -0.00439038               -0.00156524
               7.00000000                0.00000000                0.00000000                1.00000000                0.00000000               -0.00000000               -0.08663844                0.00000000               -0.05324286               -0.09107163
               8.00000000                0.00000000                0.00000000                1.00000000                0.00000000                0.00000000               -0.76294543               -0.00000000               -0.05053907               -0.47063154
               9.00000000                0.00000000                0.00000000                1.00000000               -0.00000000               -0.00000000               -1.56395367               -0.00000000                0.24233892               -0.86818222
              10.00000000                0.00000000                0.00000000                1.00000000                0.00000000               -0.00000000               -2.25076051                0.00000000                0.86672014               -1.20737660
               0.00000000                1.00000000                0.00000000                1.00000000               -0.00000000                0.00000000                1.48678210                0.00000000                0.73923507                0.58801369
               1.00000000                1.00000000                0.00000000                1.00000000                0.00000000               -0.00000000                0.93256644               -0.00000000                0.26601820                0.36812284
               2.00000000                1.00000000                0.00000000                1.00000000                0.00000000               -0.00000000                0.40493776               -0.00000000                0.05480183                0.12097098
               3.00000000                1.00000000                0.00000000                1.00000000               -0.00000000               -0.00000000                0.04605876                0.00000000                0.00937338               -0.00665422
               4.00000000                1.00000000                0.00000000                1.00000000               -0.00000000               -0.00000000               -0.00113295               -0.00000000                0.00452834               -0.01455008
               5.00000000                1.00000000                0.00000000                1.00000000                0.00000000               -0.00000000               -0.00089874                0.00000000                0.00709386               -0.00373384
               6.00000000                1.00000000                0.00000000                1.00000000               -0.00000000               -0.00000000               -0.00743467               -0.00000000                0.02324421                0.00378032
               7.00000000                1.00000000                0.00000000                1.00000000                0.00000000               -0.00000000               -0.00851063                0.00000000                0.06667118               -0.01847856
               8.00000000                1.00000000                0.00000000                1.00000000               -0.00000000               -0.00000000               -0.37698815                0.00000000                0.15340639               -0.15721991
               9.00000000                1.00000000                0.00000000                1.00000000                0.00000000                0.00000000               -1.08495084                0.00000000                0.45815729               -0.38963884
              10.00000000                1.00000000                0.00000000                1.00000000               -0.00000000                0.00000000               -1.86327016                0.00000000                1.04573036               -0.56913519
               0.00000000                2.00000000                0.00000000                1.00000000                0.00000000               -0.00000000                1.44200053               -0.00000000                0.81513211                0.31044627
               1.00000000                2.00000000                0.00000000                1.00000000               -0.00000000                0.00000000                0.78913142                0.00000000                0.32700294                0.17007061
               2.00000000                2.00000000                0.00000000                1.00000000               -0.00000000               -0.00000000                0.17997413                0.00000000                0.11416616                0.01259254
               3.00000000                2.00000000                0.00000000                1.00000000                0.00000000               -0.00000000               -0.01656030               -0.00000000                0.04936155               -0.01081622
               4.00000000                2.00000000                0.00000000                1.00000000                0.00000000               -0.00000000                0.00355767                0.00000000                0.01973697               -0.00890312
               5.00000000                2.00000000                0.00000000                1.00000000               -0.00000000                0.00000000               -0.00055118               -0.00000000                0.01272482               -0.00384443
               6.00000000                2.00000000                0.00000000                1.00000000                0.00000000               -0.00000000               -0.00146326                0.00000000                0.02530333               -0.00302652
               7.00000000                2.00000000                0.00000000                1.00000000               -0.00000000               -0.00000000               -0.00004357                0.00000000                0.06407964               -0.01920000
               8.00000000                2.00000000                0.00000000                1.00000000                0.00000000               -0.00000000               -0.06685960                0.00000000                0.15574990               -0.02685784
               9.00000000                2.00000000                0.00000000                1.00000000               -0.00000000                0.00000000               -0.69578446                0.00000000                0.43283456               -0.13476649
              10.00000000                2.00000000                0.00000000                1.00000000                0.00000000                0.00000000               -1.76179911                0.00000000                1.03994301               -0.20789998
               0.00000000                3.00000000                0.00000000                1.00000000                0.00000000                0.00000000                1.38462141                0.00000000                0.80996066                0.13493908
               1.00000000                3.00000000                0.00000000                1.00000000               -0.00000000               -0.00000000                0.65481571               -0.00000000                0.33483602                0.05488801
               2.00000000                3.00000000                0.00000000                1.00000000                0.00000000                0.00000000                0.03973631                0.00000000                0.15726961               -0.03596653
               3.00000000                3.00000000                0.00000000                1.00000000               -0.00000000               -0.00000000                0.00329237               -0.00000000                0.06257560               -0.00957991
               4.00000000                3.00000000                0.00000000                1.00000000               -0.00000000                0.00000000                0.00118081                0.00000000                0.02538918               -0.00449390
               5.00000000                3.00000000                0.00000000                1.00000000               -0.00000000               -0.00000000               -0.00000305                0.00000000                0.01509858               -0.00309592
               6.00000000                3.00000000                0.00000000                1.00000000                0.00000000                0.00000000               -0.00064324               -0.00000000                0.02205582               -0.00531428
               7.00000000                3.00000000                0.00000000                1.00000000               -0.00000000               -0.00000000               -0.00894658                0.00000000                0.04908073               -0.01156217
               8.00000000                3.00000000                0.00000000                1.00000000               -0.00000000                0.00000000                0.03153387                0.00000000                0.11955003               -0.02288954
               9.00000000                3.00000000                0.00000000                1.00000000               -0.00000000                0.00000000               -0.41150629                0.00000000                0.32649818               -0.04302622
              10.00000000                3.00000000                0.00000000                1.00000000                0.00000000               -0.00000000               -1.57197511                0.00000000                0.88581927               -0.00651250
               0.00000000                4.00000000                0.00000000                1.00000000               -0.00000000               -0.00000000                1.31884918                0.00000000                0.77673875                0.01643180
               1.00000000                4.00000000                0.00000000                1.00000000               -0.00000000                0.00000000                0.51072339               -0.00000000                0.32568002               -0.02295107
               2.00000000                4.00000000                0.00000000                1.00000000               -0.00000000                0.00000000               -0.07260810                0.00000000                0.17836726               -0.05004259
               3.00000000                4.00000000                0.00000000                1.00000000                0.00000000                0.00000000                0.01272472                0.00000000                0.06981748               -0.00554955
               4.00000000                4.00000000                0.00000000                1.00000000                0.00000000               -0.00000000                0.00091745                0.00000000                0.02677332               -0.00206028
               5.00000000                4.00000000                0.00000000                1.00000000                0.00000000                0.00000000                0.00024104               -0.00000000                0.01478974               -0.00212527
               6.00000000                4.00000000                0.00000000                1.00000000               -0.00000000               -0.00000000               -0.00093417                0.00000000                0.01815620               -0.00414589
               7.00000000                4.00000000                0.00000000                1.00000000                0.00000000               -0.00000000               -0.00415458               -0.00000000                0.04008921               -0.00914947
               8.00000000                4.00000000                0.00000000                1.00000000               -0.00000000               -0.00000000                0.01383883                0.00000000                0.09793774               -0.01626199
               9.00000000                4.00000000                0.00000000                1.00000000               -0.00000000                0.00000000               -0.30547166               -0.00000000                0.27359738                0.01023504
              10.00000000                4.00000000                0.00000000                1.00000000               -0.00000000               -0.00000000               -1.38554962                0.00000000                0.75302673                0.08371381
               0.00000000                5.00000000                0.00000000                1.00000000               -0.00000000                0.00000000                1.24028157               -0.00000000                0.72247675               -0.06900532
               1.00000000                5.00000000                0.00000000                1.00000000                0.00000000                0.00000000                0.34270041                0.00000000                0.29380483               -0.06618385
               2.00000000                5.00000000                0.00000000                1.00000000               -0.00000000               -0.00000000               -0.11731424               -0.00000000                0.16603752               -0.03869561
               3.00000000                5.00000000                0.00000000                1.00000000                0.00000000               -0.00000000                0.01587739                0.00000000                0.06684471               -0.00195781
               4.00000000                5.00000000                0.00000000                1.00000000                0.00000000                0.00000000                0.00063451                0.00000000                0.02589090               -0.00024992
               5.00000000                5.00000000                0.00000000                1.00000000               -0.00000000               -0.00000000                0.00035365               -0.00000000                0.01354572               -0.00121745
               6.00000000                5.00000000                0.00000000                1.00000000                0.00000000                0.00000000               -0.00054887                0.00000000                0.01500036               -0.00325779
               7.00000000                5.00000000                0.00000000                1.00000000               -0.00000000               -0.00000000               -0.00352178               -0.00000000                0.03130500               -0.00777960
               8.00000000                5.00000000                0.00000000                1.00000000                0.00000000                0.00000000                0.00943320                0.00000000                0.07751903               -0.01366766
               9.00000000                5.00000000                0.00000000                1.00000000               -0.00000000               -0.00000000               -0.20804174               -0.00000000                0.22232311                0.04554567
              10.00000000                5.00000000                0.00000000                1.00000000                0.00000000                0.00000000               -1.19803306                0.00000000                0.64553696                0.15022972
               0.00000000                6.00000000                0.00000000                1.00000000               -0.00000000               -0.00000000                1.13109267                0.00000000                0.64596041               -0.12476508
               1.00000000                6.00000000                0.00000000                1.00000000               -0.00000000                0.00000000                0.20360405                0.00000000                0.25614116               -0.08360805
               2.00000000                6.00000000                0.00000000                1.00000000                0.00000000               -0.00000000               -0.11063837               -0.00000000                0.14488539               -0.02851279
               3.00000000                6.00000000                0.00000000                1.00000000               -0.00000000                0.00000000                0.01375466                0.00000000                0.06092464               -0.00065059
               4.00000000                6.00000000                0.00000000                1.00000000               -0.00000000               -0.00000000                0.00077263                0.00000000                0.02401287                0.00063877
               5.00000000                6.00000000                0.00000000                1.00000000               -0.00000000                0.00000000                0.00039147                0.00000000                0.01209636               -0.00056555
               6.00000000                6.00000000                0.00000000                1.00000000               -0.00000000                0.00000000               -0.00041285               -0.00000000                0.01209007               -0.00244437
               7.00000000                6.00000000                0.00000000                1.00000000               -0.00000000                0.00000000               -0.00219759               -0.00000000                0.02319553               -0.00587713
               8.00000000                6.00000000                0.00000000                1.00000000               -0.00000000                0.00000000                0.00400494                0.00000000                0.05251219               -0.00944104
               9.00000000                6.00000000                0.00000000                1.00000000               -0.00000000                0.00000000               -0.11546035                0.00000000                0.14383741                0.05704085
              10.00000000                6.00000000                0.00000000                1.00000000                0.00000000                0.00000000               -0.88301929                0.00000000                0.51714622                0.20468759
               0.00000000                7.00000000                0.00000000                1.00000000                0.00000000                0.00000000                0.99855512                0.00000000                0.56567171               -0.15692631
               1.00000000                7.00000000                0.00000000                1.00000000               -0.00000000               -0.00000000                0.10477637               -0.00000000                0.23067939               -0.08853484
               2.00000000                7.00000000                0.00000000                1.00000000                0.00000000                0.00000000               -0.11629629                0.00000000                0.13988381               -0.02145171
               3.00000000                7.00000000                0.00000000                1.00000000               -0.00000000               -0.00000000                0.01309225               -0.00000000                0.05865465                0.00079123
               4.00000000                7.00000000                0.00000000                1.00000000               -0.00000000                0.00000000                0.00068647                0.00000000                0.02231295                0.00163593
               5.00000000                7.00000000                0.00000000                1.00000000                0.00000000               -0.00000000                0.00040153               -0.00000000                0.01048082               -0.00000511
               6.00000000                7.00000000                0.00000000                1.00000000                0.00000000                0.00000000               -0.00028690               -0.00000000                0.00963538               -0.00190596
               7.00000000                7.00000000                0.00000000                1.00000000                0.00000000               -0.00000000               -0.00123704                0.00000000                0.01771362               -0.00351391
               8.00000000                7.00000000                0.00000000                1.00000000               -0.00000000                0.00000000               -0.00033585               -0.00000000                0.03655059                0.00081320
               9.00000000                7.00000000                0.00000000                1.00000000                0.00000000                0.00000000               -0.04413736               -0.00000000                0.08521056                0.06149768
              10.00000000                7.00000000                0.00000000                1.00000000               -0.00000000               -0.00000000               -0.52658735                0.00000000                0.35324959                0.17769680
               0.00000000                8.00000000                0.00000000                1.00000000               -0.00000000                0.00000000                0.85948118                0.00000000                0.49486454               -0.18941193
               1.00000000                8.00000000                0.00000000                1.00000000                0.00000000               -0.00000000                0.02653017                0.00000000                0.21539977               -0.07879752
               2.00000000                8.00000000                0.00000000                1.00000000               -0.00000000               -0.00000000               -0.15166810               -0.00000000                0.15043421               -0.00039626
               3.00000000                8.00000000                0.00000000                1.00000000                0.00000000               -0.00000000                0.01100329                0.00000000                0.06120017                0.01047809
               4.00000000                8.00000000                0.00000000                1.00000000               -0.00000000               -0.00000000                0.00006635                0.00000000                0.02026673                0.00473442
               5.00000000                8.00000000                0.00000000                1.00000000               -0.00000000                0.00000000                0.00052688               -0.00000000                0.00870972                0.00025823
               6.00000000                8.00000000                0.00000000                1.00000000               -0.00000000                0.00000000               -0.00015663                0.00000000                0.00769384               -0.00195733
               7.00000000                8.00000000                0.00000000                1.00000000                0.00000000               -0.00000000               -0.00091603               -0.00000000                0.01449751               -0.00345973
               8.00000000                8.00000000                0.00000000                1.00000000                0.00000000               -0.00000000               -0.00146160                0.00000000                0.03747473                0.00702088
               9.00000000                8.00000000                0.00000000                1.00000000                0.00000000               -0.00000000               -0.00721088                0.00000000                0.08109268                0.08177605
              10.00000000                8.00000000                0.00000000                1.00000000               -0.00000000                0.00000000               -0.40126034                0.00000000                0.27040449                0.14588834
               0.00000000                9.00000000                0.00000000                1.00000000                0.00000000               -0.00000000                0.69300895               -0.00000000                0.39215214               -0.26705635
               1.00000000                9.00000000                0.00000000                1.00000000               -0.00000000                0.00000000               -0.03637042               -0.00000000                0.19211251               -0.04279142
               2.00000000                9.00000000                0.00000000                1.00000000               -0.00000000               -0.00000000               -0.28470253                0.00000000                0.17087767                0.08440369
               3.00000000                9.00000000                0.00000000                1.00000000                0.00000000                0.00000000               -0.02462163                0.00000000                0.06934239                0.05040888
               4.00000000                9.00000000                0.00000000                1.00000000                0.00000000                0.00000000                0.00351970               -0.00000000                0.01894927                0.00971283
               5.00000000                9.00000000                0.00000000                1.00000000                0.00000000                0.00000000                0.00029274                0.00000000                0.00961876               -0.00083891
               6.00000000                9.00000000                0.00000000                1.00000000               -0.00000000                0.00000000               -0.00005331               -0.00000000                0.00684646               -0.00183870
               7.00000000                9.00000000                0.00000000                1.00000000               -0.00000000                0.00000000               -0.00037762               -0.00000000                0.01003561               -0.00560903
               8.00000000                9.00000000                0.00000000                1.00000000               -0.00000000               -0.00000000               -0.00407612                0.00000000                0.03553046               -0.00771119
               9.00000000                9.00000000                0.00000000                1.00000000               -0.00000000                0.00000000                0.08073040               -0.00000000                0.11880630                0.08910951
              10.00000000                9.00000000                0.00000000                1.00000000               -0.00000000               -0.00000000               -0.45568250                0.00000000                0.26536499                0.20308484
               0.00000000               10.00000000                0.00000000                1.00000000                0.00000000                0.00000000                0.65210114               -0.00000000                0.10536693               -0.44844808
               1.00000000               10.00000000                0.00000000                1.00000000               -0.00000000               -0.00000000               -0.07736953                0.00000000               -0.01478325                0.01386470
               2.00000000               10.00000000                0.00000000                1.00000000                0.00000000               -0.00000000               -0.50667439                0.00000000                0.10125418                0.33725581
               3.00000000               10.00000000                0.00000000                1.00000000                0.00000000                0.00000000               -0.13840703               -0.00000000                0.12885923                0.16006068
               4.00000000               10.00000000                0.00000000                1.00000000               -0.00000000               -0.00000000               -0.00008270               -0.00000000                0.05200117                0.02104419
               5.00000000               10.00000000                0.00000000                1.00000000               -0.00000000               -0.00000000               -0.00093750               -0.00000000                0.01774698                0.00256152
               6.00000000               10.00000000                0.00000000                1.00000000                0.00000000               -0.00000000                0.00082635                0.00000000                0.00938472               -0.00168110
               7.00000000               10.00000000                0.00000000                1.00000000               -0.00000000               -0.00000000                0.00261412               -0.00000000                0.01161195               -0.00794527
               8.00000000               10.00000000                0.00000000                1.00000000                0.00000000                0.00000000                0.01337178               -0.00000000                0.01526116               -0.02890175
               9.00000000               10.00000000                0.00000000                1.00000000               -0.00000000                0.00000000                0.10536231                0.00000000                0.01131318                0.01894693
              10.00000000               10.00000000                0.00000000                1.00000000                0.00000000                0.00000000               -0.57378453               -0.00000000                0.07748029                0.38656721
               0.00534983                0.01100127                1.01834663                1.00000000               -0.50505135               -0.51211290                1.78122054               -0.14794972               -0.05334454                0.50188673
               1.00029932                0.00747925                1.01260073                1.00000000               -0.34825626               -0.37980192                1.26454602               -0.12409770               -0.27683849                0.24957499
               1.99838470                0.00379758                1.00668831                0.88292638               -0.08775341               -0.25878706                0.72591416               -0.11440153               -0.39778623                0.02781469
               2.99854425                0.00086459                1.00144981                0.46534838                0.06469455               -0.09311315                0.23407405               -0.03868563               -0.24931087               -0.09234179
               3.99967860               -0.00007510                0.99986040                0.37941666                0.07364985               -0.00703969               -0.04189956               -0.00912734                0.17510119               -0.08920928
               5.00001724               -0.00005133                0.99994136                0.38197893                0.01387504                0.00139951               -0.12902543                0.00834194                0.38939029               -0.07739411
               5.99995610               -0.00001565                0.99985896                0.43884682               -0.02748368                0.00534556               -0.25637121               -0.01533455                0.32623403               -0.06896755
               6.99946757               -0.00091072                0.99913362                0.61282308               -0.02307434                0.07259306               -0.54140224               -0.11461911               -0.06724967               -0.12147967
               7.99949461               -0.00470632                0.99237055                1.00000000                0.14779089                0.31341162               -0.94759346               -0.18460984               -0.35163266               -0.04407217
               9.00242339               -0.00868182                0.98436046                1.00000000                0.45862960                0.47854338               -1.53348234               -0.15255416               -0.15996082               -0.19359083
              10.00866720               -0.01207377                0.97749239                1.00000000                0.62438122                0.63824141               -2.15412327               -0.16018415                0.14991681               -0.51822087
               0.00739235                1.00588014                1.01486782                1.00000000               -0.47321687               -0.39484016                1.57805679               -0.07981628                0.18922566                0.40861104
               1.00266018                1.00368123                1.00932566                1.00000000               -0.34221662               -0.28892708                1.05381630               -0.08498569               -0.00792172                0.16374795
               2.00054802                1.00120971                1.00404938                0.39549151               -0.12832241               -0.18358275                0.56785815               -0.04954067               -0.04441321               -0.06767479
               3.00009373                0.99993346                1.00046059                0.00010000               -0.02513675               -0.04863757                0.18871330                0.02970784                0.14951445               -0.13501905
               4.00004528                0.99985450                0.99998867                0.00010000               -0.00113976               -0.00069637                0.01160706                0.02739890                0.31440285               -0.13809200
               5.00007094                0.99996266                0.99999101                0.00010000                0.00935793                0.00064446               -0.05393510                0.01466536                0.36824011               -0.05575494
               6.00023244                1.00003780                0.99992565                0.00010000                0.02978866               -0.00073064               -0.16878961                0.00747450                0.43177959                0.03897670
               7.00066671                0.99981521                0.99991489                0.01130471                0.06508109                0.03593581               -0.39692279               -0.02183886                0.33309461                0.00738735
               8.00153406                0.99842780                0.99623012                0.82577845                0.19574306                0.22188685               -0.77001601               -0.08243565                0.05908746                0.09125391
               9.00458157                0.99610361                0.98915049                1.00000000                0.44616199                0.36670787               -1.33384742               -0.11070982                0.04553357               -0.02595331
              10.01045730                0.99430865                0.98136730                1.00000000                0.58757307                0.49973831               -1.89280952               -0.09288491                0.26136943               -0.37661776
               0.00815132                2.00310446                1.01442001                1.00000000               -0.48812917               -0.22653730                1.48278261               -0.10501287                0.21553314                0.34474866
               1.00327003                2.00170071                1.00789131                1.00000000               -0.35048297               -0.15661742                0.88775917               -0.11451796                0.03319276                0.11138493
               2.00114166                2.00012593                1.00179974                0.05679078               -0.13882069               -0.07846876                0.30063041               -0.03920952                0.14809214               -0.10160498
               3.00049362                1.99989184                0.99983440                0.00010000               -0.04721460               -0.00146285                0.02658150                0.01585328                0.55484838               -0.17795918
               4.00019737                1.99991097                1.00003558                0.00010000               -0.01831837                0.00502809               -0.01437265                0.01391631                0.64455924               -0.11093713
               5.00012725                1.99996156                0.99999449                0.00010000                0.00278318                0.00031896               -0.07607015                0.00694066                0.62255392               -0.07411112
               6.00025303                1.99996973                0.99998537                0.00010000                0.02567741               -0.00454730               -0.14309788               -0.00827198                0.68656785               -0.02826358
               7.00064080                1.99980800                0.99999956                0.00010000                0.06522329                0.00345819               -0.37532746               -0.02071089                0.80039083                0.02382974
               8.00155750                1.99973142                0.99933140                0.15271799                0.18437746                0.06716519               -0.62730358               -0.07471142                0.43481830                0.10780291
               9.00432835                1.99865234                0.99304216                1.00000000                0.44209655                0.17330631               -1.08249933               -0.15635062                0.07020296                0.05765795
              10.01039943                1.99792100                0.98238201                1.00000000                0.60710845                0.28131134               -1.70339559               -0.15308904                0.08169586               -0.21905844
               0.00809961                3.00134939                1.01384621                1.00000000               -0.47512464               -0.14700723                1.41204553               -0.09924776                0.20561197                0.18771366
               1.00334836                3.00054888                1.00654816                1.00000000               -0.32634552               -0.09651084                0.74128178               -0.08611426                0.06382225                0.00879355
               2.00157270                2.99964033                1.00039736                0.00010000               -0.13613021               -0.03131756                0.06224253               -0.00013341                0.33071863               -0.10855591
               3.00062576                2.99990420                1.00003292                0.00010000               -0.06594022                0.00263334               -0.27475316                0.02596428                0.79723637               -0.19214403
               4.00025389                2.99995506                1.00001181                0.00010000               -0.02373851                0.00342142               -0.03931717                0.00676017                0.81973649               -0.07339967
               5.00015099                2.99996904                0.99999997                0.00010000               -0.00166668                0.00085958               -0.08261195                0.00062227                0.82224451               -0.06474312
               6.00022056                2.99994686                0.99999357                0.00010000                0.01699107               -0.00055968               -0.13862263               -0.00780670                0.83655611               -0.03771731
               7.00049081                2.99988438                0.99991053                0.00010000                0.04874711                0.00502527               -0.15229053               -0.02078285                0.89181620                0.00478577
               8.00119550                2.99977110                1.00031534                0.03760028                0.13870873                0.00529793               -0.61672717               -0.04463811                0.85321184                0.04565104
               9.00326498                2.99956974                0.99588494                1.00000000                0.38313462                0.07250077               -0.72343541               -0.07143007                0.11951016                0.02452245
              10.00885819                2.99993488                0.98428025                1.00000000                0.55932109                0.14580689               -1.54698027               -0.10694442               -0.01934127                0.01097642
               0.00776739                4.00016432                1.01318849                1.00000000               -0.45105872               -0.10197220                1.33173406               -0.08312483                0.16504307                0.07444516
               1.00325680                3.99977049                1.00510723                0.89663543               -0.29918574               -0.06053593                0.60888838               -0.05375279                0.09163069               -0.08022398
               2.00178367                3.99949957                0.99927392                0.00010000               -0.12793127               -0.00136454               -0.13007397                0.01308472                0.49761682               -0.10346750
               3.00069817                3.99994450                1.00012725                0.00010000               -0.07579697                0.00381105               -0.08116304                0.02612570                0.90724080               -0.07767717
               4.00026773                3.99997940                1.00000917                0.00010000               -0.02751387                0.00212199               -0.09138051                0.00196300                0.93523342               -0.06993098
               5.00014790                3.99997875                1.00000241                0.00010000               -0.00430856                0.00093923               -0.08629415               -0.00181923                0.97506020               -0.04566139
               6.00018156                3.99995854                0.99999066                0.00010000                0.01264973                0.00102825               -0.09586547               -0.00703982                0.98561384               -0.01968400
               7.00040089                3.99990851                0.99995845                0.00010000                0.03989077                0.00189129               -0.10031939               -0.01494591                1.01104953                0.00860030
               8.00097938                3.99983738                1.00013839                0.02444424                0.11675408                0.00461094               -0.03773289               -0.01132324                0.81455187                0.09364386
               9.00273597                4.00010235                0.99694528                1.00000000                0.32754450                0.04428595               -0.51931066               -0.00209964                0.19950414                0.01963717
              10.00753027                4.00083714                0.98614450                1.00000000                0.47942936                0.07837111               -1.37803125               -0.04666239                0.00485973                0.12274388
               0.00722477                4.99930995                1.01240282                1.00000000               -0.42867192               -0.07059844                1.23656178               -0.06256769                0.09518227               -0.02337705
               1.00293805                4.99933816                1.00342700                0.73610101               -0.27821961               -0.03032849                0.47588739               -0.01961457                0.14845638               -0.12952549
               2.00166038                4.99961304                0.99882686                0.00010000               -0.11348006                0.01076490               -0.34078221                0.01537209                0.66023281               -0.07173221
               3.00066845                4.99998042                1.00015877                0.00010000               -0.07007331                0.00244948               -0.19544253                0.01477642                1.06851465               -0.11670784
               4.00025891                4.99999750                1.00000635                0.00010000               -0.02664949                0.00134953               -0.12622949               -0.00101005                1.07380144               -0.06060351
               5.00013546                4.99998783                1.00000354                0.00010000               -0.00544527                0.00077986               -0.08648335               -0.00285062                1.10635557               -0.03030209
               6.00015000                4.99996742                0.99999451                0.00010000                0.00887964                0.00085076               -0.05627018               -0.00631413                1.11055400               -0.00822025
               7.00031305                4.99992220                0.99996478                0.00010000                0.03125934                0.00163617                0.00417240               -0.01365178                1.08022440                0.02522408
               8.00077519                4.99986332                1.00009433                0.03019139                0.09550905                0.00341048                0.40234142                0.00394986                0.79249144                0.14482784
               9.00222323                5.00045546                0.99791958                0.93793666                0.28400896                0.02340290               -0.36497083                0.01706871                0.26407545                0.08388741
              10.00645537                5.00150230                0.98801967                1.00000000                0.42321385                0.06048689               -1.26141576               -0.01325620                0.03676932                0.27170600
               0.00645960                5.99875235                1.01131093                1.00000000               -0.38981926               -0.04396050                1.13071973               -0.03724549                0.06103448               -0.11024634
               1.00256141                5.99916392                1.00203604                0.66147803               -0.25053751               -0.01117550                0.31517378                0.01656343                0.22944035               -0.12738976
               2.00144885                5.99971487                0.99889362                0.08026638               -0.09760826                0.00862195               -0.57685243                0.02840187                0.78044009               -0.05622163
               3.00060925                5.99999349                1.00013755                0.00010000               -0.06043626                0.00137452               -0.80852280                0.01048075                1.21052490               -0.10036884
               4.00024013                6.00000639                1.00000773                0.00010000               -0.02441414                0.00094292               -0.14762376               -0.00174646                1.20143674               -0.03395161
               5.00012096                5.99999434                1.00000391                0.00010000               -0.00596140                0.00060617               -0.09070408               -0.00307402                1.21743666               -0.01291454
               6.00012090                5.99997556                0.99999587                0.00010000                0.00554958                0.00067592               -0.01627882               -0.00533828                1.20892618                0.00189575
               7.00023196                5.99994123                0.99997802                0.00010000                0.02021106                0.00213284                0.09313130               -0.01029402                1.13684562                0.03132093
               8.00052512                5.99990559                1.00004005                0.04760890                0.06032094                0.00724043                0.80215413                0.01097477                0.76928524                0.16576468
               9.00143837                6.00057041                0.99884540                0.76817678                0.23231702                0.00797600               -0.24228292                0.03850804                0.37966889                0.13212308
              10.00517146                6.00204688                0.99116981                1.00000000                0.37330882                0.01373354               -1.22430750                0.00150305                0.18890174                0.43674351
               0.00565672                6.99843074                1.00998555                1.00000000               -0.33499232               -0.03232343                1.01387366               -0.00715647                0.06441533               -0.17394636
               1.00230679                6.99911465                1.00104776                0.65834930               -0.21289395                0.00240527                0.15805946                0.04736660                0.28906532               -0.10725882
               2.00139884                6.99978548                0.99883704                0.18383535               -0.08601237                0.01405826               -0.76995615                0.04743744                0.85026779               -0.04021094
               3.00058655                7.00000791                1.00013092                0.00010000               -0.05878543                0.00556434               -1.23488728                0.01168159                1.26470156                0.05204182
               4.00022313                7.00001636                1.00000686                0.00010000               -0.02408691                0.00204783               -0.18042443               -0.00227124                1.28080555                0.00866733
               5.00010481                6.99999995                1.00000402                0.00010000               -0.00633878                0.00041189               -0.10113408               -0.00346427                1.29982765                0.01075909
               6.00009635                6.99998094                0.99999713                0.00010000                0.00361640                0.00024352                0.01609961               -0.00395251                1.28822554                0.00757350
               7.00017714                6.99996486                0.99998763                0.00010000                0.01345761                0.00120870                0.16896135               -0.00298943                1.17911538                0.02331333
               8.00036551                7.00000813                0.99999664                0.08080685                0.03374847                0.00823096                1.16180616                0.02498707                0.74288799                0.14324573
               9.00085211                7.00061498                0.99955863                0.69856842                0.15834950                0.01236760               -0.08243477                0.05706943                0.51948117                0.15676137
              10.00353250                7.00177697                0.99473413                1.00000000                0.26803903               -0.02939963               -1.17518814               -0.00717174                0.39162170                0.38698034
               0.00494865                7.99810588                1.00859481                1.00000000               -0.27946477               -0.05506502                0.88620674                0.02385463                0.06865020               -0.24000559
               1.00215400                7.99921202                1.00026530                0.72365619               -0.17221517                0.02287171                0.04022374                0.07522439                0.31438703               -0.08149563
               2.00150434                7.99999604                0.99848332                0.31372804               -0.07709980                0.05292770               -0.88389031                0.06013474                0.88487392               -0.02214498
               3.00061200                8.00010478                1.00011003                0.00010000               -0.06508374                0.02480883               -1.17440693                0.00790921                1.31657107                0.15003768
               4.00020267                8.00004734                1.00000066                0.00010000               -0.02624522                0.00403845               -0.22493647               -0.00679177                1.29752692                0.08328448
               5.00008710                8.00000258                1.00000527                0.00010000               -0.00628644               -0.00041690               -0.11976980               -0.00377691                1.35546067                0.03704141
               6.00007694                7.99998043                0.99999843                0.00010000                0.00289390                0.00003363                0.04149091               -0.00325344                1.34878352                0.00670254
               7.00014498                7.99996540                0.99999084                0.00010000                0.01489044               -0.00104756                0.22612651                0.00065010                1.21584691                0.00458706
               8.00037475                8.00007021                0.99998538                0.14698819                0.03329758               -0.00426220                1.41481310                0.04210782                0.73185705                0.04949300
               9.00081093                8.00081776                0.99992789                0.75584392                0.11646488                0.01380592                0.11984680                0.08623160                0.55845657                0.18621138
              10.00270404                8.00145888                0.99598740                1.00000000                0.18931182                0.01269402               -0.98310608                0.02016998                0.43205789                0.19756151
               0.00392152                8.99732944                1.00693009                1.00000000               -0.20003963               -0.12951808                0.75208774                0.02951612                0.06261006               -0.26323697
               1.00192113                8.99957209                0.99963630                0.88775876               -0.11063724                0.04633111               -0.04934940                0.06063851                0.24870057               -0.04369418
               2.00170878                9.00084404                0.99715297                0.52137408               -0.06138506                0.16882604               -0.85643292                0.02201014                0.84694357               -0.01503381
               3.00069342                9.00050409                0.99975378                0.00010000               -0.07596420                0.07479129               -1.11056976               -0.00351590                1.27618454                0.19529058
               4.00018949                9.00009713                1.00003520                0.00010000               -0.02986181                0.00815488               -0.26676706               -0.00975668                1.27968997                0.16889270
               5.00009619                8.99999161                1.00000293                0.00010000               -0.00605141                0.00115164               -0.14243817               -0.00125714                1.39766166                0.06423294
               6.00006846                8.99998161                0.99999947                0.00010000                0.00020843                0.00013812                0.05875632               -0.00153962                1.39764627                0.00370727
               7.00010036                8.99994391                0.99999622                0.00010000                0.01434200               -0.00224277                0.27952744               -0.00437903                1.23219464               -0.04038906
               8.00035530                8.99992289                0.99995924                0.31152956                0.05438535               -0.01796132                1.48472057                0.03625248                0.77287385               -0.02860713
               9.00118806                9.00089110                1.00080730                1.00000000                0.11491726               -0.03141456                0.25113105                0.07050827                0.50827657                0.14556259
              10.00265365                9.00203085                0.99544317                1.00000000                0.14655868                0.12033944               -0.69152475                0.01751323                0.23860813                0.09759410
               0.00105367                9.99551552                1.00652101                1.00000000               -0.12015018               -0.18139174                0.65360350                0.17552757               -0.16179241               -0.29238206
               0.99985217               10.00013865                0.99922630                1.00000000               -0.00205638                0.05665612               -0.13293006                0.18595619               -0.03426097               -0.00430163
               2.00101254               10.00337256                0.99493326                0.84044701                0.07182124                0.25285212               -0.89033264                0.00347450                0.64155204                0.07797578
               3.00128859               10.00160061                0.99861593                0.37166400               -0.02462650                0.10965180               -1.25229247               -0.09858897                1.25685730                0.31012262
               4.00052001               10.00021044                0.99999917                0.35039586               -0.05555613                0.01133136               -0.32359763               -0.04569768                1.37703418                0.27603040
               5.00017747               10.00002562                0.99999063                0.36425350               -0.02130823                0.00340043               -0.18010339               -0.00323443                1.48224911                0.10695571
               6.00009385                9.99998319                1.00000826                0.39931924               -0.00306751                0.00015761                0.06167723               -0.00271514                1.47138806                0.00430279
               7.00011612                9.99992055                1.00002614                0.46948887                0.00293822               -0.00233624                0.31121693               -0.01203399                1.26843673               -0.10393527
               8.00015261                9.99971098                1.00013372                0.74193359               -0.00014939               -0.02119056                1.58457218               -0.00682320                0.68677273               -0.10782556
               9.00011313               10.00018947                1.00105362                1.00000000                0.03110957               -0.07016258                0.29530432                0.10024135                0.30342778                0.03175988
              10.00077480               10.00386567                0.99426215                1.00000000                0.06616712                0.18348237               -0.55469561                0.17973559               -0.08260372                0.13716206
               0.01042491                0.01699535                2.03562441                1.00000000               -0.43033571               -0.48965059                1.72799154               -0.10097996               -0.25349939                0.23619130
               1.00612155                0.01154163                2.02529092                1.00000000               -0.36148560               -0.35572563                1.26362035               -0.10421375               -0.24656577                0.01258395
               2.00319519                0.00583416                2.01451828                0.95512045               -0.21399272               -0.22990849                0.76582598               -0.09233928               -0.26700100               -0.09689207
               3.00184170                0.00013161                2.00468148                0.49668513                0.09076409               -0.12165777                0.29632896                0.12718553               -0.06904295               -0.11707815
               4.00501048               -0.00204073                1.99916201                0.40682487                0.29737725               -0.08962865               -0.01173013                0.08577541                0.45992202               -0.05391454
               5.00778924               -0.00164719                1.99741949                0.41313126                0.11609729                0.04789627               -0.22510621               -0.00974210                0.78407394               -0.01173799
               6.00733242               -0.00151273                1.99487258                0.48791038               -0.08229089                0.21658624               -0.49898506                0.02068095                0.60547493                0.00998416
               7.00614342               -0.00399215                1.98917196                0.70505902                0.02040382                0.32739478               -0.82452025                0.06700769                0.30804170                0.02743392
               8.00774050               -0.00860059                1.98104813                1.00000000                0.27677559                0.34648089               -1.13220280               -0.05242096                0.08545006                0.00089306
               9.01167893               -0.01345187                1.96933035                1.00000000                0.44969870                0.42511150               -1.52443674               -0.06622608               -0.08836552               -0.08769453
              10.01673447               -0.01811422                1.95691753                1.00000000                0.50555387                0.56922553               -1.99611577               -0.06030494               -0.17635610               -0.11450997
               0.01486883                1.01209884                2.03156114                1.00000000               -0.42088175               -0.45393850                1.65691487               -0.06429006               -0.04115893                0.34645725
               1.01066001                1.00798437                2.02107633                1.00000000               -0.34460069               -0.32682125                1.16884292               -0.07006016                0.02361220                0.06535045
               2.00797681                1.00353507                2.01135716                0.62617866               -0.18045065               -0.21071210                0.69515471               -0.06228885                0.14208379               -0.18863742
               3.00705100                0.99891503                2.00377427                0.00010000               -0.06095903               -0.16315650                0.24969410                0.22736722                0.41394232               -0.22922890
               4.00675763                0.99706298                2.00023214                0.00010000                0.01884117               -0.01005731                0.01941319                0.38186774                0.71154956               -0.19896138
               5.00742782                0.99883177                1.99892130                0.00010000                0.09770394                0.00780065               -0.14136557                0.41510980                0.81722245               -0.11285483
               6.00871171                1.00065313                1.99662421                0.00010000                0.14648037                0.04397741               -0.37200703                0.34219430                0.75397418                0.03073799
               7.01035743                0.99928180                1.99206154                0.20616885                0.16172202                0.22365519               -0.70264085                0.23647246                0.58793802               -0.02198457
               8.01194615                0.99486422                1.98459968                1.00000000                0.27080322                0.33357134               -1.04538085               -0.02846402                0.33170740               -0.03010045
               9.01577349                0.99079924                1.97332305                1.00000000                0.44238119                0.39352933               -1.48139077               -0.03058347                0.16537680               -0.06007399
              10.02079377                0.98757803                1.96214381                1.00000000                0.50202836                0.54100526               -1.89697467               -0.01113425                0.12082138               -0.22284756
               0.01736804                2.00791658                2.02965565                1.00000000               -0.40839257               -0.35565288                1.53205932               -0.09916107                0.02098582                0.39620704
               1.01328412                2.00500521                2.01775518                1.00000000               -0.31746423               -0.25122117                0.99485820               -0.11156891                0.07451856                0.07231317
               2.01101876                2.00161991                2.00601261                0.22096402               -0.02114935               -0.15901839                0.44759099               -0.14919661                0.39160615               -0.30842636
               3.01286113                1.99686848                2.00053163                0.00010000                0.08561668               -0.15253817               -0.00472801                0.27087457                0.91910093               -0.49436349
               4.01273109                1.99775812                1.99971255                0.00010000               -0.01799222                0.07477146               -0.04577780                0.56551963                1.25470979               -0.20875291
               5.01250129                1.99850882                1.99847860                0.00010000                0.04975936               -0.00672776               -0.16789291                0.53220027                1.27437000               -0.18394877
               6.01372628                1.99936681                1.99713804                0.00010000                0.20802462               -0.07063827               -0.34818091                0.50404901                1.18791024               -0.09768739
               7.01666178                2.00048095                1.99249345                0.00010000                0.09637471                0.04275136               -0.42969194                0.29305749                1.02160165                0.17853079
               8.01565378                1.99807084                1.98745393                0.43760928                0.08458371                0.26209083               -0.89612949                0.15407210                0.80280643               -0.13985114
               9.01835345                1.99441871                1.97835001                1.00000000                0.36502176                0.28940395               -1.34992104               -0.13565777                0.43503676                0.15065872
              10.02295421                1.99270588                1.96593209                1.00000000                0.46007559                0.44395014               -1.67972071               -0.06984447                0.19287558               -0.25169553
               0.01870835                3.00498579                2.02824091                1.00000000               -0.39830573               -0.24921394                1.43313033               -0.09781692                0.04505066                0.32012073
               1.01472530                3.00295995                2.01482564                1.00000000               -0.27893736               -0.17442663                0.82521071               -0.10840075                0.09123290                0.03851759
               2.01312961                3.00035470                2.00124485                0.07564307                0.08024932               -0.10593798                0.15364366               -0.15910595                0.43460838               -0.28426828
               3.01633028                2.99586427                1.99450494                0.00010000                0.16490390                0.07260630               -0.37328659                0.13760665                1.40434028               -0.15438226
               4.01642768                2.99855841                1.99921366                0.00010000                0.00664241                0.04243617               -0.14402099                0.44656790                1.86103694               -0.19935156
               5.01646313                2.99869722                1.99834776                0.00010000                0.01964367                0.02871922               -0.19185197                0.38501934                1.63787362               -0.13904976
               6.01682056                2.99924036                1.99722755                0.00010000                0.05257111                0.01192811               -0.26521137                0.37347811                1.69196422               -0.06768428
               7.01751455                3.00013683                1.99695419                0.00010000                0.21346383               -0.01815981               -0.42999544                0.21385771                1.32028197                0.14759212
               8.02108983                3.00010604                1.98766546                0.29929919                0.04553702                0.20115230               -0.54800563                0.00504643                1.08077644                0.38209373
               9.01842529                2.99658732                1.98553129                1.00000000                0.08663586                0.19696922               -1.05977050               -0.20092449                0.75887063                0.19414411
              10.02282255                2.99645703                1.96906039                1.00000000                0.43972580                0.30047881               -1.51202250               -0.07580156               -0.02857084               -0.15015807
               0.01946338                4.00293230                2.02663468                1.00000000               -0.37161905               -0.17878813                1.33561937               -0.08421704                0.08415741                0.21729078
               1.01574719                4.00151667                2.01217777                1.00000000               -0.22655270               -0.12396338                0.67158974               -0.08056782                0.12930003               -0.00125965
               2.01493232                3.99950116                1.99739852                0.05723135                0.08311870               -0.07045228               -0.11223632                0.00736066                0.92811542               -0.29524204
               3.01740956                3.99832061                1.99837674                0.00010000                0.19485911                0.08956374               -0.24659455                0.14831055                1.84993910                0.05564867
               4.01882951                3.99860684                1.99817239                0.00010000                0.10550799                0.01154847               -0.22220060                0.29830905                1.93216994               -0.15859997
               5.01951972                3.99908321                1.99827412                0.00010000                0.04633638                0.03476193               -0.20024235                0.33371738                1.99818158               -0.09411735
               6.01975623                3.99960538                1.99808269                0.00010000                0.02767701                0.02950095               -0.20257270                0.32319149                2.00685510               -0.01639403
               7.02007326                4.00011776                1.99799361                0.00010000               -0.02260124                0.01740432               -0.18298863                0.32393111                2.03005105                0.06137648
               8.01930421                4.00209388                1.99924534                0.29182058               -0.10446467                0.14444296               -0.01445133               -0.24772328                1.36791668                0.86761774
               9.01798397                3.99835810                1.98961379                1.00000000                0.11972727                0.15951571               -0.77826173               -0.22237742                0.43624916                0.08824208
              10.02169875                3.99871546                1.97243937                1.00000000                0.37147864                0.19758916               -1.35977144               -0.07863102               -0.00101396               -0.06561162
               0.01985527                5.00141002                2.02473124                1.00000000               -0.33101828               -0.13599819                1.23075277               -0.07757981                0.12624610                0.12400667
               1.01654509                5.00048068                2.00951775                1.00000000               -0.16911911               -0.08426141                0.52560628               -0.06027174                0.14345852               -0.07111551
               2.01647289                4.99894566                1.99318436                0.09725935                0.18228599               -0.03178837               -0.39521472               -0.01250835                1.09567898               -0.35450989
               3.02019081                4.99765554                1.99609115                0.00010000                0.25791899               -0.01500659               -0.41866190                0.27652736                2.16771719               -0.65894784
               4.02163127                4.99878938                1.99747541                0.00010000                0.09740698                0.03568025               -0.29785622                0.35348857                2.23503756               -0.06556812
               5.02213895                4.99939245                1.99827033                0.00010000                0.03092841                0.03290126               -0.20489583                0.29409356                2.29249881               -0.05710735
               6.02224983                4.99983038                1.99887460                0.00010000               -0.03171389                0.02149595               -0.11452157                0.27703195                2.31569021                0.00786945
               7.02150467                5.00048491                2.00008345                0.00010000               -0.21774030                0.02429066                0.06682175                0.28919939                2.56687437                0.12393485
               8.01789503                5.00299490                2.00804683                0.30294241               -0.20742479                0.06595501                0.45438862               -0.17465762                1.50877783                0.75441716
               9.01735617                4.99977764                1.99270058                1.00000000                0.13200921                0.13226599               -0.54858893               -0.20532131                0.17606005                0.09387674
              10.02053521                5.00040882                1.97477168                1.00000000                0.31790410                0.16524781               -1.25749085               -0.06535886               -0.02012065               -0.10057281
               0.01977046                6.00021234                2.02261439                1.00000000               -0.27643445               -0.10864182                1.12044728               -0.07265859                0.10687136                0.03584238
               1.01700612                5.99983145                2.00630348                0.92498970               -0.11315830               -0.04275605                0.35470384               -0.04811075                0.10643467               -0.12840306
               2.01750730                5.99886539                1.98846295                0.17433372                0.30451353                0.03302100               -0.68059114               -0.01808300                0.75172165               -0.32417251
               3.02309639                5.99802047                1.98382954                0.00010000                0.33275355                0.17064031               -0.97289821                0.21942292                2.30222828               -0.90147736
               4.02416237                5.99932045                1.99704752                0.00010000                0.06321000                0.06955156               -0.42745627                0.29162540                2.93153647               -0.01652756
               5.02436059                5.99974123                1.99818592                0.00010000                0.00210237                0.04106869               -0.21319653                0.22910943                2.52466293               -0.02991542
               6.02420441                6.00003530                1.99967442                0.00010000               -0.08339267                0.01592630               -0.03127500                0.21967014                2.57359867                0.02376682
               7.02269273                6.00060357                2.00186263                0.00010000               -0.38430409               -0.00157304                0.29801583                0.27279093                3.02994851                0.11448755
               8.01651833                6.00341298                2.01604308                0.32793092               -0.31145572               -0.00376579                0.86690577               -0.11042093                1.61910110                0.70729425
               9.01646362                6.00100342                1.99515434                1.00000000                0.13054405                0.11375488               -0.33971815               -0.15483021               -0.11434055                0.16440734
              10.01912921                6.00202041                1.97551385                1.00000000                0.26655932                0.12566003               -1.22095822               -0.05098940               -0.13873557               -0.10276919
               0.01916388                6.99923719                2.02027747                1.00000000               -0.22340612               -0.09784939                1.00737195               -0.04808440                0.06599402               -0.05363108
               1.01692982                6.99962556                2.00316119                0.90821436               -0.06208423               -0.00249449                0.17255667               -0.01189965                0.06477669               -0.10828585
               2.01792220                6.99960608                1.98460088                0.27725248                0.35971916                0.11878875               -0.92889918                0.08941195                0.53127354               -0.17877062
               3.02412420                7.00106835                1.97530225                0.00010000                0.39104106                0.26787090               -1.35256709                0.11460098                2.36664706               -0.26503687
               4.02574302                7.00018041                1.99639151                0.00010000                0.09410415                0.11584545               -0.58174333                0.05192068                3.39145930                0.00720307
               5.02600629                7.00021383                1.99797732                0.00010000                0.00189391                0.05003428               -0.23943885                0.13596769                2.72178897               -0.01192093
               6.02578090                7.00014891                2.00032199                0.00010000               -0.12117448                0.00482097                0.03809733                0.15126543                2.79123763                0.02663843
               7.02358280                7.00045345                2.00337923                0.00010000               -0.52470667               -0.02602121                0.50074499                0.22039629                3.43673527                0.08414994
               8.01528676                7.00291958                2.02323612                0.37084735               -0.39653293               -0.11928607                1.24559842               -0.01094806                1.75490584                0.55541508
               9.01565214                7.00205273                1.99835130                1.00000000                0.10973354                0.07360661               -0.11743165               -0.06470321               -0.37774435                0.27129545
              10.01748143                7.00292202                1.97649624                1.00000000                0.18292954                0.06108843               -1.18152314               -0.04342486               -0.29691466                0.11399816
               0.01803202                7.99825535                2.01772413                1.00000000               -0.16327907               -0.12140634                0.89285274               -0.01358411                0.05733185               -0.13333385
               1.01639923                7.99978156                2.00080447                0.97949790               -0.00896385                0.02697754                0.02101430                0.04035593                0.04626306               -0.05589931
               2.01785275                8.00124116                1.98232219                0.41373711                0.42074217                0.18216541               -1.05230911                0.12477619                0.67595284                0.07573207
               3.02481408                8.00337789                1.97651186                0.00010000                0.41012777                0.21657824               -1.33587553               -0.05432705                2.31244110                0.31989290
               4.02605530                8.00163736                1.99550127                0.00010000                0.11486832                0.15994676               -0.74377119               -0.15171695                3.36799625                0.04723695
               5.02711144                8.00074192                1.99760460                0.00010000                0.04673985                0.05427373               -0.28074861                0.02385171                2.90114242                0.01216105
               6.02699010                8.00013171                2.00082982                0.00010000               -0.13907276               -0.00422961                0.09348705                0.07599818                2.97400485                0.02314779
               7.02432999                8.00008315                2.00452253                0.01662585               -0.61450050               -0.06482669                0.66459532                0.09984359                3.72300887                0.03992569
               8.01470009                8.00102726                2.02829626                0.44909557               -0.45814347               -0.18200282                1.53315649                0.08760184                1.91278628                0.23291835
               9.01516712                8.00247555                2.00239694                1.00000000                0.09110287               -0.01336064                0.12314988                0.06221878               -0.45509063                0.23794996
              10.01652215                8.00324218                1.98033788                1.00000000                0.13550282                0.03775533               -0.99634972               -0.02238750               -0.31763724                0.40253240
               0.01583979                8.99680906                2.01504175                1.00000000               -0.10886624               -0.16424176                0.79154241                0.00168231                0.05484113               -0.14963928
               1.01475113                9.00016511                1.99901301                1.00000000                0.04907975                0.04761971               -0.10480231                0.04718142                0.09470720               -0.02502988
               2.01682138                9.00324939                1.98287134                0.63285126                0.39451710                0.23788949               -1.05195349                0.04117351                0.68821665                0.21489480
               3.02264147                9.00539991                1.97778860                0.00010000                0.42616360                0.25501340               -1.28815956               -0.23064450                2.12183215                0.31219925
               4.02534466                9.00337934                1.99466466                0.00010000                0.26737474                0.19776494               -0.91718409               -0.19949634                3.35044741                0.10411279
               5.02798896                9.00129930                1.99715124                0.00010000                0.13074867                0.07109015               -0.32319503               -0.03952902                3.06884762                0.02929819
               6.02795963                9.00006432                2.00117513                0.00010000               -0.16524212               -0.00316261                0.13411630                0.01298801                3.14779846                0.01731168
               7.02468412                8.99915692                2.00559055                0.04662916               -0.66566161               -0.11108436                0.80670326                0.00642501                3.80497740               -0.00745915
               8.01464640                8.99927952                2.02969441                0.61050623               -0.50012629               -0.17663660                1.61442986                0.03182429                1.91681529                0.00706321
               9.01468160                9.00178552                2.00502262                1.00000000                0.04270119               -0.11664953                0.31176170                0.05853002               -0.33854367                0.06759506
              10.01550042                9.00367712                1.98616950                1.00000000                0.08188254                0.09315500               -0.73412916               -0.04040382               -0.09558777                0.37876618
               0.01135357                9.99497051                2.01307207                1.00000000               -0.04510293               -0.18385460                0.62491014                0.12772111               -0.03134972               -0.11465839
               1.01090254               10.00073395                1.99734140                1.00000000                0.10439253                0.05688361               -0.25141609                0.16656284                0.03681010                0.00228128
               2.01344142               10.00599895                1.98219335                0.88939177                0.45843466                0.27495659               -1.06298368                0.04921376                0.46674619                0.18746261
               3.02007123               10.00847816                1.97495415                0.37658328                0.63622862                0.30782455               -1.34210329               -0.27733877                1.94301027                0.16705701
               4.02616599               10.00559266                1.99352805                0.35224940                0.47823313                0.22133115               -1.02022746               -0.23358881                3.54260668                0.08661107
               5.02963589               10.00216372                1.99639793                0.37210805                0.16131284                0.08644165               -0.35604157               -0.11151683                3.24222654                0.04875150
               6.02939224               10.00006846                2.00123354                0.42589866               -0.21963057                0.00041470                0.15357855               -0.07185136                3.31877211                0.02946366
               7.02524328                9.99786146                2.00622434                0.53329330               -0.83421361               -0.12954574                0.89193729               -0.07278065                3.95090605               -0.00397000
               8.01270797                9.99749453                2.03169144                0.86324705               -0.66515808               -0.17849927                1.69099218               -0.07978743                1.83449997                0.01475700
               9.01194012               10.00014256                2.00590609                1.00000000               -0.03885551               -0.16429605                0.49030716                0.10638991               -0.40803454               -0.03064970
              10.01193086               10.00510528                1.98890609                1.00000000               -0.00092563                0.14281578               -0.48690289                0.13931643               -0.01532950                0.20707558
               0.02094682                0.02385164                3.05290646                1.00000000               -0.44726942               -0.50736015                1.73164545               -0.10995570               -0.21581374                0.25298666
               1.01647413                0.01616012                3.03787314                1.00000000               -0.36463494               -0.36361414                1.25957036               -0.09725608               -0.26053615               -0.00659288
               2.01365412                0.00818198                3.02200483                0.92653409               -0.19772326               -0.22393432                0.77339544               -0.08736996               -0.23344336               -0.12525973
               3.01251966                0.00033746                3.00737639                0.50366723                0.12424507               -0.08387254                0.30255840                0.12401192                0.18214450               -0.12809063
               4.01613903               -0.00329366                2.99962579                0.43648455                0.37342467               -0.13816071                0.09093339                0.11766358                0.78018942               -0.00985397
               5.01998816               -0.00328971                2.99543923                0.44922515                0.20870528               -0.00638337               -0.17977171                0.00223775                0.96720269                0.00617936
               6.02031313               -0.00331923                2.98987926                0.51480011               -0.02676531                0.17063293               -0.50120135                0.04327939                0.87750515                0.04158448
               7.01945285               -0.00614122                2.98264321                0.70635337                0.03660408                0.21952434               -0.72230233                0.07609896                0.53937969                0.03380068
               8.02104521               -0.01179155                2.96972649                1.00000000                0.26669121                0.32115467               -1.13247859               -0.02784549                0.10261718                0.15776410
               9.02478667               -0.01842111                2.95387173                1.00000000                0.44602519                0.43035814               -1.53158455               -0.09541768               -0.08164573                0.00226964
              10.02996572               -0.02481652                2.93757008                1.00000000                0.51790415                0.56536585               -1.92826906               -0.11289064               -0.10612547               -0.13889708
               0.02753879                1.01877804                3.04800612                1.00000000               -0.42023930               -0.47514066                1.63277372               -0.05414899               -0.01224547                0.34431855
               1.02333640                1.01252397                3.03270252                1.00000000               -0.34235189               -0.33812279                1.15178773               -0.04530439                0.02289963                0.00203287
               2.02069175                1.00594264                3.01795247                0.58691635               -0.19193984               -0.20561345                0.66988745               -0.02410146                0.16519014               -0.28752824
               3.01949760                0.99949873                3.00545447                0.00010000               -0.07812557               -0.05317794                0.21547846                0.10190645                0.62820455               -0.32056156
               4.01912924                0.99532473                3.00037693                0.00010000                0.02628595                0.00240272                0.04948821                0.41766510                1.08327735               -0.16254728
               5.02002332                0.99664646                2.99716370                0.00010000                0.15212184                0.00729120               -0.16884679                0.56316795                1.12664311               -0.14473323
               6.02217168                0.99838710                2.99248551                0.00010000                0.22133395                0.03659401               -0.43341369                0.45454106                1.01418873               -0.09051042
               7.02445000                0.99605403                2.98586208                0.22242177                0.23675125                0.23135934               -0.66626835                0.21684954                0.78687205                0.12295458
               8.02690670                0.99141999                2.97532250                1.00000000                0.29474896                0.28300874               -0.94232431                0.02701485                0.38291217                0.17298132
               9.03034498                0.98588247                2.95952268                1.00000000                0.41627554                0.39391895               -1.37435840               -0.04093024                0.09138338                0.04802503
              10.03523222                0.98083714                2.94342781                1.00000000                0.48872360                0.53935098               -1.83592294               -0.04817906                0.06085258               -0.17132948
               0.03237197                2.01434883                3.04506119                1.00000000               -0.39685303               -0.40026320                1.52572592               -0.08049797                0.03773220                0.44558071
               1.02840344                2.00939766                3.02778848                1.00000000               -0.30873185               -0.28136633                1.00107510               -0.07232193                0.06420760                0.01415508
               2.02619734                2.00406971                3.01075156                0.21464963               -0.16138747               -0.16867899                0.48319851               -0.01149770                0.37917598               -0.44856999
               3.02517570                1.99927390                2.99973984                0.00010000                0.05736303               -0.02636421                0.00644306                0.19654190                1.06741344               -0.52072701
               4.02734460                1.99675439                2.99912002                0.00010000                0.15067288                0.10917268               -0.08939853                0.60423919                1.56575795               -0.25103237
               5.02818915                1.99685612                2.99663663                0.00010000                0.13258928                0.03730331               -0.20952250                0.77647493                1.46723647               -0.22358042
               6.02999638                1.99741265                2.99302175                0.00010000                0.12838954               -0.03692865               -0.37706580                0.74557940                1.52866974               -0.12108264
               7.03075694                1.99848597                2.99140573                0.00010000                0.08803404                0.06410160               -0.24611686                0.42322563                1.14084069                0.01565172
               8.03175707                1.99386862                2.98140881                0.42621221                0.18969886                0.21007856               -0.68926106               -0.08507397                0.57503380                0.26762738
               9.03455092                1.98945727                2.96604373                1.00000000                0.36678634                0.31531873               -1.22822910               -0.05978203                0.22779170                0.20492087
              10.03909279                1.98597050                2.94878759                1.00000000                0.45418710                0.47936418               -1.69075847               -0.04885871                0.11898107               -0.20314492
               0.03583117                3.01077278                3.04250882                1.00000000               -0.36620917               -0.31645099                1.40933139               -0.08799347                0.05464717                0.41633954
               1.03216908                3.00689665                3.02305237                1.00000000               -0.26228037               -0.21722379                0.82694295               -0.07641016                0.07427228                0.00500502
               2.03058556                3.00256906                3.00347024                0.07875063               -0.07126613               -0.12072412                0.24903847                0.00122352                0.49906093               -0.41975578
               3.03074376                2.99897145                2.99256719                0.00010000                0.15231220                0.00986840               -0.13969116                0.33432614                1.59553774               -0.09966047
               4.03363181                2.99750819                2.99713139                0.00010000                0.20754059                0.08956246               -0.21877579                0.50451172                2.15412463               -0.23697260
               5.03489457                2.99739253                2.99616293                0.00010000                0.09108038                0.06588555               -0.23431894                0.60762059                1.90175298               -0.17279455
               6.03545341                2.99764852                2.99468934                0.00010000                0.07819851                0.02854822               -0.28341290                0.52731591                1.79336878               -0.05893466
               7.03645854                2.99733606                2.99131063                0.00010000               -0.06097438               -0.02395971               -0.42472053                0.35276799                1.74935614               -0.05451088
               8.03423393                2.99562157                2.98935523                0.30636648                0.02944593                0.14698704               -0.15726653               -0.00933709                1.00228772                0.49793867
               9.03704746                2.99218885                2.97468953                1.00000000                0.34973220                0.26203157               -1.07573978               -0.07405675                0.31380167                0.26017948
              10.04122857                2.99042443                2.95403980                1.00000000                0.41811142                0.39215555               -1.50319034               -0.03814094               -0.00846334               -0.18371609
               0.03836436                4.00801981                3.03990088                1.00000000               -0.32854015               -0.24812049                1.30002292               -0.07938772                0.07176343                0.34176634
               1.03507896                4.00505318                3.01853903                1.00000000               -0.21086767               -0.15532523                0.64548644               -0.05897802                0.09555184               -0.01879108
               2.03414701                4.00165523                2.99702919                0.02890322                0.09220632               -0.05553206                0.00426743                0.04165361                1.05896223               -0.36406924
               3.03692309                3.99947127                2.99519536                0.00010000                0.24333722                0.11886068               -0.29656790                0.29391986                2.14854082                0.07848595
               4.03901375                3.99854564                2.99556516                0.00010000                0.16390703                0.11514083               -0.27496812                0.39256165                2.27054366               -0.15447239
               5.04020123                3.99817383                2.99599756                0.00010000                0.07927074                0.07706758               -0.24473330                0.45648236                2.26967204               -0.11745372
               6.04059917                3.99798361                2.99593920                0.00010000               -0.01809833                0.04422773               -0.22025326                0.45151135                2.26374613               -0.04231916
               7.03983926                3.99800678                2.99629868                0.00010000               -0.19408162                0.05979139               -0.16881886                0.24222596                2.38158894                0.21411251
               8.03671754                3.99680836                2.99984936                0.30556118               -0.07861687                0.12661804               -0.05618179                0.03954046                1.37218828                0.54976863
               9.03826692                3.99469790                2.98138005                1.00000000                0.25706378                0.23017951               -0.84155399               -0.05113140                0.22409923                0.15580106
              10.04185881                3.99381362                2.95894907                1.00000000                0.35918877                0.29959696               -1.33978081               -0.05431934                0.00993617               -0.17397580
               0.04017667                5.00581037                3.03701787                1.00000000               -0.28225666               -0.20484249                1.19316069               -0.05929702                0.07333154                0.24645680
               1.03735410                5.00379014                3.01393913                0.95002723               -0.15880559               -0.10503836                0.46909624               -0.02946822                0.10726411               -0.05874777
               2.03700055                5.00145842                2.99092256                0.01080310                0.11888190                0.00798363               -0.19349602                0.11843631                1.28230585               -0.31276294
               3.03973174                5.00134866                2.99178554                0.00010000                0.28899616                0.16407883               -0.35585691               -0.02506304                2.51930109               -0.47870235
               4.04278048                4.99981100                2.99404922                0.00010000                0.24272553                0.11070455               -0.35045532                0.15429732                2.60008254               -0.14158320
               5.04458625                4.99893388                2.99590562                0.00010000                0.09351082                0.07576113               -0.25475277                0.32540848                2.61910007               -0.07819986
               6.04465069                4.99853308                2.99770408                0.00010000               -0.10539708                0.05099427               -0.12196235                0.34575038                2.69057501                0.00494857
               7.04247831                4.99853189                3.00130122                0.00010000               -0.31585407                0.04642121                0.06311730                0.21219265                2.93120862                0.21534227
               8.03833361                4.99815393                3.00918210                0.31584211               -0.17293649                0.10269085                0.03814307                0.05792210                1.64072679                0.45031458
               9.03901958                4.99679244                2.98694780                1.00000000                0.17885712                0.17549667               -0.59741706               -0.01618443                0.11471316                0.11814889
              10.04191075                4.99641637                2.96286985                1.00000000                0.28911782                0.22266619               -1.16000425               -0.04666095                0.00321453               -0.16300735
               0.04121887                6.00392296                3.03371987                1.00000000               -0.23773212               -0.17809958                1.07848279               -0.04542919                0.05716237                0.14893363
               1.03884155                6.00295242                3.00913012                0.81443772               -0.11308254               -0.06711039                0.31424319               -0.00916164                0.11856345               -0.08292627
               2.03895722                6.00181490                2.98528179                0.01403560               -0.03861547                0.04462064               -0.34111567                0.13415577                1.09884289               -0.24493426
               3.03806924                6.00275284                2.98067958                0.00010000                0.27786325                0.03380986               -0.07755538               -0.23290243                2.76202231               -0.67085322
               4.04451448                6.00075974                2.99145860                0.00010000                0.49590423                0.09478356               -0.52354765               -0.02335082                3.24130509               -0.18877166
               5.04798732                5.99968905                2.99573998                0.00010000                0.17008414                0.07044838               -0.27342792                0.21338107                2.97434880               -0.06525962
               6.04791617                5.99900350                2.99937037                0.00010000               -0.17625284                0.04126182               -0.02907881                0.25573274                3.07608357                0.01422011
               7.04446227                5.99893520                3.00593834                0.00989896               -0.41503689                0.02280343                0.28189725                0.16890440                3.39760455                0.19386163
               8.03961543                5.99886218                3.01737816                0.33319124               -0.23907354                0.03546640                0.13040679                0.07152835                1.86755715                0.38156602
               9.03968080                5.99820783                2.99205103                0.93920713                0.10311528                0.10029273               -0.34630095                0.02111442                0.04137264                0.11476562
              10.04167773                5.99826694                2.96675064                1.00000000                0.19969383                0.14082684               -0.90530946               -0.02441029                0.02275755               -0.10900483
               0.04120917                7.00224838                3.03013299                1.00000000               -0.19302417               -0.16240184                0.96321343               -0.04425731                0.03723983                0.06786651
               1.03927892                7.00244794                3.00449890                0.74879492               -0.06629610               -0.03551006                0.15186505               -0.01289475                0.12774918               -0.05677169
               2.03988324                7.00235083                2.98025905                0.03766576               -0.15750353                0.07126567               -0.53163772               -0.00321420                1.04679755               -0.11417148
               3.03612885                7.00202486                2.97307958                0.00010000                0.27470039                0.06317233                0.01510049               -0.25158227                2.98238736               -0.26262971
               4.04537725                7.00170667                2.98837200                0.00010000                0.72406268                0.09796003               -0.72342298                0.01366768                3.69865404               -0.22034154
               5.05061011                7.00034284                2.99521524                0.00010000                0.25709732                0.06914172               -0.31189968                0.12228572                3.32148357               -0.07136148
               6.05051920                6.99935831                3.00075908                0.00010000               -0.23061982                0.02933757                0.05239526                0.16840269                3.42595868                0.01283739
               7.04599771                6.99898796                3.01000253                0.02347196               -0.50138264               -0.01913030                0.48644565                0.10906909                3.82046600                0.15091730
               8.04049155                6.99886325                3.02490861                0.35742540               -0.29803029               -0.02959461                0.22596145                0.04754872                2.08334512                0.29580488
               9.04003710                6.99879829                2.99720999                0.89817304                0.04063962                0.03488046               -0.14142821                0.01781754               -0.01415958                0.11205704
              10.04130434                6.99923290                2.97110366                1.00000000                0.12672328                0.07846622               -0.66115922               -0.01695478                0.06327973               -0.01872312
               0.03993460                8.00067492                3.02645187                1.00000000               -0.14534025               -0.16298296                0.85764571               -0.04993746                0.05018630                0.01360375
               1.03848120                8.00224222                3.00068559                0.75455982               -0.03092951                0.00433144               -0.02380335               -0.03639749                0.19188931               -0.00186223
               2.03931601                8.00324021                2.97743714                0.09015490               -0.23997266                0.14599756               -0.74208764               -0.07058269                1.29577160                0.05280698
               3.03368175                8.00401629                2.97339252                0.00010000                0.35769188                0.31404636               -0.52700254               -0.26566910                3.05290932                0.03790549
               4.04646985                8.00271894                2.98512524                0.00010000                0.95498256                0.12229664               -0.92626190               -0.02429228                3.78901663               -0.22951997
               5.05278140                8.00107189                2.99439030                0.00010000                0.30846297                0.07207008               -0.35585631                0.06119390                3.66095875               -0.06338591
               6.05263911                7.99959025                3.00186817                0.00010000               -0.28213447                0.02829029                0.12062100                0.07733165                3.73685775                0.01255624
               7.04713871                7.99855259                3.01328275                0.03871973               -0.59415211               -0.04475188                0.67520807                0.01814741                4.13552128                0.10644218
               8.04075607                7.99827029                3.03064851                0.39098431               -0.37356054               -0.10971417                0.36662060               -0.04395791                2.26149445                0.07369527
               9.03966750                7.99890544                3.00239089                0.89232814               -0.01433259               -0.00322227                0.01077632               -0.02645162               -0.00852619                0.08315307
              10.04046942                7.99983626                2.97606040                0.97898136                0.08019175                0.09025298               -0.55846762               -0.04972850                0.08124891                0.05193286
               0.03707583                8.99898872                3.02276094                1.00000000               -0.10901473               -0.17566005                0.75821229               -0.04774443                0.09191115               -0.00813671
               1.03598568                9.00253456                2.99754025                0.81264410               -0.01891563                0.06426418               -0.20214318               -0.03660220                0.29685239                0.02390642
               2.03669752                9.00527078                2.97611390                0.17665994               -0.23244664                0.26187926               -1.03394265               -0.04050391                1.48020765                0.11318309
               3.03133675                9.00830578                2.97399059                0.00010000                0.55691461                0.32971834               -1.46952339               -0.29929106                2.97129345                0.02813570
               4.04783581                9.00415261                2.98169152                0.00010000                1.18129615                0.07484753               -1.07488452               -0.15315121                3.87312890               -0.16360050
               5.05496267                9.00178425                2.99353903                0.00010000                0.33746562                0.07176843               -0.39450433                0.01533091                3.99938322               -0.04069250
               6.05458512                8.99992412                3.00268179                0.00010000               -0.36410267                0.04326888                0.17955031                0.01562226                4.03035889                0.02041339
               7.04768062                8.99809292                3.01613029                0.04252192               -0.76627916                0.00104865                0.82171535               -0.08587583                4.23670511                0.07111941
               8.03925954                8.99666897                3.03224784                0.41759744               -0.48692615               -0.11291147                0.58380010               -0.14771380                2.34838409               -0.12263051
               9.03794210                8.99873385                3.00704254                0.95185256               -0.04057058               -0.05479493                0.21889047               -0.02803547                0.13069971                0.03840570
              10.03844813                9.00103796                2.98076059                0.96881237                0.05060304                0.13488771               -0.56638073               -0.06964860                0.06465937                0.03932271
               0.03188802                9.99716172                3.01901921                1.00000000               -0.04209249               -0.18269947                0.58171012                0.11779658                0.11386156               -0.00640540
               1.03146709               10.00352750                2.99419798                0.92876448                0.04233482                0.09929350               -0.39494424                0.11394491                0.34403092                0.05011816
               2.03273471               10.00847780                2.97367358                0.62090637               -0.13264975                0.32070197               -1.25016984               -0.04212252                1.52763292                0.15715973
               3.02881410               10.01061066                2.97177386                0.36502668                0.85968251                0.23048707               -1.61367739               -0.46536084                3.09000720                0.13386778
               4.04992836               10.00421589                2.97959462                0.35077291                1.42512030                0.00632789               -1.17354131               -0.19591460                4.07702182               -0.17295074
               5.05731650               10.00250725                2.99286979                0.37082725                0.33572595                0.07230073               -0.38974513                0.04737006                4.21440776               -0.02655367
               6.05664288               10.00045563                3.00307983                0.41822940               -0.43200810                0.05315057                0.23106362                0.00909183                4.23654066                0.03674853
               7.04867634                9.99857357                3.01786489                0.51057130               -0.97410098                0.04806496                0.92691383               -0.12260616                4.40689148                0.15241418
               8.03716086                9.99601206                3.03395356                0.70060540               -0.69692723               -0.06569126                0.73756957               -0.24806865                2.46436300               -0.20796671
               9.03473780                9.99780954                3.01085977                1.00000000               -0.13463267               -0.09243012                0.48809215                0.00566804                0.23750673                0.02491797
              10.03446821               10.00253402                2.98452410                0.99049429               -0.02695868                0.14960553               -0.41090710                0.07445566                0.06764372               -0.01065196
               0.03617528                0.03185577                4.07025732                1.00000000               -0.43628200               -0.50252826                1.72014439               -0.10489338               -0.23491078                0.27516766
               1.03181246                0.02175100                4.05048233                1.00000000               -0.35761014               -0.36413109                1.26281939               -0.08518542               -0.26273972               -0.01372464
               2.02902307                0.01143368                4.02998619                0.92101189               -0.19744185               -0.23959015                0.81372268               -0.06630881               -0.23471384               -0.15389357
               3.02786362                0.00141364                4.01073265                0.51661399                0.17641734               -0.12732835                0.37254716                0.17401188                0.30297832               -0.13861444
               4.03255142               -0.00374009                4.00098068                0.47437072                0.45081034               -0.19420988                0.16286375                0.09694366                1.00651140               -0.00822525
               5.03687983               -0.00497254                3.99382406                0.49659894                0.25635634               -0.02877501               -0.14884804               -0.01044515                1.06938626                0.00471098
               6.03767855               -0.00589355                3.98484855                0.55025974                0.01019800                0.15939800               -0.50652351                0.02278979                0.95940286                0.03292179
               7.03708379               -0.00975387                3.97472591                0.72745981                0.04428882                0.27322429               -0.80719537                0.08022008                0.61677072                0.01118922
               8.03856432               -0.01663733                3.95839856                1.00000000                0.25593213                0.32788525               -1.13700645               -0.00977836                0.13128004                0.20191792
               9.04220243               -0.02470838                3.93869866                1.00000000                0.43254686                0.42961121               -1.51054904               -0.06917176               -0.07635999                0.02095990
              10.04721526               -0.03260762                3.91835215                1.00000000                0.50128320                0.55415429               -1.90090957               -0.09139341               -0.12084475               -0.14965233
               0.04523111                1.02683048                4.06421661                1.00000000               -0.40594600               -0.47651369                1.59856492               -0.04743738               -0.00604174                0.38214605
               1.04117165                1.01810969                4.04411208                1.00000000               -0.33512198               -0.34062711                1.13575617               -0.03636322                0.04355239               -0.01240952
               2.03852867                1.00903777                4.02475491                0.57480927               -0.19905118               -0.21514628                0.69415267               -0.01707448                0.21456400               -0.35798397
               3.03719062                1.00014035                4.00808384                0.00010000               -0.09073605               -0.10362101                0.29741338                0.16286764                0.82701904               -0.41221804
               4.03671395                0.99431781                4.00122191                0.00010000                0.03307392               -0.01384436                0.12203589                0.45986963                1.35231945               -0.22726096
               5.03785210                0.99473971                3.99554436                0.00010000                0.17915811                0.00052621               -0.14728594                0.62235428                1.32543415               -0.16048668
               6.04029711                0.99570043                3.98795593                0.00010000                0.27028880                0.03174413               -0.46251044                0.50453490                1.16966490               -0.05356619
               7.04325788                0.99297838                3.97873618                0.23857386                0.28233426                0.25496539               -0.72635436                0.24744161                0.95651392                0.27267839
               8.04594379                0.98664152                3.96575319                1.00000000                0.31189882                0.30139959               -0.98217355                0.02807393                0.45353071                0.23895368
               9.04949586                0.97958774                3.94583588                1.00000000                0.41283871                0.40293279               -1.36831460               -0.01897590                0.09024661                0.06209456
              10.05420057                0.97293393                3.92542535                1.00000000                0.47047137                0.53193027               -1.77246649               -0.03383859                0.05205935               -0.17954038
               0.05266812                2.02232549                4.06017017                1.00000000               -0.37902136               -0.41787967                1.48842370               -0.06454893                0.04034200                0.49448922
               1.04887790                2.01493846                4.03777669                1.00000000               -0.30085970               -0.29000947                0.99369191               -0.05585319                0.07099450               -0.01683004
               2.04665092                2.00713075                4.01567658                0.23382793               -0.15184803               -0.16779090                0.50654977               -0.02649529                0.43802876               -0.57214592
               3.04584094                1.99934122                4.00066049                0.00010000                0.02492690               -0.08624071                0.13156238                0.31207644                1.42423221               -0.78018965
               4.04714946                1.99598302                3.99792458                0.00010000                0.10516738                0.15280040               -0.08187982                0.74486283                1.91737437               -0.38087208
               5.04794429                1.99503798                3.99428815                0.00010000                0.11905605                0.05703410               -0.22138455                0.89232252                1.78055276               -0.27651257
               6.04953058                1.99474133                3.98959673                0.00010000                0.15736201               -0.02781082               -0.36329131                0.87752922                1.85260668               -0.10915183
               7.05109153                1.99534544                3.98757111                0.00010000                0.14929308                0.05876383               -0.44346825                0.46136189                1.45835905                0.13478860
               8.05251644                1.98939066                3.97366871                0.43589017                0.22194893                0.24913703               -0.80884242               -0.00911341                0.59579232                0.43415833
               9.05553051                1.98335028                3.95378543                1.00000000                0.36648345                0.34334300               -1.22574828               -0.04193871                0.22096156                0.22952429
              10.05984611                1.97803099                3.93211692                1.00000000                0.43156034                0.48436528               -1.64161756               -0.04432059                0.11541257               -0.19389877
               0.05871420                3.01847289                4.05642754                1.00000000               -0.34648695               -0.35334572                1.37108174               -0.06862730                0.04793409                0.48695252
               1.05524933                3.01230950                4.03136449                1.00000000               -0.25590957               -0.23421829                0.83101409               -0.05694624                0.06194966               -0.02304875
               2.05359600                3.00568196                4.00622562                0.09531473               -0.03347202               -0.11816535                0.29426771               -0.05448211                0.58271763               -0.55103061
               3.05457989                2.99841554                3.99171111                0.00010000                0.11592172                0.06653817               -0.08263014                0.38476620                2.02084061               -0.39996839
               4.05591444                2.99737381                3.99483814                0.00010000                0.11801764                0.13082722               -0.19401669                0.68767814                2.57834911               -0.28401948
               5.05694024                2.99588039                3.99366138                0.00010000                0.08128996                0.09767286               -0.25028706                0.71826153                2.27290623               -0.20552832
               6.05754024                2.99514421                3.99155929                0.00010000                0.04477757                0.05014598               -0.31168062                0.67363588                2.16205885               -0.06815229
               7.05783579                2.99415365                3.98845978                0.00010000                0.01082244               -0.04680119               -0.34811216                0.45917003                2.05600062               -0.00987204
               8.05775669                2.99162426                3.98452013                0.30552951                0.10904820                0.19358587               -0.52083502                0.07255546                1.30370386                0.74349654
               9.06001675                2.98645460                3.96401650                1.00000000                0.30980271                0.29327811               -1.05924612               -0.05836500                0.23351793                0.29924120
              10.06395274                2.98262123                3.93899659                1.00000000                0.39359870                0.41874494               -1.48789953               -0.03767079               -0.01215376               -0.19003240
               0.06362235                4.01525858                4.05263514                1.00000000               -0.30924366               -0.29763615                1.25358180               -0.06218910                0.05686193                0.43526709
               1.06052991                4.01025409                4.02508750                1.00000000               -0.20835532               -0.17974308                0.66182033               -0.04773920                0.07204587               -0.02854972
               2.05945524                4.00476744                3.99748387                0.03644645                0.06572485               -0.06220791                0.07475870                0.05472405                1.18563964               -0.48485142
               3.06184441                4.00067198                3.99244538                0.00010000                0.19914656                0.20908652               -0.25940179                0.33512018                2.50840369               -0.01814466
               4.06343817                3.99859956                3.99267303                0.00010000                0.13473563                0.13452305               -0.26798102                0.49589269                2.74831937               -0.21846487
               5.06453912                3.99699144                3.99337945                0.00010000                0.06459330                0.11028224               -0.26176438                0.55352698                2.72191879               -0.15539188
               6.06473004                3.99574425                3.99367763                0.00010000               -0.03721188                0.06769856               -0.23821812                0.52717375                2.70948587               -0.01018060
               7.06379488                3.99440942                3.99461724                0.00010000               -0.15317154                0.04992232               -0.21245240                0.41665754                2.87178850                0.26448564
               8.06166661                3.99326238                3.99812171                0.30703345               -0.02143217                0.14240609               -0.24358285                0.10563586                1.63037807                0.77202200
               9.06336624                3.98921584                3.97278271                1.00000000                0.25464090                0.25075160               -0.85853587               -0.04552791                0.10813892                0.20484783
              10.06675942                3.98640589                3.94564376                1.00000000                0.33931861                0.33629352               -1.31503074               -0.04086224                0.00177057               -0.21242665
               0.06747938                5.01252017                4.04859445                1.00000000               -0.26937062               -0.25913433                1.14048418               -0.05700909                0.07021772                0.35946713
               1.06478568                5.00871464                4.01889967                0.94483297               -0.16033926               -0.13204705                0.50271128               -0.03984066                0.09133829               -0.05185387
               2.06427260                5.00443780                3.98931444                0.01501454                0.13322469               -0.00686157               -0.12955458                0.11810397                1.54603556               -0.43601833
               3.06745017                5.00259727                3.98897401                0.00010000                0.26201178                0.13186921               -0.24196463                0.29710486                3.09253403               -0.36866375
               4.06951283                5.00006428                3.99046630                0.00010000                0.17079588                0.13113373               -0.31983044                0.29893304                3.16353207               -0.28201849
               5.07086609                4.99808604                3.99317528                0.00010000                0.05764522                0.10674896               -0.26647179                0.39152918                3.18960478               -0.13483733
               6.07066574                4.99649819                3.99643535                0.00010000               -0.11076360                0.07602234               -0.15159061                0.39318770                3.26778396                0.03677729
               7.06865082                4.99515210                4.00134579                0.00693600               -0.28013799                0.06850377               -0.05411280                0.34081744                3.49184619                0.27830890
               8.06506298                4.99447238                4.00880969                0.31915089               -0.13440644                0.10277103               -0.07068490                0.12038531                1.88668083                0.58947928
               9.06596269                4.99146963                3.98075224                1.00000000                0.18462143                0.19103492               -0.63033717               -0.02864628                0.07197830                0.15250779
              10.06875541                4.98934710                3.95157160                1.00000000                0.27927195                0.26003089               -1.12321938               -0.04096657                0.00712220               -0.22280860
               0.07009322                6.01007589                4.04418405                1.00000000               -0.22777542               -0.23288216                1.03179434               -0.06139977                0.07019442                0.28278387
               1.06781547                6.00761315                4.01258834                0.80386445               -0.10792653               -0.08899907                0.34340376               -0.04363071                0.11829260               -0.08088608
               2.06793469                6.00463021                3.98164064                0.01744748                0.21722810                0.03647535               -0.34031298                0.08505401                1.72571806               -0.41512106
               3.07216003                6.00330937                3.98227844                0.00010000                0.29966892                0.02527726               -0.02706079                0.24004309                3.71523857               -0.53547045
               4.07392807                6.00122224                3.98657657                0.00010000                0.18878831                0.10213319               -0.37373465                0.19423314                3.77013614               -0.36960324
               5.07593579                5.99912642                3.99271736                0.00010000                0.07998311                0.10251249               -0.28262413                0.26126268                3.72054201               -0.14105315
               6.07552773                5.99726470                3.99909285                0.00010000               -0.16493804                0.07048332               -0.06478693                0.27500567                3.78671112                0.04122608
               7.07263703                5.99577949                4.00750057                0.01734004               -0.38854732                0.04876467                0.09500192                0.26224341                4.05384167                0.24273612
               8.06775678                5.99531780                4.01865122                0.33665679               -0.23592186                0.05464721                0.11262365                0.09701365                2.11979395                0.51792228
               9.06791860                5.99303654                3.98822832                0.94067071                0.12141816                0.12421948               -0.40430679               -0.02500437                0.03598791                0.13282796
              10.07018515                5.99160651                3.95740766                1.00000000                0.22665508                0.19453467               -0.94092521               -0.03278948                0.02439812               -0.18765426
               0.07117686                7.00786252                4.03954174                1.00000000               -0.18181238               -0.20882068                0.92448718               -0.06903211                0.04989660                0.22849899
               1.06935874                7.00693466                4.00619849                0.72855988               -0.04497000               -0.04550972                0.15879214               -0.06294669                0.12282323               -0.07006752
               2.07027746                7.00516731                3.97396812                0.04298162                0.31501329                0.09061195               -0.61200293               -0.03526432                1.88185628               -0.34427743
               3.07565901                7.00310282                3.97560426                0.00010000                0.36514884               -0.00421875               -0.04771215                0.14818838                4.24321511               -0.57662130
               4.07758044                7.00210694                3.98192305                0.00010000                0.21949361                0.12526016               -0.47809272                0.19716321                4.31924500               -0.38439470
               5.08004888                7.00013629                3.99173932                0.00010000                0.09661688                0.10119946               -0.31121719                0.17264012                4.24666862               -0.13937489
               6.07951278                6.99790785                4.00136990                0.00010000               -0.21031470                0.05977121                0.01578461                0.16490910                4.28139737                0.03377500
               7.07584258                6.99612739                4.01310814                0.02774011               -0.48832888                0.01523697                0.24724053                0.16402593                4.57014390                0.20529363
               8.06974620                6.99556533                4.02775535                0.35807596               -0.33343458               -0.00779285                0.29790149                0.04458397                2.34536886                0.43023836
               9.06917389                6.99395402                3.99552274                0.90039336                0.06067431                0.06347630               -0.19358166               -0.03307108                0.00693689                0.13853479
              10.07095969                6.99323780                3.96327305                1.00000000                0.17857947                0.15087029               -0.79239749               -0.04047462                0.02395010               -0.13049244
               0.07056831                8.00589948                4.03487705                1.00000000               -0.13165583               -0.18917722                0.81816660               -0.07252579                0.05411796                0.19965933
               1.06925175                8.00670296                4.00032841                0.72056892                0.02464685                0.00980942               -0.05668730               -0.07402801                0.15951925               -0.01911411
               2.07106124                8.00644245                3.96748044                0.09926324                0.44662057                0.20546487               -0.97767961               -0.18901193                1.85121077               -0.19127069
               3.07818416                8.00322499                3.96597181                0.00010000                0.48883083                0.22392358               -0.76376434               -0.09421449                4.58407991               -1.08282321
               4.08083786                8.00372744                3.97697603                0.00010000                0.27017613                0.17655053               -0.65043837                0.18018883                4.89075338               -0.28776922
               5.08358768                8.00115041                3.99048748                0.00010000                0.09984720                0.09348348               -0.34185440                0.08350775                4.73585328               -0.11485169
               6.08283481                7.99846012                4.00324224                0.00010000               -0.26638042                0.06765357                0.08818165                0.06982938                4.73403412                0.03048342
               7.07826007                7.99608423                4.01802669                0.03500640               -0.60064847               -0.00651136                0.40853726                0.03557066                5.01619748                0.15560229
               8.07082184                7.99516194                4.03562867                0.38162960               -0.43376841               -0.10217314                0.53378752               -0.04112680                2.57321416                0.26048182
               9.06958471                7.99430607                4.00261246                0.89442776               -0.00068686                0.00653693                0.00339147               -0.04645452                0.02554526                0.13387184
              10.07080810                7.99462391                3.96916853                0.97200637                0.12233920                0.13810441               -0.67995622               -0.04832495                0.01779704               -0.08773589
               0.06811939                9.00407898                4.03020600                1.00000000               -0.07841808               -0.17868120                0.70985422               -0.05956568                0.09232277                0.15193169
               1.06733521                9.00713085                3.99497015                0.76595722                0.09279030                0.08589440               -0.29370746               -0.04626696                0.24631189                0.00710861
               2.06997519                9.00927660                3.96219249                0.17702780                0.45772601                0.37901704               -1.37682411               -0.20963053                1.40184598               -0.07026323
               3.07648973                9.00758129                3.94839814                0.00010000                0.66418028                0.61819914               -1.96262407               -0.29362405                4.67045227               -0.89186262
               4.08325880                9.00563795                3.97316697                0.00010000                0.52483115                0.12999917               -0.79277401                0.00986510                5.76029677               -0.18356874
               5.08698635                9.00200596                3.98926115                0.00010000                0.13583727                0.09103516               -0.36482719                0.02370633                5.12804148               -0.06560156
               6.08597554                8.99926092                4.00476613                0.00010000               -0.35670850                0.07736129                0.15433242                0.01421844                5.13342149                0.03148142
               7.07985218                8.99599716                4.02202486                0.02937740               -0.76368575                0.06781582                0.53932888               -0.07458749                5.35754022                0.07688629
               8.07070183                8.99352187                4.04137041                0.39494136               -0.55346733               -0.26190982                0.93359434               -0.18669451                2.85391482                0.10440947
               9.06878283                8.99408476                4.00940043                0.94250762               -0.06721645               -0.06498023                0.22274688               -0.04934853                0.14175147                0.09438497
              10.06935750                8.99599988                3.97484189                0.95762264                0.05746669                0.13706608               -0.56450511               -0.05113842                0.01227192               -0.07743248
               0.06327326               10.00232585                4.02470627                1.00000000               -0.01444729               -0.17531253                0.53352240                0.12488637                0.19363419                0.12206211
               1.06312879               10.00842085                3.98944251                0.91263835                0.15724671                0.12899996               -0.51691210                0.16420483                0.37567919                0.01451422
               2.06641819               10.01402279                3.95718995                0.61905873                0.64107730                0.47461890               -1.60339314                0.00270629                1.50259034               -0.01179687
               3.07595033               10.01558897                3.94268060                0.35941694                1.00961510                0.80076857               -2.23296685               -0.43870790                4.90748043               -0.28558549
               4.08661050               10.00632742                3.97005722                0.35132752                0.72442521                0.06894739               -0.89199471               -0.29572347                6.11977858               -0.14335348
               5.09043884               10.00297111                3.98860303                0.37266682                0.12587349                0.09651567               -0.36208128                0.02924490                5.45184679               -0.03024458
               6.08912796               10.00000735                4.00585482                0.41960201               -0.39657266                0.07464262                0.21728909                0.03871378                5.43623267                0.03758698
               7.08250738                9.99744055                4.02476262                0.50793621               -1.00638057                0.14433828                0.65357406               -0.23865993                5.72388116                0.07278058
               8.06900035                9.98992375                4.04644284                0.69662441               -0.81938325               -0.35981202                1.22755870               -0.39185186                3.11756919               -0.04051939
               9.06611972                9.99300646                4.01566793                1.00000000               -0.15226388               -0.10782944                0.46232288                0.10576279                0.28381627                0.06734399
              10.06595508                9.99736523                3.98068795                0.98450020               -0.01646422                0.13653489               -0.36530491                0.09563457                0.07895174               -0.08008690
               0.05579859                0.04143641                5.08730935                1.00000000               -0.43081293               -0.49283037                1.68641668               -0.09818716               -0.26302240                0.31310309
               1.05149046                0.02862612                5.06312952                1.00000000               -0.35445326               -0.36446911                1.26370808               -0.07561895               -0.29056702               -0.01417013
               2.04870953                0.01556667                5.03827928                0.92680686               -0.19528584               -0.24740980                0.83960816               -0.05799078               -0.25331936               -0.18039027
               3.04758475                0.00286279                5.01482733                0.53125185                0.22341597               -0.15362670                0.43759494                0.22325992                0.39500365               -0.16619134
               4.05317785               -0.00394062                5.00288307                0.51196671                0.49616323               -0.22237638                0.20861690                0.07878133                1.12724954               -0.01696788
               5.05750801               -0.00663610                4.99246227                0.54391657                0.27107457               -0.03912664               -0.12916915               -0.01775071                1.07837235                0.00446085
               6.05859934               -0.00887557                4.97974879                0.58584855                0.03651227                0.14431623               -0.50628336                0.01228901                0.95619777                0.02957669
               7.05823825               -0.01393797                4.96649930                0.75116565                0.05493617                0.26003594               -0.82389542                0.07513154                0.63761371                0.02670443
               8.05969806               -0.02246246                4.94698636                1.00000000                0.25338128                0.33913833               -1.14855571                0.00103594                0.13117057                0.23842718
               9.06330588               -0.03227635                4.92366075                1.00000000                0.42718894                0.43139485               -1.50133761               -0.05748721               -0.10130828                0.02712153
              10.06824184               -0.04195596                4.89955189                1.00000000                0.49359583                0.54375267               -1.86161872               -0.08269718               -0.14729250               -0.17467468
               0.06762702                1.03650811                5.07997742                1.00000000               -0.39578713               -0.47043647                1.55304444               -0.04430872               -0.00509009                0.43276169
               1.06366915                1.02498143                5.05541765                1.00000000               -0.33078686               -0.34087360                1.12592876               -0.02945373                0.05341312               -0.01535054
               2.06101128                1.01309257                5.03183553                0.58910454               -0.20490779               -0.22052922                0.71852364               -0.01451583                0.25802569               -0.41189657
               3.05957099                1.00132653                5.01140274                0.00010000               -0.11480873               -0.14099843                0.34886500                0.22853202                0.99750195               -0.46815923
               4.05871510                0.99383561                5.00281765                0.00010000                0.01134930               -0.02693303                0.17996945                0.52663468                1.54140372               -0.29711641
               5.05979798                0.99297264                4.99421798                0.02545237                0.18290289               -0.00775282               -0.12402915                0.66760144                1.40646689               -0.18791633
               6.06237316                0.99256760                4.98323530                0.00959839                0.29925216                0.02509112               -0.46961215                0.54279846                1.24470709               -0.03299945
               7.06578302                0.98866239                4.97133499                0.25829875                0.32522250                0.26980551               -0.74445030                0.29876068                1.04973871                0.33428671
               8.06887761                0.98092892                4.95567903                1.00000000                0.33473680                0.31236601               -1.01824286                0.05678684                0.50827105                0.28917833
               9.07247775                0.97203759                4.93215638                1.00000000                0.41084280                0.40717486               -1.36463789               -0.01156446                0.08691127                0.07110462
              10.07709447                0.96348157                4.90797848                1.00000000                0.46167137                0.52386241               -1.72524299               -0.03079083                0.04669049               -0.20728528
               0.07796579                2.03202768                5.07482967                1.00000000               -0.36488584               -0.42306263                1.44281534               -0.05745781                0.04196398                0.55834393
               1.07431693                2.02180865                5.04766232                1.00000000               -0.29458390               -0.29282821                0.98354689               -0.04653780                0.07443188               -0.02855307
               2.07207411                2.01115608                5.02088256                0.25123329               -0.14522928               -0.16757085                0.53607639               -0.04419012                0.50496058               -0.66822064
               3.07141234                2.00004283                5.00237108                0.00010000               -0.00048385               -0.10696693                0.19108175                0.36708455                1.60657464               -0.90466285
               4.07206443                1.99552072                4.99748242                0.00010000                0.03578583                0.16218659               -0.00258856                0.88497178                2.20392894               -0.50443902
               5.07212806                1.99320885                4.99220894                0.00010000                0.08505606                0.06090095               -0.15983608                0.99695528                2.04818955               -0.33215022
               6.07376555                1.99162626                4.98575592                0.00010000                0.18620429               -0.01815080               -0.43217563                0.98861636                2.14476858               -0.07562754
               7.07585214                1.99145814                4.98253636                0.00010000                0.18465211                0.07150533               -0.52824308                0.54966482                1.64145357                0.21589142
               8.07745859                1.98378486                4.96523197                0.42719604                0.23348983                0.25547887               -0.85946594                0.01413374                0.63234759                0.54797211
               9.08052194                1.97586714                4.94152877                1.00000000                0.36397375                0.35694006               -1.22212628               -0.02499831                0.22244868                0.24937648
              10.08473807                1.96852129                4.91595524                1.00000000                0.42161281                0.48076842               -1.59731783               -0.03804284                0.12025944               -0.21995537
               0.08691594                3.02804686                5.06993046                1.00000000               -0.33059497               -0.37347225                1.32935636               -0.06064447                0.04150664                0.55912029
               1.08360999                3.01912486                5.03967265                1.00000000               -0.25113218               -0.24308167                0.82879348               -0.04757410                0.05299642               -0.03931908
               2.08189330                3.00974115                5.00935559                0.10166247               -0.05309715               -0.11433498                0.32918012               -0.07549311                0.63807986               -0.65965623
               3.08254805                2.99918719                4.99091459                0.00010000                0.06776121                0.09013243               -0.05449819                0.39139274                2.24155451               -0.49572014
               4.08324852                2.99707935                4.99325105                0.00010000                0.05417484                0.15137332               -0.13498287                0.79925536                2.97958232               -0.38124306
               5.08363154                2.99419066                4.99115719                0.00010000                0.03238371                0.11716246               -0.23720850                0.83160903                2.66033218               -0.25011864
               6.08389619                2.99220458                4.98845573                0.00010000                0.04930850                0.06388422               -0.32182844                0.78436963                2.52511426               -0.04372135
               7.08461771                2.99009250                4.98434838                0.00010000                0.04275459               -0.05238336               -0.43976068                0.54063624                2.41143503                0.02437697
               8.08475129                2.98603850                4.97893853                0.29584829                0.13118197                0.20871912               -0.60743353                0.13924649                1.36856763                0.88157092
               9.08724135                2.97917639                4.95350460                1.00000000                0.31370130                0.30959846               -1.04603371               -0.02779243                0.19011837                0.33222838
              10.09102531                2.97309694                4.92428181                1.00000000                0.37839594                0.42343893               -1.45374615               -0.03624305               -0.01249993               -0.20509125
               0.09459689                4.02455824                5.06497252                1.00000000               -0.29257390               -0.32980297                1.21513221               -0.05839112                0.04593767                0.52584015
               1.09167115                4.01694701                5.03177544                1.00000000               -0.20474851               -0.19363195                0.66960374               -0.04189835                0.05839955               -0.03755947
               2.09050192                4.00886938                4.99852437                0.03277426                0.01154272               -0.05799367                0.12401712                0.04260464                1.28422940               -0.58839818
               3.09190200                4.00184547                4.99000732                0.00010000                0.12720768                0.24775705               -0.21320376                0.37806509                2.86951816               -0.04139338
               4.09304607                3.99854818                4.99020554                0.00010000                0.08665014                0.15938716               -0.23257942                0.61539760                3.25657805               -0.27423730
               5.09363501                3.99555210                4.99076228                0.00010000                0.02525154                0.13542832               -0.25633840                0.65667546                3.20823672               -0.18177052
               6.09355110                3.99290394                4.99117484                0.00010000               -0.04020278                0.08244114               -0.26453156                0.63990202                3.19072184                0.00255540
               7.09283095                3.99041047                4.99204963                0.00010000               -0.11957383                0.05611160               -0.28970673                0.51892373                3.32445011                0.34713310
               8.09115963                3.98795924                4.99497770                0.29858556                0.00383497                0.16877514               -0.35441670                0.17790655                1.77287913                0.86154455
               9.09290765                3.98205911                4.96420933                1.00000000                0.25062471                0.26102911               -0.85436485               -0.02566447                0.05092103                0.24962284
              10.09617212                3.97699007                4.93264846                1.00000000                0.32644698                0.35496766               -1.28682921               -0.03744557                0.00009908               -0.22650435
               0.10097057                5.02145080                5.05982755                1.00000000               -0.25096950               -0.29634478                1.10457951               -0.05899298                0.06129276                0.47172792
               1.09846088                5.01525222                5.02399336                0.93220247               -0.15618238               -0.14555671                0.51067550               -0.03949273                0.08610454               -0.05339127
               2.09784693                5.00858128                4.98833147                0.00660646                0.09848353               -0.00052961               -0.07555519                0.10848362                1.79925987               -0.53514361
               3.10043055                5.00414233                4.98694624                0.00010000                0.20014629                0.17838527               -0.19806988                0.36109413                3.54110437               -0.29061371
               4.10184985                5.00026709                4.98765261                0.00010000                0.09893742                0.16813691               -0.26953305                0.45945515                3.67966978               -0.27743610
               5.10240930                4.99689922                4.99057618                0.00010000               -0.00069979                0.13759227               -0.25484963                0.49165968                3.77305137               -0.16033908
               6.10183586                4.99385340                4.99467227                0.00010000               -0.12342042                0.09947655               -0.19509323                0.48157915                3.86057314                0.05577165
               7.09994089                4.99121473                5.00021896                0.00261210               -0.25875379                0.08085514               -0.14536166                0.43551882                4.03082618                0.35304034
               8.09666078                4.98941400                5.00776841                0.31134224               -0.11218285                0.11578621               -0.13487439                0.16530893                2.10059676                0.66752664
               9.09769723                4.98439698                4.97434106                1.00000000                0.18768514                0.20173917               -0.64527576               -0.02406232                0.03555524                0.20256283
              10.10041448                4.98019629                4.94040546                1.00000000                0.27172509                0.29111652               -1.11133377               -0.03832352                0.00281561               -0.24872649
               0.10581418                6.01863134                5.05435576                1.00000000               -0.20633671               -0.26627211                0.99503782               -0.06339527                0.06611145                0.41442332
               1.10375081                6.01403588                5.01599819                0.79018505               -0.10163485               -0.09728531                0.33935434               -0.04622112                0.12551289               -0.08848676
               2.10378148                6.00885879                4.97847553                0.00746895                0.18436319                0.05220982               -0.29708544                0.08224860                2.11741055               -0.54061591
               3.10743808                6.00541318                4.98013837                0.00010000                0.28484000                0.13283636               -0.25912722                0.28299037                4.11001209               -0.47973469
               4.10947828                6.00191092                4.98398391                0.00010000                0.12219056                0.16761150               -0.27380287                0.33339999                4.29557130               -0.35816991
               5.10988189                5.99830394                4.99008750                0.00010000               -0.03055525                0.14430037               -0.24852845                0.33349424                4.38464307               -0.16924428
               6.10886718                5.99489347                4.99807463                0.00010000               -0.19505793                0.10155109               -0.12174066                0.33330554                4.50253767                0.05821762
               7.10598073                5.99202758                5.00783838                0.01218544               -0.37918108                0.06764893                0.00032700                0.32278687                4.67989882                0.31712324
               8.10128356                5.99027496                5.01963064                0.32847010               -0.21683089                0.05382829                0.08008469                0.11949298                2.41689096                0.59035086
               9.10164411                5.98609389                4.98396490                0.94355198                0.12617318                0.13939350               -0.43558830               -0.02508261                0.03931507                0.17469834
              10.10380702                5.98281240                4.94793214                1.00000000                0.21629084                0.23329486               -0.94458237               -0.03473779                0.01344698               -0.24333913
               0.10889360                7.01612536                5.04862273                1.00000000               -0.15845932               -0.23137471                0.87981725               -0.06688073                0.04729125                0.37728348
               1.10730901                7.01330652                5.00767474                0.71276553               -0.03895028               -0.04738012                0.14436045               -0.05912496                0.13046067               -0.09791258
               2.10811460                7.00962548                4.96801899                0.03240416                0.28646092                0.11658211               -0.57302976                0.02039413                2.37091467               -0.53464056
               3.11303823                7.00679906                4.97212534                0.00010000                0.37562478                0.20763858               -0.41735493                0.12117599                4.61097116               -0.71721569
               4.11562709                7.00361932                4.97881014                0.00010000                0.15292038                0.19043564               -0.33280554                0.16385698                4.89199257               -0.43517427
               5.11609663                6.99978523                4.98899089                0.00010000               -0.04243803                0.14745429               -0.25267219                0.18077372                5.02303781               -0.17074472
               6.11477833                6.99588442                5.00107477                0.00010000               -0.25407501                0.09551055               -0.04927295                0.18479393                5.12819067                0.05005470
               7.11101513                6.99256771                5.01494734                0.02017183               -0.48970042                0.03601738                0.15054864                0.18508177                5.29947868                0.27957659
               8.10498432                6.99049057                5.03086664                0.34818631               -0.31784960               -0.02050501                0.30536731                0.04840814                2.72959353                0.51434715
               9.10465814                6.98718485                4.99333836                0.90003918                0.06491965                0.08056476               -0.23001104               -0.03169682                0.04652231                0.16250342
              10.10628271                6.98486219                4.95525571                1.00000000                0.16245730                0.18501537               -0.79471205               -0.03695532                0.00903269               -0.22788296
               0.11011424                8.01400385                5.04281520                1.00000000               -0.10460514               -0.19636150                0.75650947               -0.06653806                0.04507884                0.36147619
               1.10906819                8.01308828                4.99955184                0.70038573                0.02912901                0.01280568               -0.07822024               -0.05984956                0.14453526               -0.07429048
               2.11069682                8.01119043                4.95788354                0.08411169                0.33997800                0.22652645               -0.92069278               -0.01652354                2.30133729               -0.45481384
               3.11586775                8.00956595                4.95811724                0.00010000                0.45362128                0.34803414               -0.67818630               -0.23688552                4.94470720               -1.33773614
               4.11976925                8.00571964                4.97211647                0.00010000                0.26822525                0.18903623               -0.48243644               -0.08806423                5.66971217               -0.44086200
               5.12123226                8.00125303                4.98755321                0.00010000                0.00056638                0.12857172               -0.27197093                0.04558754                5.66878239               -0.13895344
               6.11978058                7.99680368                5.00363181                0.00010000               -0.30780178                0.10283731                0.01955548                0.06032068                5.71709049                0.04281049
               7.11507622                7.99274792                5.02145349                0.02412063               -0.60729992                0.01635062                0.30699555                0.01365953                5.88640432                0.21793035
               8.10763458                7.98986486                5.04132426                0.36914372               -0.42188356               -0.12737832                0.57190448               -0.05323979                3.04774908                0.41510230
               9.10663855                7.98770519                5.00245872                0.89689417                0.00393249                0.01906155               -0.02700048               -0.03523238                0.07215835                0.15770888
              10.10771323                7.98651271                4.96246128                0.96966497                0.10746781                0.15538519               -0.65684630               -0.04285166                0.00697578               -0.22242658
               0.10939399                9.01219813                5.03695802                1.00000000               -0.04685573               -0.17007151                0.62763248               -0.05485095                0.06593364                0.29292448
               1.10892543                9.01356263                4.99166610                0.74026397                0.09562294                0.08923888               -0.32319124               -0.03066577                0.19658733               -0.05631179
               2.11130645                9.01415601                4.94857742                0.14323452                0.24229415                0.35282521               -1.28626310               -0.04756416                1.74462041               -0.29697815
               3.11377132                9.01375974                4.93473811                0.00010000                0.54361417                0.33840312               -0.99304500               -0.42636397                5.19996129               -1.08880104
               4.12217873                9.00740004                4.96583604                0.00010000                0.60765115                0.09243382               -0.67220501               -0.23854091                6.85674042               -0.32371797
               5.12592434                9.00235666                4.98624248                0.00010000                0.11555569                0.09827884               -0.29116616               -0.00676446                6.24057252               -0.07277350
               6.12448985                8.99794117                5.00576844                0.00010000               -0.38485977                0.11131575                0.08090408               -0.00172854                6.23254761                0.03103489
               7.11822714                8.99289472                5.02691687                0.02052491               -0.77637926                0.09028680                0.45808618               -0.12542233                6.43667762                0.11646999
               8.10896226                8.98794300                5.05091972                0.38423442               -0.54607470               -0.24040180                0.90835320               -0.21781443                3.40373311                0.26413402
               9.10730565                8.98756608                5.01149748                0.94537149               -0.05758076               -0.05418820                0.19215783               -0.02213231                0.12472003                0.13941065
              10.10781065                8.98796989                4.96947049                0.95653242                0.05049964                0.13637303               -0.51507229               -0.04491939               -0.00945119               -0.18941557
               0.10628822               10.01060242                5.02968966                1.00000000                0.02087803               -0.15957066                0.45051711                0.11648616                0.24228628                0.24058896
               1.10649700               10.01487305                4.98385974                0.89897624                0.16301069                0.13104226               -0.54628842                0.13938257                0.44061346               -0.05478827
               2.10954843               10.01824694                4.94160572                0.59198545                0.37997185                0.40909329               -1.48061153               -0.10275358                1.98256825               -0.22772269
               3.11409644               10.01633401                4.92711453                0.35660902                0.84265385                0.25742739               -1.20418774               -0.50141935                5.49327759               -0.61085770
               4.12640151               10.00756831                4.96175473                0.35154021                0.82297040                0.01682672               -0.74806429               -0.23349283                7.32289443               -0.26203893
               5.13055584               10.00321860                4.98562817                0.37388081                0.14032209                0.08619396               -0.29472169                0.03623477                6.66816989               -0.03636294
               6.12920795                9.99903000                5.00742562                0.42041460               -0.39949483                0.10888266                0.13463408                0.03856339                6.63869577                0.03665681
               7.12256595                9.99455366                5.03093637                0.50723004               -1.03005089                0.16589404                0.58100907               -0.26477807                6.91997282                0.07222701
               8.10860693                9.98505683                5.05850474                0.69485070               -0.81984676               -0.28861721                1.13214232               -0.43214445                3.80698129                0.21098364
               9.10616901                9.98662143                5.02010622                1.00000000               -0.12998604               -0.09446520                0.41509964                0.09550338                0.32127405                0.13096761
              10.10600721                9.98924017                4.97721800                0.98455492               -0.01617993                0.12702762               -0.32880160                0.08153100                0.09927367               -0.16073159
               0.07927447                0.05278169                6.10398565                1.00000000               -0.42432926               -0.48162902                1.64820126               -0.09159606               -0.30201094                0.35597213
               1.07503118                0.03689136                6.07575649                1.00000000               -0.35077976               -0.36214677                1.25825303               -0.06835315               -0.33274821               -0.01328103
               2.07225888                0.02071339                6.04677836                0.93993944               -0.19356374               -0.25168163                0.85454562               -0.05309646               -0.28415099               -0.19636721
               3.07115991                0.00493900                6.01948455                0.54709627                0.26012967               -0.17055842                0.48218482                0.26676275                0.45114156               -0.19751079
               4.07746147               -0.00394862                6.00515301                0.54779262                0.52108227               -0.22752587                0.23406473                0.05984310                1.17729335               -0.02056160
               5.08158155               -0.00839474                5.99124067                0.58861876                0.26520001               -0.03705408               -0.11762615               -0.01809757                1.04244378                0.00268972
               6.08276547               -0.01227504                5.97472288                0.61929210                0.05084692                0.13083517               -0.49549383                0.00605676                0.91885420                0.02332062
               7.08259849               -0.01889115                5.95824800                0.77282882                0.06304092                0.25182036               -0.82505128                0.07208932                0.62062049                0.02780610
               8.08402629               -0.02925413                5.93542744                1.00000000                0.25061228                0.34336099               -1.15788833                0.01284961                0.10227058                0.26445116
               9.08761074               -0.04115722                5.90867191                1.00000000                0.42304199                0.42990259               -1.49529399               -0.05261797               -0.13783554                0.03000087
              10.09248713               -0.05295428                5.88111978                1.00000000                0.48763946                0.53391495               -1.82993092               -0.07940006               -0.18307588               -0.20576254
               0.09424885                1.04796540                6.09527750                1.00000000               -0.38670449               -0.46211784                1.50880186               -0.04117014               -0.01023916                0.49002796
               1.09038180                1.03326989                6.06663066                1.00000000               -0.32723778               -0.33894824                1.11560503               -0.02431814                0.05528504               -0.01304410
               2.08770409                1.01819657                6.03912538                0.61431209               -0.21116327               -0.22335567                0.73547264               -0.01269920                0.28256893               -0.45288184
               3.08615854                1.00323342                6.01506114                0.00010000               -0.14886574               -0.16014467                0.37659794                0.28961061                1.13456484               -0.51817741
               4.08472678                0.99377612                6.00482129                0.03511585               -0.02973740               -0.02952730                0.20701870                0.59650042                1.68309308               -0.34784960
               5.08556379                0.99123472                5.99306378                0.07814112                0.16737340               -0.00747420               -0.11116532                0.71551076                1.43908546               -0.18233338
               6.08807424                0.98903331                5.97856369                0.04806297                0.31225689                0.01417005               -0.46104662                0.58626969                1.27978518               -0.06083050
               7.09180893                0.98362705                5.96384717                0.27928817                0.36067882                0.27705135               -0.74817032                0.34961199                1.10924245                0.39662139
               8.09528782                0.97417948                5.94538834                1.00000000                0.35628547                0.31723673               -1.03194303                0.08297246                0.53905297                0.32356960
               9.09893464                0.96314181                5.91854313                1.00000000                0.41011881                0.40734038               -1.35649724               -0.00745759                0.08478264                0.07425786
              10.10349020                0.95238486                5.89092049                1.00000000                0.45555612                0.51414164               -1.69121519               -0.03013334                0.04075135               -0.24240109
               0.10784209                2.04353933                6.08902648                1.00000000               -0.35284446               -0.42264763                1.39835549               -0.05213983                0.04028295                0.63120588
               1.10431365                2.03011239                6.05744762                1.00000000               -0.29003641               -0.29299436                0.97348595               -0.03953713                0.07761464               -0.02984518
               2.10204137                2.01624627                6.02639811                0.26653013               -0.14705413               -0.16747737                0.56432033               -0.04823539                0.55826962               -0.75098563
               3.10137257                2.00173611                6.00448213                0.00010000               -0.03255908               -0.11842585                0.22472614                0.42857692                1.77530359               -1.00650413
               4.10139018                1.99546084                5.99787281                0.00010000               -0.03689924                0.16248564                0.10534236                1.01281860                2.46463620               -0.62139134
               5.10063458                1.99145577                5.99109143                0.00010000                0.03541735                0.05449829               -0.00710078                1.09629715                2.17838576               -0.34796318
               6.10209853                1.98800836                5.98095321                0.00010000                0.19049881               -0.00912204               -0.56109938                1.09855938                2.29672808               -0.08244804
               7.10444456                1.98664988                5.97700625                0.00010000                0.20362273                0.07504329               -0.56097667                0.64275072                1.81124312                0.26602568
               8.10617099                1.97709061                5.95647939                0.41816987                0.24058230                0.26652294               -0.88063369                0.05118548                0.66632637                0.62364827
               9.10925620                1.96698959                5.92934291                1.00000000                0.36136826                0.36383969               -1.21304297               -0.01104287                0.23479640                0.26890128
              10.11339835                1.95732855                5.90017056                1.00000000                0.41421471                0.47206627               -1.56367809               -0.03319727                0.12686034               -0.25507583
               0.12005993                3.03951245                6.08301467                1.00000000               -0.31758134               -0.38305253                1.28834143               -0.05558620                0.03662265                0.63798796
               1.11688412                3.02741000                6.04794036                1.00000000               -0.24721336               -0.24650946                0.82352321               -0.04165115                0.04561590               -0.04450767
               2.11511567                3.01484702                6.01280922                0.10704052               -0.06843037               -0.11113366                0.35873335               -0.08392608                0.68550395               -0.75619719
               3.11551551                3.00086490                5.99062115                0.00010000                0.00739098                0.10381750               -0.00313521                0.41799211                2.50004167               -0.60888568
               4.11526349                2.99702584                5.99213848                0.00010000               -0.02866517                0.16262118               -0.08501907                0.89421870                3.33834353               -0.47989737
               5.11494221                2.99232468                5.98891721                0.00010000               -0.02060777                0.12406310               -0.21618354                0.94625029                2.99669451               -0.32391479
               6.11485133                2.98885087                5.98512272                0.00010000                0.03197418                0.07852312               -0.32711394                0.89809108                2.84217543                0.00340845
               7.11558169                2.98512792                5.97966457                0.00010000                0.05602436               -0.05841882               -0.48850689                0.63477686                2.65981794                0.04470409
               8.11597182                2.97950994                5.97237146                0.28678041                0.14470732                0.22863904               -0.67714598                0.20420949                1.48536956                1.01650644
               9.11847584                2.97041860                5.94309582                1.00000000                0.30882590                0.31911268               -1.03493749               -0.01130258                0.19190889                0.36902282
              10.12214833                2.96182619                5.90992166                1.00000000                0.36724962                0.42117979               -1.42208150               -0.03500123               -0.01280093               -0.22732848
               0.13093526                4.03587828                6.07693778                1.00000000               -0.27892101               -0.34704823                1.17738199               -0.05392278                0.03923920                0.61616849
               1.12814605                4.02518220                6.03847957                1.00000000               -0.20136583               -0.19929720                0.66870819               -0.03674759                0.04874330               -0.04069162
               2.12690794                4.01402360                5.99996421                0.03240977               -0.02962276               -0.05316315                0.15972925                0.04097492                1.37635421               -0.68109324
               3.12755359                4.00381246                5.98818131                0.00010000                0.04534170                0.28945244               -0.17736443                0.40626325                3.22488816               -0.04960611
               4.12781478                3.99871326                5.98802144                0.00010000                0.00904798                0.18556762               -0.20605522                0.71686891                3.73201245               -0.31597451
               5.12773455                3.99393703                5.98825268                0.00010000               -0.02788305                0.16146734               -0.24609534                0.76154063                3.67106630               -0.20684971
               6.12725712                3.98957882                5.98838699                0.00010000               -0.06267664                0.09314795               -0.28696054                0.74637790                3.63334436                0.01041315
               7.12648102                3.98548150                5.98882310                0.00010000               -0.11463124                0.06481209               -0.34135555                0.63370378                3.71907276                0.39948717
               8.12496449                3.98166339                5.99103337                0.29057395                0.01164412                0.18300211               -0.41114645                0.24356702                1.93114546                0.99612293
               9.12671390                3.97337184                5.95569541                1.00000000                0.24593287                0.26733585               -0.84757793               -0.01751753                0.02997610                0.29466512
              10.12988315                3.96575214                5.91990717                1.00000000                0.31692451                0.36313519               -1.26296078               -0.03524118               -0.00095555               -0.24216794
               0.14037364                5.03257148                6.07068604                1.00000000               -0.23697865               -0.31545515                1.06545493               -0.05497638                0.05952253                0.57612974
               1.13800385                5.02342406                6.02911318                0.91724323               -0.15343650               -0.15100846                0.51141976               -0.03639121                0.08534458               -0.05871856
               2.13730491                5.01378376                5.98780333                0.00256677                0.04736334                0.00533858               -0.03323427                0.12323377                2.01657831               -0.64070120
               3.13895112                5.00665395                5.98501261                0.00010000                0.10856906                0.23615591               -0.18553743                0.41258646                3.98414816               -0.26631746
               4.13947629                5.00073719                5.98507564                0.00010000                0.01781711                0.20940242               -0.25317766                0.54878297                4.17959122               -0.28171542
               5.13930746                4.99555403                5.98807828                0.00010000               -0.06209321                0.16948946               -0.24957701                0.58900075                4.32210189               -0.16608215
               6.13823442                4.99071383                5.99253348                0.00010000               -0.15681294                0.12238646               -0.22417682                0.57203098                4.40984938                0.07304603
               7.13617120                4.98642416                5.99843856                0.00010000               -0.26408050                0.09560392               -0.19763752                0.53270695                4.54098512                0.40991098
               8.13295281                4.98316998                6.00611220                0.30336842               -0.10672338                0.11815970               -0.18159871                0.21723754                2.32369842                0.77537614
               9.13403673                4.97576532                5.96784673                1.00000000                0.18650482                0.20806825               -0.64948978               -0.01957991                0.01809792                0.25206822
              10.13668291                4.96908889                5.92934492                1.00000000                0.26461769                0.30686648               -1.09807203               -0.03581973               -0.00031762               -0.27412981
               0.14813058                6.02956918                6.06408481                1.00000000               -0.19246334               -0.28113639                0.94920380               -0.05846254                0.06695677                0.52927822
               1.14620595                6.02216203                6.01937543                0.77500046               -0.09939280               -0.10006499                0.33664116               -0.04354824                0.13122277               -0.10766966
               2.14614273                6.01413037                5.97569893                0.00168862                0.13229734                0.06413623               -0.25785982                0.11568993                2.42719300               -0.68735876
               3.14885189                6.00853558                5.97709589                0.00010000                0.18738165                0.20628415               -0.30194420                0.34535506                4.70119560               -0.54978314
               4.14989036                6.00290131                5.98110051                0.00010000                0.03430174                0.22668509               -0.28959812                0.39348475                4.85759190               -0.38380711
               5.14953793                5.99732682                5.98774679                0.00010000               -0.10313767                0.18508279               -0.23693267                0.40313961                5.01690405               -0.17826006
               6.14782760                5.99202655                5.99665803                0.00010000               -0.24294628                0.13189718               -0.15199475                0.39762385                5.15503040                0.07827886
               7.14467900                5.98739358                6.00750711                0.00538491               -0.39297608                0.08398257               -0.05223251                0.39345601                5.30691024                0.37592824
               8.13996808                5.98402658                6.02025291                0.32017703               -0.21378041                0.04943303                0.04771388                0.15669346                2.71243067                0.70044946
               9.14040340                5.97753321                5.97951656                0.94515993                0.12757602                0.14724734               -0.44913854               -0.02292888                0.03153439                0.21930034
              10.14251960                5.97188947                5.93851601                1.00000000                0.21162079                0.25310514               -0.93563541               -0.03323728                0.01360827               -0.29001433
               0.15401868                7.02694875                6.05713809                1.00000000               -0.14469844               -0.23877327                0.82334348               -0.05929885                0.04723909                0.49637819
               1.15257169                7.02142276                6.00908570                0.69722919               -0.03867585               -0.04681223                0.14083061               -0.05070549                0.13334171               -0.13693829
               2.15324516                7.01506648                5.96250753                0.02439224                0.22577941                0.13286880               -0.52663043                0.08683737                2.76011898               -0.74179629
               3.15708728                7.01077963                5.96725717                0.00010000                0.26547879                0.26609584               -0.46616266                0.20989441                5.36565362               -0.84217007
               4.15855474                7.00527089                5.97526694                0.00010000                0.05788638                0.24915008               -0.34906923                0.16909124                5.58035319               -0.53307013
               5.15824501                6.99925568                5.98668588                0.00010000               -0.12172946                0.18964636               -0.23051730                0.19954737                5.76885123               -0.20499973
               6.15612015                6.99335177                6.00038444                0.00010000               -0.31023601                0.12980560               -0.07862496                0.21484269                5.89966765                0.06618569
               7.15204029                6.98810381                6.01611911                0.01258170               -0.50865474                0.05398670                0.09770802                0.22117871                6.05452042                0.34237094
               8.14594705                6.98415864                6.03386270                0.33982048               -0.31625119               -0.03078390                0.28616389                0.07049807                3.10146847                0.64626440
               9.14571526                6.97871027                5.99092252                0.89940936                0.06792909                0.08839604               -0.24926510               -0.02600919                0.04669499                0.19858840
              10.14730563                6.97415100                5.94737881                1.00000000                0.15903690                0.20355652               -0.78056244               -0.03478230                0.01286298               -0.30060969
               0.15799660                8.02479371                6.05000724                1.00000000               -0.09224893               -0.19428744                0.68667974               -0.05663121                0.04032333                0.48132057
               1.15707411                8.02122579                5.99876400                0.68124020                0.02629996                0.01369773               -0.07479628               -0.04650534                0.12864345               -0.13351253
               2.15852260                8.01678775                5.94906659                0.06717589                0.28856343                0.22741905               -0.84138097                0.05910686                2.83992331               -0.70292745
               3.16284538                8.01385749                5.95240808                0.00010000                0.31367675                0.30141710               -0.50581976               -0.13801890                5.96641439               -1.52977624
               4.16479613                8.00788431                5.96732730                0.00010000                0.13013093                0.21272219               -0.42499567               -0.12016216                6.51311001               -0.59101800
               5.16544800                8.00111975                5.98504806                0.00010000               -0.07598998                0.16099207               -0.24228214                0.01793695                6.57583482               -0.19470054
               6.16327633                7.99462266                6.00363335                0.00010000               -0.35761453                0.13680208               -0.00955255                0.05927634                6.62596579                0.05293376
               7.15829570                7.98847331                6.02416660                0.01662042               -0.62523709                0.03699381                0.25052434                0.00912025                6.79333062                0.28356888
               8.15077159                7.98341090                6.04706676                0.36108187               -0.42024224               -0.12672850                0.54767998               -0.04616759                3.49715915                0.58282675
               9.14989086                7.97930113                6.00207245                0.89829296                0.00854525                0.02575993               -0.04907003               -0.02195492                0.06300701                0.19158427
              10.15094250                7.97596060                5.95603160                0.96976332                0.10516353                0.16519273               -0.63201087               -0.03821175                0.00841441               -0.30671223
               0.16002190                9.02306300                6.04275865                1.00000000               -0.03743509               -0.15596803                0.54388480               -0.04751785                0.05294899                0.39437297
               1.15964755                9.02169671                5.98850632                0.71326041                0.08868439                0.08560059               -0.30543530               -0.02486254                0.17210907               -0.11780228
               2.16179559                9.01961486                5.93646723                0.10648089                0.17913939                0.33119987               -1.15813425               -0.02982806                2.46660083               -0.48924952
               3.16323034                9.01680798                5.92853724                0.00010000                0.35468222                0.23807465               -0.35482492               -0.36340169                6.60284851               -1.37557931
               4.16888924                9.00952533                5.95972287                0.00010000                0.43175269                0.06824738               -0.51656248               -0.22869192                7.87884115               -0.42317644
               5.17186539                9.00247553                5.98343783                0.00010000                0.05314389                0.11763662               -0.26088427               -0.03770844                7.31050225               -0.11434017
               6.16995211                8.99608781                6.00638421                0.00010000               -0.42154717                0.14017368                0.05070248               -0.01572452                7.28132087                0.03473523
               7.16343445                8.98884369                6.03118658                0.01634980               -0.78781154                0.11863863                0.39924365               -0.14658612                7.50585463                0.16778462
               8.15419588                8.98162407                6.05953748                0.37708829               -0.53539919               -0.22187559                0.81467851               -0.22098449                3.94069640                0.41346667
               9.15272647                8.97922546                6.01324359                0.94652231               -0.04867169               -0.04464056                0.15826417               -0.01140738                0.10626399                0.17601789
              10.15322245                8.97745485                5.96454044                0.95747860                0.04959815                0.13474894               -0.47967657               -0.03833603               -0.01416113               -0.25818079
               0.15977883               10.02167435                6.03371661                1.00000000                0.02461707               -0.13886524                0.36978960                0.10203706                0.28484934                0.32291352
               1.16002500               10.02293780                5.97851675                0.88453769                0.15179726                0.12410880               -0.51873256                0.12461407                0.50175425               -0.11123645
               2.16281477               10.02341174                5.92757772                0.56747742                0.28209382                0.37968793               -1.35072995               -0.11402256                2.78853051               -0.33286728
               3.16566687               10.01861899                5.91859685                0.35544336                0.58699854                0.18110119               -0.53581742               -0.46447102                7.10565325               -0.81256571
               4.17455474               10.00924926                5.95509594                0.35179559                0.62322366               -0.02760769               -0.55530897               -0.19077446                8.51709987               -0.25687848
               5.17813135               10.00347248                5.98270860                0.37457159                0.10194686                0.09969579               -0.27185746                0.03543924                7.84440483               -0.04631203
               6.17659368                9.99742614                6.00854750                0.42077205               -0.41518135                0.13383230                0.09788202                0.03283669                7.79359194                0.03831784
               7.16982772                9.99084608                6.03638280                0.50748992               -1.03117783                0.20023968                0.50871096               -0.28331023                8.10552589                0.11261544
               8.15597012                9.97897339                6.06908568                0.69323410               -0.79978922               -0.26506820                1.00258632               -0.44446423                4.45807090                0.29308028
               9.15383194                9.97840832                6.02396992                1.00000000               -0.11265619               -0.08171464                0.36138755                0.09465634                0.35623217                0.16574484
              10.15371700                9.97865558                5.97411191                0.98551523               -0.01149360                0.12007312               -0.30180556                0.07418160                0.12412790               -0.21021562
               0.10621670                0.06597217                7.12027337                1.00000000               -0.41739047               -0.47043198                1.61029355               -0.08607823               -0.34453479                0.40004786
               1.10204280                0.04661216                7.08829459                1.00000000               -0.34591265               -0.35827538                1.24694028               -0.06292852               -0.38469053               -0.01041993
               2.09929845                0.02694527                7.05537019                0.95562052               -0.19049395               -0.25300828                0.85962285               -0.04926493               -0.32706682               -0.20338611
               3.09823292                0.00775940                7.02447103                0.56288144                0.28345692               -0.17940027                0.50779229                0.30166203                0.47710291               -0.23256394
               4.10496759               -0.00368841                7.00756436                0.57992994                0.52770506               -0.21527547                0.24182006                0.04127779                1.18169212               -0.01768012
               5.10878702               -0.01022851                6.99010975                0.62779005                0.25007543               -0.02962693               -0.11036290               -0.01509103                0.98298225                0.00336947
               6.10996909               -0.01609077                6.96983891                0.64797067                0.05795419                0.12114262               -0.48205927                0.00405416                0.86168123                0.01525526
               7.10994610               -0.02458019                6.94999828                0.79051812                0.06752338                0.24167556               -0.82293854                0.06948952                0.57830569                0.02932199
               8.11131956               -0.03709522                6.92382859                1.00000000                0.24553669                0.34435920               -1.15780405                0.02238650                0.05987688                0.28209780
               9.11485684               -0.05141877                6.89375487                1.00000000                0.41825104                0.42705245               -1.48656592               -0.05042853               -0.17738237                0.03009670
              10.11968458               -0.06567263                6.86295327                1.00000000                0.48277474                0.52553959               -1.80646290               -0.07836779               -0.21873986               -0.23899237
               0.12471592                1.06126785                7.11015345                1.00000000               -0.37889595               -0.45287649                1.46877230               -0.03822097               -0.01813224                0.54920439
               1.12092696                1.04302941                7.07772975                1.00000000               -0.32418709               -0.33550653                1.10327582               -0.01989338                0.05104653               -0.00769727
               2.11823218                1.02441518                7.04654498                0.64256871               -0.21802920               -0.22463660                0.74463451               -0.00787297                0.29021190               -0.48134348
               3.11656638                1.00596540                7.01893470                0.00010000               -0.19289279               -0.17033374                0.39467970                0.34772235                1.23860038               -0.56565779
               4.11437432                0.99415883                7.00695803                0.07523790               -0.08645443               -0.02679425                0.21397196                0.66450428                1.78854299               -0.33931971
               5.11483729                0.98947522                6.99199468                0.12613987                0.14055759                0.03123315               -0.10496562                0.73950836                1.44843534               -0.07901256
               6.11718547                0.98512065                6.97401437                0.08313685                0.31529671               -0.02454810               -0.44897202                0.60887705                1.29637042               -0.17533601
               7.12114322                0.97783657                6.95637158                0.29868545                0.38886216                0.27707251               -0.74476127                0.39162227                1.14626323                0.44865778
               8.12496272                0.96634837                6.93504017                1.00000000                0.37490156                0.31849636               -1.03274369                0.10720468                0.55811385                0.35047201
               9.12864125                0.95285176                6.90502644                1.00000000                0.40960243                0.40556206               -1.34577714               -0.00478715                0.08343952                0.07533875
              10.13315477                0.93958277                6.87415417                1.00000000                0.45135125                0.50456157               -1.66558308               -0.03012992                0.03662528               -0.28048523
               0.14192915                2.05691464                7.10279678                1.00000000               -0.34315616               -0.41862675                1.35815020               -0.04720648                0.03763895                0.70817953
               1.13849759                2.03990203                7.06713204                1.00000000               -0.28620778               -0.29133246                0.96295046               -0.03306557                0.08144039               -0.02536523
               2.13620500                2.02245253                7.03216896                0.28268781               -0.15269382               -0.16820392                0.58611533               -0.04294465                0.59798044               -0.82314490
               3.13544371                2.00435273                7.00686561                0.00010000               -0.07285708               -0.13275525                0.24932172                0.49882055                1.97198264               -1.09848125
               4.13474786                1.99577570                6.99958927                0.00010000               -0.14141749                0.15869666                0.30791353                1.16942134                2.73505344               -0.69593057
               5.13261536                1.99039615                6.99206692                0.00010000               -0.04812844                0.05379422                0.14270726                1.16932357                2.03935031               -0.35192681
               6.13378529                1.98341826                6.97453394                0.00010000                0.19677337               -0.01408425               -0.63092424                1.16859938                2.23265061               -0.07995854
               7.13655083                1.98096126                6.97131683                0.00010000                0.23315904                0.06665819               -0.57757638                0.76392772                2.03490146                0.29763254
               8.13844847                1.96927470                6.94761929                0.41037762                0.24879315                0.27331370               -0.88518260                0.08979571                0.69748337                0.67911714
               9.14152669                1.95669247                6.91726791                1.00000000                0.35857480                0.36762961               -1.20105751                0.00159829                0.25168116                0.28742984
              10.14561996                1.94441860                6.88468168                1.00000000                0.40932681                0.46154954               -1.53745281               -0.02924495                0.13566784               -0.29329201
               0.15779700                3.05289531                7.09569728                1.00000000               -0.30692443               -0.38522001                1.24969179               -0.05080776                0.03259576                0.71982060
               1.15472775                3.03720276                7.05614312                1.00000000               -0.24372030               -0.24708360                0.81634633               -0.03611051                0.03933591               -0.04419210
               2.15292259                3.02105110                7.01653026                0.11471881               -0.07540660               -0.10995615                0.38278098               -0.08850970                0.73025469               -0.84609036
               3.15321962                3.00331030                6.99085188                0.00010000               -0.06016305                0.10545799                0.04249506                0.45902431                2.73568332               -0.73162735
               4.15171933                2.99733277                6.99155067                0.00010000               -0.13192113                0.17579163               -0.04230826                1.00539469                3.65061166               -0.61146120
               5.15058120                2.99055110                6.98683352                0.00010000               -0.08634891                0.09289394               -0.18432418                1.07908076                3.28598249               -0.47259191
               6.14999235                2.98483897                6.98191345                0.00010000               -0.00079293                0.11415869               -0.32477145                1.02404570                3.10229253                0.10569288
               7.15056534                2.97916973                6.97457824                0.00010000                0.05175352               -0.06675196               -0.51627837                0.74954351                2.85963153                0.04753431
               8.15102742                2.97181464                6.96539561                0.27752220                0.14819916                0.24331237               -0.71082428                0.27481875                1.60496121                1.13189466
               9.15352932                2.96020435                6.93280585                1.00000000                0.30450938                0.32545186               -1.02282214                0.00528946                0.21316239                0.40530963
              10.15711761                2.94881376                6.89584018                1.00000000                0.35882869                0.41524254               -1.39704310               -0.03358323               -0.01320266               -0.25293964
               0.17229810                4.04921024                7.08852015                1.00000000               -0.26785104               -0.35344702                1.13951186               -0.04950030                0.03423293                0.70353369
               1.16961959                4.03496036                7.04514960                1.00000000               -0.19854150               -0.20103821                0.66433747               -0.03170491                0.04127887               -0.04174826
               2.16832727                4.02025341                7.00171895                0.03581888               -0.06385238               -0.05092827                0.18870179                0.04289996                1.44215216               -0.76548160
               3.16834254                4.00646189                6.98646003                0.00010000               -0.03561620                0.32955494               -0.18214564                0.43298529                3.53726523               -0.08236965
               4.16761494                3.99929153                6.98608444                0.00010000               -0.08258811                0.21104703               -0.18302467                0.82244079                4.18549352               -0.36499778
               5.16669078                3.99225403                6.98584037                0.00010000               -0.09836857                0.17661845               -0.23477054                0.86111002                4.09514095               -0.23124750
               6.16564757                3.98570144                6.98543563                0.00010000               -0.10623747                0.11021571               -0.29713059                0.85262054                4.03144161                0.00003652
               7.16456603                3.97962622                6.98522252                0.00010000               -0.13686733                0.07796039               -0.37004189                0.75280242                4.08633825                0.45079317
               8.16291023                3.97414095                6.98675478                0.28236817                0.00336709                0.19436703               -0.43819939                0.31372244                2.09700453                1.12809272
               9.16463337                3.96320151                6.94725777                1.00000000                0.24096272                0.27064239               -0.83921570               -0.00601759                0.02376144                0.33673248
              10.16772948                3.95272345                6.90738924                1.00000000                0.30961100                0.36455502               -1.24194189               -0.03309935               -0.00145437               -0.26110414
               0.18530674                5.04582637                7.08113665                1.00000000               -0.22562604               -0.32226871                1.02486727               -0.05073844                0.05990649                0.66852592
               1.18305048                5.03318200                7.03422175                0.90272437               -0.15138387               -0.15251967                0.50920766               -0.03261364                0.08816396               -0.06758047
               2.18227906                5.02003254                6.98766679                0.00319403               -0.01046385                0.00770053                0.00371483                0.14985042                2.20578341               -0.74175960
               3.18284120                5.00990139                6.98323549                0.00010000                0.00484719                0.28555382               -0.16927664                0.46195156                4.39062000               -0.26140627
               4.18237600                5.00155371                6.98258906                0.00010000               -0.07238539                0.23759736               -0.24288956                0.62731772                4.66130261               -0.29730931
               5.18139349                4.99408347                6.98558464                0.00010000               -0.13517185                0.19385574               -0.24665510                0.67306239                4.83824940               -0.17616594
               6.17967257                4.98704328                6.99018873                0.00010000               -0.21058094                0.14533279               -0.23900624                0.66026807                4.91904735                0.08665715
               7.17718187                4.98072894                6.99626621                0.00010000               -0.29729927                0.11196839               -0.22714811                0.63083644                5.02728534                0.46397823
               8.17372658                4.97570198                7.00413643                0.29550375               -0.11777031                0.11962526               -0.20740525                0.27503779                2.54832323                0.88653640
               9.17482647                4.96561720                6.96135126                1.00000000                0.18425765                0.21013000               -0.64748846               -0.01093987                0.01007271                0.29711022
              10.17741174                4.95610486                6.91844402                1.00000000                0.25852673                0.31273876               -1.08114917               -0.03369422               -0.00164858               -0.29725379
               0.19657208                6.04276486                7.07333984                1.00000000               -0.18109306               -0.28479410                0.90270881               -0.05366837                0.06722949                0.62287773
               1.19476115                6.03190997                7.02273102                0.76112195               -0.09835995               -0.10014112                0.33424294               -0.04007582                0.13718890               -0.13333215
               2.19460488                6.02040742                6.97331834                0.00051044                0.06496289                0.06946779               -0.21844270                0.15647225                2.69793686               -0.82929101
               3.19606040                6.01217297                6.97409948                0.00010000                0.06871722                0.23710341               -0.28305937                0.41933723                5.24431637               -0.63395599
               4.19597922                6.00404348                6.97819195                0.00010000               -0.06989774                0.25887108               -0.28166150                0.46938064                5.44565777               -0.41759754
               5.19466245                5.99613114                6.98534885                0.00010000               -0.18858779                0.21502477               -0.23725600                0.47636404                5.62333043               -0.18972980
               6.19220747                5.98860809                6.99503474                0.00010000               -0.30691963                0.15947709               -0.16721138                0.47001652                5.76868657                0.09640352
               7.18852406                5.98186559                7.00679373                0.00010000               -0.43423709                0.10133484               -0.08168885                0.46853847                5.90832497                0.43443643
               8.18352272                5.97653346                7.02058492                0.31223412               -0.22561791                0.04500097                0.02140359                0.20111106                2.99912117                0.81442293
               9.18401170                5.96740411                6.97498213                0.94748275                0.12787735                0.14917619               -0.45338391               -0.01528841                0.02584043                0.26139850
              10.18608027                5.95897823                6.92921943                1.00000000                0.20685733                0.26147761               -0.92028644               -0.03180544                0.01262949               -0.32446287
               0.20594316                7.04013049                7.06508960                1.00000000               -0.13367567               -0.23775817                0.76947874               -0.05337612                0.04493956                0.58708213
               1.20460640                7.03117917                7.01049135                0.68334305               -0.03988249               -0.04562838                0.14140198               -0.04440120                0.13427039               -0.17945394
               2.20514551                7.02142189                6.95748639                0.01986353                0.14927417                0.13823825               -0.47570388                0.13553105                3.11725405               -0.92856266
               3.20759188                7.01464346                6.96280208                0.00010000                0.13299654                0.27586952               -0.41737357                0.30920759                6.07499969               -0.90502346
               4.20780544                7.00673113                6.97182876                0.00010000               -0.06178619                0.26999331               -0.32526733                0.25763788                6.30571854               -0.58680245
               5.20635616                6.99838397                6.98438055                0.00010000               -0.22334938                0.22379633               -0.22288694                0.26410793                6.48834743               -0.23390394
               6.20333845                6.99023282                6.99950227                0.00010000               -0.38644396                0.16272433               -0.09194294                0.26727767                6.62735911                0.07989173
               7.19862728                6.98275563                7.01690150                0.00691823               -0.55640837                0.07431228                0.06684935                0.26772706                6.77834382                0.40471726
               8.19221028                6.97660200                7.03658992                0.33199794               -0.32756769               -0.03434184                0.25583788                0.09971359                3.45138751                0.77089920
               9.19207593                6.96860072                6.98835306                0.89953443                0.07085529                0.09058496               -0.26029092               -0.01727177                0.04010341                0.23554223
              10.19362739                6.96133441                6.93964447                1.00000000                0.15514617                0.21193018               -0.76348475               -0.03248334                0.01235152               -0.34899669
               0.21340718                8.03800970                7.05654879                1.00000000               -0.08254669               -0.18771393                0.62642468               -0.05050657                0.03446095                0.56906295
               1.21258172                8.03099740                6.99805592                0.66446104                0.02220135                0.01373340               -0.06563641               -0.03924381                0.11736548               -0.19116461
               2.21385121                8.02317219                6.94105593                0.05398373                0.21768036                0.22189932               -0.76325022                0.10774991                3.37241769               -0.91886191
               3.21693532                8.01769036                6.94800084                0.00010000                0.17701334                0.27079637               -0.41975207                0.06259603                6.87154788               -1.37117073
               4.21739148                8.00944335                6.96361656                0.00010000               -0.02462058                0.22183783               -0.33246708               -0.00168801                7.32957949               -0.66486405
               5.21644291                8.00060707                6.98270757                0.00010000               -0.21050628                0.20126786               -0.21461688                0.07680544                7.41685977               -0.23462212
               6.21318135                7.99186258                7.00344076                0.00010000               -0.44667459                0.17444499               -0.02083546                0.08869122                7.48356685                0.06071536
               7.20750942                7.98335184                7.02646398                0.01199553               -0.67547192                0.06392917                0.21511798                0.02738643                7.65003987                0.34587411
               8.19967191                7.97584662                7.05227786                0.35349779               -0.42877819               -0.12042937                0.49497158               -0.03135652                3.91213519                0.71753339
               9.19893386                7.96921581                7.00147732                0.89848960                0.01456559                0.02941239               -0.06799202               -0.01388775                0.05122896                0.22693181
              10.19996322                7.96321683                6.94982106                0.97155309                0.10293685                0.16957770               -0.61191255               -0.03458188                0.00691995               -0.36252174
               0.21895762                9.03637621                7.04783572                1.00000000               -0.02985856               -0.14324682                0.47888023               -0.04334874                0.04059054                0.46848151
               1.21865904                9.03145384                6.98555739                0.69192909                0.08249644                0.08150399               -0.28364470               -0.02135330                0.15358699               -0.17490878
               2.22060755                9.02585988                6.92541474                0.08065913                0.19568034                0.30982104               -1.05489585               -0.00033607                3.35948517               -0.65358987
               3.22257264                9.02005939                6.92764161                0.00010000                0.21237067                0.11365612               -0.06936821               -0.14680174                7.77255747               -1.22944664
               4.22485496                9.01116788                6.95550479                0.00010000                0.14501967                0.11206298               -0.34823899               -0.12048925                8.64172686               -0.47207980
               5.22547304                9.00240932                6.98102480                0.00010000               -0.12437272                0.15718774               -0.21127734                0.00516527                8.28711013               -0.14310584
               6.22236751                8.99372172                7.00678249                0.00010000               -0.51410325                0.18036019                0.03940002               -0.00754334                8.26897153                0.03873110
               7.21519097                8.98403422                7.03490174                0.01486106               -0.83241647                0.15308499                0.35093857               -0.14497232                8.50664222                0.21302828
               8.20571918                8.97419341                7.06721329                0.37161007               -0.53815054               -0.20122972                0.72976659               -0.21679693                4.43140212                0.51304699
               9.20442796                8.96918897                7.01466276                0.94602847               -0.03927369               -0.03660779                0.12718278               -0.00669422                0.09262145                0.20878459
              10.20493371                8.96472596                6.95987696                0.95891568                0.05057457                0.13380437               -0.45866942               -0.03417217               -0.01762393               -0.30480656
               0.22238494               10.03514476                7.03708545                1.00000000                0.02860351               -0.12314481                0.31090155                0.09100388                0.30789681                0.38124947
               1.22267098               10.03262748                6.97348509                0.87390273                0.14269983                0.11736380               -0.48606555                0.11238637                0.54613406               -0.16101621
               2.22523894               10.02936861                6.91459112                0.55170195                0.30101533                0.35087260               -1.24376436               -0.17006130                3.79481088               -0.44185865
               3.22869128               10.01996348                6.91639818                0.35526316                0.36964094               -0.00959126               -0.11959122               -0.27233587                8.44959122               -0.83361024
               4.23263176               10.01168461                6.95064855                0.35212722                0.26505460                0.05167236               -0.37039111               -0.03295331                9.41346469               -0.22542379
               5.23399238               10.00375082                6.98019102                0.37503869               -0.06130848                0.13415011               -0.21791476                0.04119280                8.91393106               -0.05029485
               6.23140559                9.99546978                7.00938326                0.42116521               -0.49270475                0.17480609                0.08172574                0.03694337                8.88436071                0.04940515
               7.22413828                9.98641354                7.04111059                0.50842565               -1.06121817                0.23793167                0.44802121               -0.28765704                9.22147497                0.14495113
               8.21018123                9.97182202                7.07855646                0.69268535               -0.79354296               -0.23713900                0.90224541               -0.45028968                5.04365009                0.35826775
               9.20826742                9.96848365                7.02733397                1.00000000               -0.09877191               -0.07053141                0.31486232                0.08749079                0.38305714                0.19364552
              10.20820579                9.96589292                6.97118189                0.98646409               -0.00616353                0.11669551               -0.28994465                0.06813459                0.14215471               -0.24465243
               0.13634135                0.08102248                8.13619152                1.00000000               -0.41008042               -0.45963998                1.57490038               -0.08175862               -0.38788280                0.44303564
               1.13224055                0.05781263                8.10069529                1.00000000               -0.34001271               -0.35341415                1.23178621               -0.05925332               -0.44200549               -0.00595272
               2.12954110                0.03429610                8.06397081                0.97094628               -0.18663759               -0.25251656                0.85811879               -0.04638407               -0.37875167               -0.20358439
               3.12850780                0.01136039                8.02964039                0.57728383                0.29577479               -0.18347056                0.52195969                0.33168778                0.47803313               -0.26886097
               4.13545659               -0.00308955                8.00998942                0.60718830                0.52294249               -0.19456336                0.24120684                0.02522633                1.16213462               -0.00960796
               5.13896665               -0.01209721                7.98903342                0.66035261                0.23269873               -0.02055025               -0.10571833               -0.01061500                0.91769600                0.00615806
               6.14011057               -0.02032085                7.96508170                0.67133405                0.06041390                0.11524200               -0.47021455                0.00371191                0.79612010                0.00705440
               7.14017492               -0.03105132                7.94178923                0.80405289                0.06783347                0.23329805               -0.81752422                0.06762327                0.52396048                0.02925435
               8.14146724               -0.04603532                7.91227136                1.00000000                0.23817444                0.34335479               -1.15116292                0.03044498                0.01291815                0.29565041
               9.14493841               -0.06309843                7.87894059                1.00000000                0.41241460                0.42339685               -1.47488874               -0.04992951               -0.21602934                0.02893625
              10.14971553               -0.08013594                7.84499052                1.00000000                0.47771171                0.51826836               -1.78723796               -0.07857994               -0.25234662               -0.27174760
               0.15873362                1.07642608                8.12465294                1.00000000               -0.37224075               -0.44316955                1.43353105               -0.03560915               -0.02727539                0.60725265
               1.15501121                1.05427849                8.08869617                1.00000000               -0.32151180               -0.33104592                1.08941775               -0.01627159                0.04279807               -0.00037595
               2.15230338                1.03177093                8.05401807                0.67059580               -0.22468561               -0.22490014                0.74698149               -0.00132525                0.28640547               -0.49974829
               3.15051750                1.00952568                8.02295473                0.01762344               -0.24328619               -0.17555474                0.40640380                0.40390009                1.31623492               -0.61142566
               4.14743766                0.99496482                8.00910073                0.11118077               -0.15206733                0.00195616                0.21235472                0.68024739                1.87184482               -0.19685459
               5.14747615                0.98769729                7.99096447                0.16803451                0.10935448                0.08378006               -0.10184744                0.66885119                1.45312699                0.06751926
               6.14962475                0.98083157                7.96958425                0.11357944                0.31161213               -0.05845186               -0.43779203                0.54877189                1.30784044               -0.28511540
               7.15370839                0.97128166                7.94895195                0.31567616                0.40852476                0.27235933               -0.73829753                0.42244814                1.17389161                0.48887253
               8.15779524                0.95739823                7.92473346                1.00000000                0.38905161                0.31764186               -1.02595907                0.12781068                0.57269955                0.37320958
               9.16148942                0.94113554                7.89162758                1.00000000                0.40859991                0.40285992               -1.33324974               -0.00312271                0.08340657                0.07542236
              10.16596724                0.92504675                7.85760883                1.00000000                0.44778145                0.49563181               -1.64533681               -0.03044770                0.03416913               -0.31903050
               0.17992435                2.07215909                8.11618948                1.00000000               -0.33540834               -0.41203024                1.32278954               -0.04240942                0.03480404                0.78419977
               1.17657027                2.05119172                8.07670663                1.00000000               -0.28284751               -0.28849486                0.95164318               -0.02671713                0.08652162               -0.01800208
               2.17426740                2.02979809                8.03812041                0.29983930               -0.15891793               -0.16978527                0.60052555               -0.03169044                0.62742457               -0.88573483
               3.17339191                2.00784930                8.00946856                0.00010000               -0.16887329               -0.14438773                0.26800121                0.59213745                2.27344367               -1.18142261
               4.17088994                1.99694958                8.00403108                0.00010000               -0.34574935                0.16683125                0.55887921                1.32927640                2.92398931               -0.72674638
               5.16647692                1.98957839                7.99394557                0.00010000               -0.16941485                0.07010537                0.13578062                1.21917327                1.75556998               -0.40525881
               6.16750164                1.97851011                7.96833473                0.00010000                0.27901533               -0.03842686               -0.55144112                1.21725890                2.11326135               -0.02222056
               7.17205723                1.97439586                7.96545472                0.00010000                0.33339652                0.04456249               -0.59460329                0.86955885                2.24048706                0.31998128
               8.17416957                1.96031751                7.93877574                0.40712271                0.25851033                0.28070630               -0.88015977                0.13055478                0.73477948                0.71774394
               9.17722744                1.94495877                7.90532176                1.00000000                0.35572964                0.36996949               -1.18783366                0.01321376                0.27138138                0.30492548
              10.18128416                1.92977670                7.86942151                1.00000000                0.40567260                0.45065432               -1.51673847               -0.02578728                0.14571429               -0.33229624
               0.19982018                3.06818548                8.10800850                1.00000000               -0.29823173               -0.38247532                1.21446284               -0.04585443                0.02952409                0.79921118
               1.19683786                3.04850860                8.06426729                1.00000000               -0.24040947               -0.24615561                0.80810375               -0.03038453                0.03432625               -0.04154736
               2.19501199                3.02837523                8.02046484                0.12459913               -0.08145504               -0.11103280                0.40160684               -0.08487570                0.77036431               -0.93014100
               3.19520876                3.00663793                7.99147105                0.00010000               -0.13589534                0.09660805                0.07589629                0.52338607                2.94026568               -0.86830563
               4.19229409                2.99830145                7.99129232                0.00010000               -0.24548405                0.17126703               -0.01159560                1.18579212                3.95168300               -0.84718889
               5.19029908                2.98909940                7.98523073                0.00010000               -0.15708156                0.04912821               -0.13270942                1.27854207                3.52745311               -0.66766229
               6.18915245                2.98006303                7.97862729                0.00010000               -0.05034582                0.13970794               -0.33348537                1.20378328                3.30954428                0.20959616
               7.18929217                2.97217291                7.96933900                0.00010000                0.03454883               -0.07932344               -0.52512299                0.88903663                3.03927063                0.05726139
               8.18984343                2.96301235                7.95815497                0.26980001                0.15011741                0.25834511               -0.72650395                0.35308921                1.73018933                1.23616726
               9.19229451                2.94853493                7.92263938                1.00000000                0.29861019                0.33011557               -1.01051774                0.01873550                0.25025507                0.43951628
              10.19581563                2.93405983                7.88198080                1.00000000                0.35211204                0.40747572               -1.37683725               -0.03216186               -0.01298754               -0.27967323
               0.21836103                4.06450959                8.09972802                1.00000000               -0.25881997               -0.35315794                1.10349002               -0.04502873                0.03052177                0.78381928
               1.21577283                4.04626860                8.05176632                1.00000000               -0.19602384               -0.20087822                0.65855671               -0.02665076                0.03540417               -0.04238155
               2.21444055                4.02757744                8.00373825                0.04236070               -0.09197089               -0.05130228                0.21288477                0.04538457                1.47018456               -0.84148378
               3.21393341                4.00978146                7.98453839                0.00010000               -0.11481216                0.35742219               -0.20407557                0.47149802                3.81847979               -0.12671456
               4.21214431                4.00037492                7.98436095                0.00010000               -0.18236165                0.21910243               -0.16153882                0.94193039                4.62630097               -0.42084634
               5.21028618                3.99056096                7.98355727                0.00010000               -0.18202579                0.17114161               -0.22011369                0.95515220                4.48465614               -0.27179322
               6.20850379                3.98130427                7.98244438                0.00010000               -0.16987691                0.13924167               -0.29755279                0.95148934                4.39206699               -0.00760961
               7.20688864                3.97280940                7.98142226                0.00010000               -0.18172316                0.09798048               -0.38462638                0.88285940                4.42835659                0.50247532
               8.20486933                3.96548442                7.98226938                0.27487970               -0.01669890                0.20291106               -0.45475124                0.38712398                2.26682877                1.26543247
               9.20655466                3.95156108                7.93891110                1.00000000                0.23608933                0.27241191               -0.82984128                0.00389396                0.02804068                0.37530719
              10.20959112                3.93792622                7.89506834                1.00000000                0.30364545                0.36268989               -1.22337097               -0.03104748               -0.00156390               -0.27992882
               0.23540157                5.06112232                8.09118339                1.00000000               -0.21645755               -0.32179017                0.98590769               -0.04653991                0.06187790                0.74742919
               1.23323700                5.04449103                8.03929734                0.88839377               -0.14973707               -0.15214078                0.50554350               -0.02873731                0.09346363               -0.07865440
               2.23240683                5.02734918                7.98787763                0.00723325               -0.06978760                0.00737558                0.03618335                0.17938925                2.37004171               -0.83431452
               3.23184124                5.01378637                7.98162708                0.00010000               -0.10268199                0.32542058               -0.15617629                0.51327573                4.75839072               -0.23538432
               4.23035319                5.00268349                7.98021785                0.00010000               -0.16842349                0.24673693               -0.22999059                0.70728473                5.11494407               -0.31509874
               5.22847277                4.99252223                7.98314518                0.00010000               -0.22096935                0.20876824               -0.23805775                0.75199678                5.32219253               -0.18692283
               6.22593380                4.98284786                7.98775336                0.00010000               -0.28517841                0.16684060               -0.24301949                0.74314741                5.39399697                0.09999843
               7.22276921                4.97413252                7.99389560                0.00010000               -0.35497898                0.13188102               -0.24143573                0.73146967                5.48960670                0.51941321
               8.21883422                4.96707057                8.00196410                0.28839488               -0.14193057                0.11885695               -0.22306975                0.33717140                2.77116515                0.99778222
               9.21993060                4.95398317                7.95489696                1.00000000                0.18150979                0.20991512               -0.64256147               -0.00129574                0.00821616                0.33909913
              10.22246442                4.94131363                7.90772194                1.00000000                0.25338245                0.31367800               -1.06425429               -0.03163028               -0.00186652               -0.31547957
               0.25069281                6.05807378                8.08213898                1.00000000               -0.17215865               -0.28204410                0.85925199               -0.04917953                0.06748100                0.69739239
               1.24897122                6.04322579                8.02606029                0.74822548               -0.09799071               -0.09911266                0.33174414               -0.03627555                0.14288170               -0.16156196
               2.24873300                6.02772495                7.97133008                0.00247312               -0.00533046                0.07042308               -0.18097400                0.19683793                2.94451348               -0.95912242
               3.24886461                6.01628987                7.97143470                0.00010000               -0.05894237                0.24957162               -0.24937356                0.49941821                5.74898118               -0.69450913
               4.24755415                6.00530966                7.97546728                0.00010000               -0.18514343                0.27133667               -0.26020130                0.55919540                5.99567971               -0.43517230
               5.24516175                5.99473632                7.98300167                0.00010000               -0.28988464                0.23483287               -0.22794288                0.55985482                6.19716636               -0.19177302
               6.24175646                5.98464108                7.99331381                0.00010000               -0.39332096                0.18478617               -0.17148453                0.54616331                6.34506355                0.11802150
               7.23729533                5.97544702                8.00587333                0.00010000               -0.49971734                0.11976944               -0.09712835                0.54853930                6.48131178                0.49314330
               8.23176211                5.96786156                8.02068098                0.30517329               -0.25048186                0.04065538                0.00001237                0.25006946                3.27711582                0.92420468
               9.23228569                5.95575938                7.97044888                0.95052285                0.12677389                0.14713749               -0.45099588               -0.00647954                0.02267746                0.30120423
              10.23429759                5.94419978                7.92011028                1.00000000                0.20118971                0.26279003               -0.89831032               -0.03068947                0.01256747               -0.34739156
               0.26411397                7.05548144                8.07252766                1.00000000               -0.12536532               -0.23224627                0.72143661               -0.04832798                0.04274577                0.65568418
               1.26286032                7.04250878                8.01191374                0.67090975               -0.04172310               -0.04446672                0.14364924               -0.03903664                0.13472776               -0.22149101
               2.26327951                7.02875764                7.95299345                0.01807318                0.06922922                0.13786035               -0.42479605                0.17810296                3.45012402               -1.09132610
               3.26424490                7.01877781                7.95890969                0.00010000               -0.00944332                0.26523417               -0.36578863                0.41018357                6.73795267               -0.93001953
               4.26309064                7.00811023                7.96876159                0.00010000               -0.19532282                0.28006726               -0.28923471                0.37839649                6.97520798               -0.59255980
               5.26033845                6.99721889                7.98222814                0.00010000               -0.34721329                0.25233679               -0.20479468                0.36163036                7.16148091               -0.23657949
               6.25614638                6.98654359                7.99854558                0.00010000               -0.49094639                0.19578339               -0.09376161                0.33719100                7.30674576                0.10116004
               7.25051952                6.97652791                8.01745610                0.00282438               -0.63115662                0.09717691                0.04869617                0.32520807                7.46328318                0.46458852
               8.24352324                6.96788368                8.03897946                0.32497883               -0.35283663               -0.03616794                0.22357009                0.13184289                3.78412875                0.88371774
               9.24346279                6.95692592                7.98571670                0.90042341                0.07233026                0.08853396               -0.26340867               -0.01138470                0.03371386                0.27037054
              10.24496985                6.94656943                7.93210912                1.00000000                0.15070646                0.21389504               -0.74137840               -0.03085746                0.01259714               -0.38215897
               0.27567157                8.05342886                8.06253573                1.00000000               -0.07572848               -0.17927318                0.57548881               -0.04542090                0.03013058                0.63382435
               1.27491429                8.04233645                7.99745127                0.65044216                0.01772279                0.01302924               -0.05467527               -0.03333728                0.10772920               -0.24445963
               2.27602603                8.03048216                7.93380158                0.04505176                0.14007075                0.21251146               -0.69082579                0.14398327                3.85767153               -1.10050833
               3.27771570                8.02159455                7.94401304                0.00010000                0.03274850                0.25219489               -0.39036179                0.23876923                7.72350103               -1.16615757
               4.27668100                8.01091100                7.96067796                0.00010000               -0.18773540                0.24707594               -0.27689828                0.17192267                8.06352328               -0.63996293
               5.27396099                7.99978306                7.98075572                0.00010000               -0.37448699                0.24555338               -0.17840534                0.18185969                8.17328194               -0.23885272
               6.26919126                7.98855675                8.00321664                0.00010000               -0.57507990                0.21881738               -0.01855038                0.14578602                8.27167653                0.07721383
               7.26245939                7.97739055                8.02846896                0.00913034               -0.75951512                0.09648683                0.19097450                0.05992115                8.45278986                0.40032444
               8.25400095                7.96713820                8.05696620                0.34700297               -0.45435762               -0.11386318                0.44678980               -0.01604148                4.30086611                0.82833941
               9.25337224                7.95753006                8.00071261                0.89825489                0.01962274                0.03092899               -0.08324036               -0.01040377                0.03978732                0.25947760
              10.25439341                7.94847768                7.94379335                0.97438259                0.10211666                0.17142301               -0.59592054               -0.03165271                0.00579133               -0.40252094
               0.28539036                9.05189597                8.05233625                1.00000000               -0.02500887               -0.13144939                0.42663447               -0.03936511                0.03103307                0.52317649
               1.28514027                9.04276936                7.98283343                0.67542366                0.07553576                0.07628158               -0.26046319               -0.01801880                0.13693725               -0.22594240
               2.28690108                9.03300787                7.91536931                0.06292060                0.17255848                0.28698241               -0.95734604                0.04121079                4.18310485               -0.79091880
               3.28859144                9.02382170                7.92714987                0.00010000                0.07197556                0.14195495               -0.13814029                0.04647213                8.75981081               -0.96205725
               4.28834059                9.01305175                7.95275809                0.00010000               -0.11307752                0.17711251               -0.25100734                0.03292258                9.25883721               -0.43768379
               5.28632989                9.00212996                7.97921228                0.00010000               -0.34429928                0.21755424               -0.15823674                0.07912289                9.12446990               -0.14955617
               6.28145460                8.99091994                8.00717221                0.00010000               -0.65966993                0.23279788                0.04423126                0.02488784                9.16564528                0.04884035
               7.27313649                8.97845764                8.03820535                0.01461573               -0.91958484                0.19684279                0.31737601               -0.13444493                9.43148521                0.24782506
               8.26306291                8.96560642                8.07413281                0.36779940               -0.56106311               -0.18428936                0.66076595               -0.21471805                4.88498140                0.58989291
               9.26191523                8.95754450                8.01578724                0.94465280               -0.03106666               -0.02956340                0.09944449               -0.00565565                0.08070099                0.23721794
              10.26244157                8.94999789                7.95536706                0.96045534                0.05263411                0.13374997               -0.44686557               -0.03111756               -0.02064837               -0.33851853
               0.29313749               10.05079987                8.03993465                1.00000000                0.03045204               -0.10961046                0.26404188                0.08093458                0.32484854                0.42548114
               1.29344201               10.04386209                7.96879543                0.86595532                0.13302045                0.10927224               -0.45153431                0.10127074                0.57835719               -0.20503559
               2.29579790               10.03622181                7.90270243                0.54110446                0.25796284                0.32139334               -1.13688298               -0.08173931                4.78999210               -0.53106062
               3.29860127               10.02443365                7.91620502                0.35563708                0.16166478                0.06119462               -0.10529880               -0.08744499                9.52879752               -0.56070745
               4.29903120               10.01445325                7.94768811                0.35248157               -0.04630036                0.14015056               -0.27102772                0.05408557               10.08182023               -0.19932803
               5.29767526               10.00413414                7.97835030                0.37536588               -0.28349354                0.20041889               -0.15905176                0.07250976                9.83437011               -0.04209484
               6.29336133                9.99321271                8.01018201                0.42152758               -0.62956237                0.22927720                0.08502561                0.05033564                9.87386437                0.06190015
               7.28508401                9.98132741                8.04534322                0.50952942               -1.13707939                0.28697671                0.40819636               -0.29326272               10.25155794                0.17248830
               8.27061974                9.96345241                8.08713059                0.69271081               -0.81081807               -0.21540067                0.82024393               -0.46374748                5.57700718                0.40150143
               9.26886765                9.95693880                8.03026717                1.00000000               -0.08777343               -0.06057026                0.27421350                0.08025547                0.40453532                0.21684542
              10.26886427                9.95115268                7.96831302                0.98711796               -0.00033838                0.11547823               -0.28735335                0.06365762                0.15586434               -0.27030731
               0.16945150                0.09791004                9.15177138                1.00000000               -0.40281053               -0.44950956                1.54292030               -0.07862280               -0.43023582                0.48362560
               1.16542340                0.07049135                9.11293031                1.00000000               -0.33365940               -0.34808016                1.21478187               -0.05710983               -0.50109853               -0.00024251
               2.16277832                0.04277905                9.07253257                0.98464066               -0.18242112               -0.25084365                0.85275503               -0.04455060               -0.43462234               -0.19970272
               3.16177498                0.01575351                9.03491022                0.58955569                0.30194703               -0.18447920                0.52897456                0.35923100                0.46219282               -0.30503645
               4.16881726               -0.00210321                9.01238850                0.62939800                0.51368409               -0.17167117                0.23855280                0.01237421                1.13059144                0.00168031
               5.17204866               -0.01396745                8.98799538                0.68682127                0.21592137               -0.01190980               -0.10175880               -0.00581401                0.85276580                0.01042052
               6.17313568               -0.02495479                8.96043462                0.69023903                0.05934932                0.11201061               -0.45914119                0.00425796                0.72687698               -0.00036915
               7.17323564               -0.03832054                8.93364779                0.81437431                0.06454398                0.22690574               -0.80919217                0.06603884                0.46447533                0.02906414
               8.17442656               -0.05610641                8.90080534                1.00000000                0.22907237                0.34146010               -1.14034603                0.03677621               -0.03410375                0.30747888
               9.17781709               -0.07621403                8.86425709                1.00000000                0.40556141                0.41930657               -1.46060310               -0.05019653               -0.25286736                0.02706949
              10.18253779               -0.09634420                8.82720851                1.00000000                0.47206998                0.51153695               -1.76908212               -0.07923056               -0.28384696               -0.30354996
               0.19608396                1.09341494                9.13882407                1.00000000               -0.36661658               -0.43334813                1.40295102               -0.03346745               -0.03668675                0.66219311
               1.19241779                1.06701055                9.09951810                1.00000000               -0.31911137               -0.32602409                1.07481621               -0.01353157                0.03204241                0.00803290
               2.18970173                1.04027062                9.06148461                0.69664344               -0.23046880               -0.22439916                0.74414742                0.00557062                0.27563188               -0.51038066
               3.18780842                1.01390872                9.02706277                0.03813684               -0.29501245               -0.17727789                0.41257659                0.45682067                1.37481431               -0.65429375
               4.18380148                0.99618008                9.01120512                0.14257606               -0.21960527                0.05761987                0.20825349                0.59690516                1.94226472                0.06115594
               5.18341631                0.98591345                8.98995773                0.20410901                0.07766612                0.09960828               -0.09939186                0.56798424                1.45907051                0.16160623
               6.18535480                0.97616531                8.96525853                0.13981670                0.30277658               -0.05571968               -0.42757125                0.47203750                1.31788171               -0.33173260
               7.18947184                0.96394852                8.94160563                0.33076104                0.41931337                0.26471852               -0.73001927                0.44133985                1.19809148                0.51646895
               8.19374107                0.94730819                8.91452099                1.00000000                0.39810881                0.31572446               -1.01528622                0.14404892                0.58693336                0.39424427
               9.19743402                0.92797904                8.87836144                1.00000000                0.40672925                0.39966065               -1.31942520               -0.00227771                0.08461341                0.07506656
              10.20187566                0.90877117                8.84124744                1.00000000                0.44416378                0.48724506               -1.62755702               -0.03093882                0.03309311               -0.35719987
               0.22159093                2.08924307                9.12925257                1.00000000               -0.32938391               -0.40369734                1.29202860               -0.03792310                0.03238732                0.85598986
               1.21829709                2.06397087                9.08616490                1.00000000               -0.27996855               -0.28492138                0.93989431               -0.02059307                0.09282344               -0.00947778
               2.21599156                2.03829107                9.04417947                0.31741333               -0.16475835               -0.17200833                0.60830813               -0.01692664                0.64947717               -0.93939403
               3.21500192                2.01220796                9.01222563                0.00010000               -0.36204642               -0.15171847                0.28080032                0.70735802                2.66496957               -1.25601896
               4.20875063                1.99904919                9.01076686                0.00010000               -0.57894070                0.19395187                0.66222091                1.45042931                3.04535335               -0.78371473
               5.20342311                1.98802471                8.99478254                0.00010000               -0.21046361                0.08363531                0.04114830                1.26302990                1.52881072               -0.46048149
               6.20454136                1.97393081                8.96350511                0.00010000                0.37482275               -0.06220370               -0.44808209                1.28346433                2.13468266                0.03386848
               7.21091957                1.96697383                8.95942476                0.00010000                0.43678330                0.01994490               -0.60830168                0.93142467                2.37898881                0.33964755
               8.21327703                1.95020808                8.93001610                0.40853982                0.26944937                0.28680760               -0.87046138                0.16975525                0.78297269                0.74869109
               9.21630855                1.93177919                8.89351124                1.00000000                0.35288615                0.37131472               -1.17428332                0.02335991                0.29253606                0.32152736
              10.22033475                1.91340070                8.85434691                1.00000000                0.40261953                0.44011450               -1.49935984               -0.02288056                0.15661155               -0.37102665
               0.24586990                3.08534099                9.11998654                1.00000000               -0.29119633               -0.37656684                1.18313647               -0.04083678                0.02753172                0.87271068
               1.24295794                3.06131213                9.07230519                1.00000000               -0.23718918               -0.24440939                0.79927312               -0.02450964                0.03080453               -0.03832095
               2.24112612                3.03683045                9.02456239                0.13605370               -0.08802395               -0.11400603                0.41561990               -0.07352240                0.80524841               -1.00783554
               3.24119746                3.01087435                8.99236981                0.00010000               -0.20664022                0.07818063                0.09993658                0.61580902                3.12702364               -1.02458349
               4.23699331                3.00005912                8.99131876                0.00010000               -0.37010854                0.14499425                0.01821178                1.45416274                4.25831240               -1.19507781
               5.23379529                2.98758615                8.98417933                0.00010000               -0.24591719                0.04394992               -0.09879166                1.48697364                3.73375041               -0.83219009
               6.23207497                2.97492124                8.97524374                0.00010000               -0.09861065                0.12461827               -0.33453636                1.39219138                3.47591516                0.27387124
               7.23182307                2.96434742                8.96407578                0.00010000                0.01279294               -0.09273537               -0.52363318                1.02558463                3.22413199                0.08639092
               8.23233083                2.95304434                8.95086553                0.26426523                0.14427584                0.27161986               -0.72314270                0.42694272                1.85478006                1.32543642
               9.23470859                2.93540533                8.91259550                1.00000000                0.29220921                0.33354445               -0.99863813                0.03078997                0.29392467                0.47152490
              10.23817501                2.91757346                8.86830343                1.00000000                0.34664207                0.39915173               -1.36013360               -0.03073857               -0.01215200               -0.30570460
               0.26883193                4.08171174                9.11058996                1.00000000               -0.25144897               -0.34885013                1.07074239               -0.04058043                0.02796196                0.85507397
               1.26631744                4.05908269                9.05832073                1.00000000               -0.19365238               -0.19985908                0.65212603               -0.02166084                0.03091989               -0.04347809
               2.26495889                4.03601095                9.00597665                0.05109115               -0.11140034               -0.05380145                0.23259487                0.04564586                1.46245603               -0.90920711
               3.26408944                4.01377157                8.98237852                0.00010000               -0.19184013                0.37115228               -0.22272478                0.52047305                4.07612253               -0.17896709
               4.26112208                4.00194907                8.98285366                0.00010000               -0.28944869                0.20431373               -0.14190496                1.06478078                5.06278235               -0.48918711
               5.25830046                3.98890371                8.98143810                0.00010000               -0.27490811                0.16572305               -0.20326614                1.04903264                4.84293826               -0.33421785
               6.25562392                3.97642318                8.97948458                0.00010000               -0.24961530                0.16262941               -0.29271350                1.04712711                4.72118860               -0.00469577
               7.25330816                3.96511913                8.97752999                0.00010000               -0.24329770                0.11593555               -0.38921243                1.00787467                4.75027018                0.55958593
               8.25075797                3.95564047                8.97765975                0.26836225               -0.04564631                0.21008442               -0.46364821                0.45743235                2.43850489                1.39483159
               9.25239523                3.93845007                8.93066095                1.00000000                0.23128763                0.27280315               -0.82040835                0.01338111                0.04011024                0.41071708
              10.25538372                3.92138374                8.88292182                1.00000000                0.29884890                0.35899284               -1.20727619               -0.02916230               -0.00108741               -0.29718852
               0.29031639                5.07836399                9.10085481                1.00000000               -0.20908878               -0.31716525                0.95040712               -0.04254688                0.06512518                0.81358534
               1.28822551                5.05731494                9.04433262                0.87452952               -0.14831226               -0.15101798                0.50134618               -0.02496638                0.10077144               -0.09141884
               2.28735015                5.03575442                8.98839045                0.01354987               -0.12783576                0.00491011                0.06389136                0.20721473                2.50910804               -0.91796178
               3.28566879                5.01829740                8.98011197                0.00010000               -0.20966828                0.36143008               -0.15513172                0.56021763                5.09219058               -0.18023795
               4.28315678                5.00414539                8.97798925                0.00010000               -0.26834784                0.24236091               -0.21636499                0.79034922                5.54532319               -0.32968714
               5.28030184                4.99090062                8.98082349                0.00010000               -0.31773464                0.21545067               -0.22511006                0.82436121                5.77562163               -0.19627373
               6.27680209                4.97817383                8.98532834                0.00010000               -0.37692820                0.18765635               -0.23903033                0.81893340                5.83780338                0.11698499
               7.27276327                4.96666613                8.99143750                0.00010000               -0.43267827                0.15244135               -0.24664598                0.82735793                5.92972541                0.57803691
               8.26814853                4.95724603                8.99967504                0.28196108               -0.17651622                0.11808589               -0.23329571                0.39633968                2.99008515                1.10290088
               9.26923295                4.94086140                8.94850004                1.00000000                0.17879560                0.20791879               -0.63596886                0.00740027                0.00979619                0.37879833
              10.27172444                4.92475332                8.89715894                1.00000000                0.24914912                0.31297415               -1.04832932               -0.02955340               -0.00259319               -0.32596993
               0.31007909                6.07536843                9.09052487                1.00000000               -0.16514048               -0.27582845                0.82049837               -0.04513446                0.06769317                0.75635669
               1.30842769                6.05606233                9.02936590                0.73623884               -0.09791824               -0.09782899                0.32948542               -0.03248100                0.14856861               -0.19077308
               2.30812073                6.03610915                8.96969886                0.00647071               -0.07624347                0.06847231               -0.14753373                0.23698636                3.17101460               -1.07690113
               3.30690282                6.02100017                8.96911201                0.00010000               -0.18974390                0.25836683               -0.21950417                0.58005716                6.21355869               -0.72606596
               4.30432585                6.00679629                8.97298792                0.00010000               -0.30717823                0.27619305               -0.23793242                0.65234605                6.50544227               -0.43240202
               5.30075925                5.99321272                8.98078999                0.00010000               -0.40443878                0.24988552               -0.21336189                0.64399856                6.73162001               -0.18171162
               6.29623707                5.98017630                8.99160505                0.00010000               -0.49880696                0.20896833               -0.16736026                0.61992745                6.88581957                0.14654468
               7.29078311                5.96816795                9.00485116                0.00010000               -0.58737887                0.13928232               -0.10404603                0.62608419                7.02434393                0.55271068
               8.28448950                5.95800219                9.02058516                0.29881465               -0.28735841                0.03725590               -0.01640433                0.29621135                3.54557558                1.02334559
               9.28503595                5.94260845                8.96596221                0.94222908                0.12596556                0.14415000               -0.44903855                0.00143139                0.02518376                0.33993280
              10.28700881                5.92764322                8.91125322                1.00000000                0.19728613                0.26274240               -0.88014078               -0.02801980                0.01810245               -0.35996380
               0.32802592                7.07284742                9.07951834                1.00000000               -0.11907511               -0.22454203                0.68003197               -0.04392507                0.04069064                0.70763862
               1.32683517                7.05535836                9.01336434                0.65987377               -0.04369431               -0.04369045                0.14667513               -0.03403966                0.13523796               -0.26139110
               2.32715203                7.03712387                8.94899047                0.01847603               -0.01261874                0.13385043               -0.37863235                0.22142568                3.75840697               -1.23285283
               3.32658279                7.02346473                8.95548631                0.00010000               -0.15804412                0.25634281               -0.32513234                0.50857651                7.34997992               -0.94054342
               4.32399115                7.00966925                8.96604406                0.00010000               -0.33904996                0.29256514               -0.25924454                0.50135030                7.59002402               -0.57132732
               5.31980179                6.99589833                8.98028465                0.00010000               -0.48728707                0.28165769               -0.18518267                0.46472797                7.78119877               -0.21606661
               6.31424541                6.98235319                8.99762704                0.00010000               -0.61713626                0.23019588               -0.08795302                0.41090092                7.93875979                0.13295814
               7.30745907                6.96945178                9.01787542                0.00010000               -0.73065760                0.12205592                0.03849401                0.38352489                8.10619978                0.52341790
               8.29963226                6.95799115                9.04106132                0.31876877               -0.39192622               -0.03710681                0.19607633                0.16243530                4.10100651                0.98332776
               9.29962054                6.94374440                8.98308488                0.90198296                0.07311222                0.08631845               -0.26480900               -0.00582390                0.03248213                0.30144872
              10.30109450                6.93000817                8.92481690                1.00000000                0.14739570                0.21326263               -0.72371845               -0.02818446                0.01624794               -0.40920421
               0.34417871                8.07087759                9.06805857                1.00000000               -0.07082582               -0.17032984                0.53309963               -0.04100678                0.02653937                0.68187490
               1.34347045                8.05518852                8.99696241                0.63885015                0.01320815                0.01162351               -0.04306834               -0.02809367                0.09941395               -0.29206595
               2.34444287                8.03878616                8.92723941                0.03970077                0.05292558                0.20083933               -0.62537353                0.18698404                4.28905271               -1.25320163
               3.34452896                8.02612703                8.94019360                0.00010000               -0.12618041                0.25807657               -0.38082900                0.38293617                8.50157053               -1.03191910
               4.34191926                8.01264760                8.95807859                0.00010000               -0.35795442                0.28674020               -0.25446126                0.33485013                8.74238223               -0.58078723
               5.33736987                7.99884588                8.97913946                0.00010000               -0.55088114                0.29626476               -0.15160629                0.29395707                8.85982538               -0.21355859
               6.33090164                7.98478022                9.00306975                0.00010000               -0.72771069                0.26899815               -0.01028895                0.21025657                8.99276229                0.10487844
               7.32281566                7.97060907                9.03028347                0.00738249               -0.87280283                0.13323418                0.17572418                0.09404223                9.19801634                0.45102530
               8.31344558                7.95726005                9.06121366                0.34160104               -0.49566057               -0.10821336                0.40644746               -0.00347970                4.66465013                0.92215734
               9.31290245                7.94433482                8.99981251                0.89807102                0.02359969                0.03171869               -0.09504333               -0.00821959                0.03018887                0.28693094
              10.31391758                7.93190847                8.93790265                0.97820027                0.10151296                0.17138775               -0.58277144               -0.02930408                0.00452134               -0.43515653
               0.35858393                9.06944083                9.05636841                1.00000000               -0.02192072               -0.12099945                0.38441599               -0.03591780                0.02343658                0.56388521
               1.35836473                9.05559083                8.98034813                0.66241635                0.06846354                0.07071210               -0.23718631               -0.01501439                0.12295088               -0.26980826
               2.35995321                9.04114065                8.90626782                0.05082878                0.10076770                0.26474947               -0.86821015                0.11108758                4.83843438               -0.90323617
               3.36038008                9.02862627                8.92487881                0.00010000               -0.09919518                0.22560010               -0.29317337                0.20079981                9.66607116               -0.76410426
               4.35796930                9.01540406                8.95048464                0.00010000               -0.34158861                0.25952009               -0.23284688                0.17004890                9.88667669               -0.37914194
               5.35354831                9.00182362                8.97786006                0.00010000               -0.56409782                0.28935047               -0.12444591                0.15725520                9.86459222               -0.13246477
               6.34668735                8.98773316                9.00766712                0.00010000               -0.83441136                0.29539839                0.05428262                0.06405776                9.97419039                0.06569070
               7.33686008                8.97211646                9.04124926                0.01496485               -1.04252141                0.24892441                0.29617789               -0.12505365               10.28086082                0.27771021
               8.32583692                8.95582688                9.08042861                0.36497276               -0.60261738               -0.17017810                0.60416396               -0.21929273                5.30462484                0.65022310
               9.32480773                8.94437877                9.01665165                0.94281111               -0.02379023               -0.02370552                0.07514513               -0.00588540                0.07071286                0.26176678
              10.32536111                8.93343592                8.95093965                0.96204607                0.05533783                0.13431850               -0.44169313               -0.02859526               -0.02312039               -0.36437275
               0.37116034               10.06845760                9.04236629                1.00000000                0.03099989               -0.09832233                0.22663312                0.07215574                0.33708308                0.45853937
               1.37147033               10.05660276                8.96445440                0.85987879                0.12344282                0.10119242               -0.41804627                0.09173808                0.60282038               -0.24151191
               2.37362919               10.04408115                8.89185346                0.53385652                0.14056097                0.29404955               -1.03891003                0.06941217                5.60187150               -0.60105243
               3.37428155               10.03063903                8.91429220                0.35631052               -0.07531534                0.20127625               -0.28227459                0.07798974               10.51615480               -0.38961232
               4.37212289               10.01783800                8.94522800                0.35283220               -0.30478378                0.24339401               -0.25376590                0.11505136               10.73381656               -0.15886836
               5.36818588               10.00463289                8.97700998                0.37557490               -0.51164648                0.28092657               -0.12267923                0.10626662               10.64588218               -0.02743607
               6.36188996                9.99068819                9.01108377                0.42178438               -0.79825074                0.29550342                0.09489628                0.06799479               10.76687388                0.07659812
               7.35222086                9.97558756                9.04927451                0.51060536               -1.25462674                0.34711002                0.38363576               -0.30550666               11.19697778                0.19556823
               8.33679742                9.95385649                9.09496134                0.69284857               -0.85225832               -0.19703861                0.75322276               -0.49029221                6.06451349                0.43267135
               9.33517570                9.94386071                9.03281824                1.00000000               -0.07830257               -0.05180604                0.23855378                0.07371389                0.42260858                0.23612842
              10.33523137                9.93459484                8.96543482                0.98745429                0.00556719                0.11589222               -0.29077872                0.06043913                0.16648404               -0.29038414
               0.20541878                0.11658961               10.16704993                1.00000000               -0.39613903               -0.44008459                1.51443039               -0.07643575               -0.47050130                0.52117209
               1.20145739                0.08463220               10.12499093                1.00000000               -0.32750198               -0.34276381                1.19782755               -0.05616818               -0.55922161                0.00610724
               2.19886874                0.05239797               10.08102591                0.99620148               -0.17808318               -0.24815537                0.84507408               -0.04362087               -0.49097251               -0.19339716
               3.19789572                0.02095456               10.04021988                0.59946895                0.30572625               -0.18301620                0.53050051                0.38539713                0.43734934               -0.33868727
               4.20498326               -0.00068918               10.01476047                0.64705559                0.50400579               -0.15012364                0.23673540                0.00207083                1.09245488                0.01471037
               5.20797584               -0.01581348                9.98699824                0.70824507                0.20062176               -0.00442529               -0.09727030               -0.00151260                0.78888191                0.01568925
               6.20899570               -0.02997605                9.95589887                0.70575401                0.05589393                0.11024770               -0.44751027                0.00526600                0.65553107               -0.00694542
               7.20909372               -0.04638572                9.92560539                0.82263137                0.05900826                0.22197869               -0.79759469                0.06435464                0.40227932                0.02925986
               8.21017586               -0.06731705                9.88946444                1.00000000                0.21920864                0.33894003               -1.12643513                0.04122202               -0.08039667                0.31895728
               9.21347789               -0.09076574                9.84972853                1.00000000                0.39799465                0.41484701               -1.44403231               -0.05065117               -0.28827796                0.02490730
              10.21813576               -0.11428478                9.80960888                1.00000000                0.46578653                0.50491330               -1.75011311               -0.07976789               -0.31400570               -0.33464675
               0.23661183                1.11218876               10.15271197                1.00000000               -0.36203031               -0.42365910                1.37641753               -0.03198716               -0.04577136                0.71297539
               1.23299152                1.08120456               10.11019250                1.00000000               -0.31702399               -0.32085646                1.06049522               -0.01149511                0.01991108                0.01678647
               2.23027135                1.04991642               10.06890102                0.71985450               -0.23491270               -0.22327709                0.73773146                0.01236575                0.26066450               -0.51554934
               3.22829327                1.01912440               10.03120626                0.05622881               -0.34416761               -0.17663429                0.41444149                0.50506817                1.42003768               -0.69331307
               4.22338800                0.99780958               10.01326580                0.16969658               -0.28445604                0.09254110                0.20467127                0.46373483                2.00449180                0.31014073
               5.22260415                0.98414226                9.98897663                0.23521290                0.04732397                0.09803234               -0.09660834                0.48279414                1.46645830                0.21315737
               6.22433448                0.97112643                9.96103283                0.16264652                0.29018076               -0.04108397               -0.41755072                0.41245878                1.32662567               -0.34806112
               7.22840776                0.95583407                9.93435156                0.34462084                0.42218105                0.25521905               -0.71981859                0.44891139                1.22046812                0.53429107
               8.23277810                0.93607235                9.90442774                1.00000000                0.40237409                0.31319242               -1.00278592                0.15576720                0.60170423                0.41488859
               9.23645525                0.91338273                9.86523908                1.00000000                0.40395125                0.39605021               -1.30463946               -0.00192751                0.08668526                0.07457893
              10.24085712                0.89076435                9.82505769                1.00000000                0.44018744                0.47924768               -1.61033899               -0.03137378                0.03287586               -0.39493131
               0.26674743                2.10811642               10.14203005                1.00000000               -0.32476029               -0.39432284                1.26533918               -0.03405114                0.03071868                0.92189359
               1.26349983                2.07821507               10.09550452                1.00000000               -0.27756098               -0.28091093                0.92806083               -0.01487098                0.10020310               -0.00083122
               2.26119621                2.04793243               10.05028658                0.33484388               -0.16979551               -0.17475364                0.61114619               -0.00060991                0.66670302               -0.98509104
               3.26010392                2.01742188               10.01508457                0.00010000               -0.59780573               -0.15655151                0.28974872                0.79644068                3.02808366               -1.32399317
               4.24924010                2.00116164               10.01727549                0.00010000               -0.78945196                0.22517501                0.58054248                1.54940518                3.21667652               -0.87419688
               5.24431488                1.98614716                9.99476854                0.00010000               -0.18435158                0.08288873               -0.02205377                1.32427938                1.39335161               -0.47359149
               6.24555307                1.96920227                9.95937309                0.00010000                0.44055709               -0.07827164               -0.40049588                1.35056643                2.22371463                0.05375289
               7.25312602                1.95871866                9.95328869                0.00010000                0.50947407               -0.00192884               -0.61558942                0.97448919                2.48772239                0.36045946
               8.25574255                1.93894680                9.92136651                0.41299765                0.28106599                0.29025378               -0.85946319                0.20389098                0.84090898                0.78031412
               9.25874734                1.91715526                9.88183609                1.00000000                0.35012465                0.37164943               -1.16097962                0.03166131                0.31438050                0.33757279
              10.26274504                1.89530017                9.83943431                1.00000000                0.39976993                0.43032404               -1.48371593               -0.02052901                0.16798410               -0.40919071
               0.29573351                3.10430230               10.13167123                1.00000000               -0.28554116               -0.36868122                1.15561931               -0.03603202                0.02665750                0.93882548
               1.29287810                3.07558634               10.08025275                1.00000000               -0.23405855               -0.24217281                0.79014974               -0.01881266                0.02891939               -0.03541494
               2.29105234                3.04642134               10.02877724                0.14842087               -0.09426159               -0.11835949                0.42535473               -0.05786488                0.83548926               -1.07889923
               3.29099287                3.01599337                9.99346978                0.00010000               -0.27007637                0.05190395                0.11674016                0.71833348                3.30602858               -1.19530894
               4.28565081                3.00231308                9.99165655                0.00010000               -0.49718799                0.13795238                0.03728299                1.74534750                4.54252496               -1.55261065
               5.28104911                2.98580004                9.98325490                0.00010000               -0.34382560                0.05426400               -0.09672842                1.67235300                3.92808536               -0.94969920
               6.27877430                2.96956099                9.97193656                0.00010000               -0.14480447                0.09617424               -0.32698475                1.56390277                3.63872266                0.31017167
               7.27815302                2.95579549                9.95886633                0.00010000               -0.01774931               -0.10396305               -0.51658412                1.14546398                3.40709286                0.12625042
               8.27841932                2.94187743                9.94369212                0.26041728                0.12910404                0.28123702               -0.70919142                0.48930767                1.97699656                1.40567949
               9.28073510                2.92081572                9.90266662                1.00000000                0.28687058                0.33578127               -0.98769660                0.04204282                0.33633503                0.50197586
              10.28415673                2.89937083                9.85477813                1.00000000                0.34216268                0.39133849               -1.34602251               -0.02936013               -0.01081016               -0.33046035
               0.32345871                4.10074280               10.12114287                1.00000000               -0.24541770               -0.34215978                1.04171281               -0.03637179                0.02651519                0.91685661
               1.32100454                4.07337161               10.06480884                1.00000000               -0.19134136               -0.19844266                0.64537001               -0.01694419                0.02778025               -0.04541466
               2.31963189                4.04556524               10.00839014                0.06111953               -0.12128442               -0.05768041                0.24802079                0.04228221                1.42826916               -0.96918968
               3.31857885                4.01845996                9.98008390                0.00010000               -0.26457521                0.37273763               -0.22844316                0.57244223                4.31049605               -0.24026760
               4.31434038                4.00392069                9.98152285                0.00010000               -0.40324088                0.18212048               -0.12787851                1.18349030                5.49517375               -0.57566945
               5.31051403                3.98723244                9.97949195                0.00010000               -0.37523579                0.17224116               -0.18928658                1.14010339                5.17570380               -0.40074913
               6.30683567                3.97112575                9.97659011                0.00010000               -0.33975808                0.17530492               -0.28516314                1.13542610                5.02711221                0.00346514
               7.30371887                3.95663940                9.97363801                0.00010000               -0.31635949                0.12882982               -0.38636618                1.11548913                5.05656815                0.61935744
               8.30050848                3.94457154                9.97299642                0.26278258               -0.08120376                0.21628765               -0.46703402                0.51927786                2.60880865                1.51319289
               9.30209479                3.92387089                9.92250293                1.00000000                0.22695688                0.27210780               -0.81205217                0.02314588                0.05710079                0.44460548
              10.30504761                3.90312694                9.87092281                1.00000000                0.29528204                0.35460024               -1.19448757               -0.02749382               -0.00017986               -0.31117023
               0.34974845                5.09745911               10.11019153                1.00000000               -0.20316695               -0.31027057                0.91907503               -0.03886622                0.06940915                0.86823610
               1.34771678                5.07161749               10.04932426                0.86139502               -0.14694027               -0.14965019                0.49682617               -0.02136484                0.10968939               -0.10546736
               2.34680964                5.04526773                9.98915546                0.02123739               -0.18152585                0.00108389                0.08653621                0.23029613                2.61893725               -0.99300364
               3.34408626                5.02344812                9.97852445                0.00010000               -0.31307544                0.39671247               -0.17364723                0.59778179                5.39878053               -0.10377049
               4.34054813                5.00595549                9.97589055                0.00010000               -0.37200747                0.23430543               -0.20602096                0.87206843                5.96459362               -0.34191402
               5.33664611                4.98924486                9.97864298                0.00010000               -0.42361351                0.22042415               -0.21188495                0.88872924                6.20443573               -0.20447115
               6.33207586                4.97306709                9.98297275                0.00010000               -0.48145470                0.20737619               -0.23107864                0.88516189                6.25519817                0.13846644
               7.32701702                4.95837209                9.98896268                0.00010000               -0.52512382                0.17119498               -0.24625295                0.91096537                6.34879154                0.63912359
               8.32157339                4.94620318                9.99729818                0.27611069               -0.21872006                0.11853236               -0.24160963                0.44699400                3.20464734                1.20332057
               9.32264262                4.92625787                9.94217758                1.00000000                0.17606810                0.20511515               -0.62873619                0.01430823                0.01541873                0.41474901
              10.32509475                4.90646283                9.88675535                1.00000000                0.24521322                0.31078004               -1.03255928               -0.02800438               -0.00272305               -0.33349418
               0.37436463                6.09453739               10.09854895                1.00000000               -0.15960132               -0.26792958                0.78688696               -0.04151116                0.06789812                0.80264930
               1.37276861                6.07037861               10.03264999                0.72513311               -0.09787257               -0.09665230                0.32733313               -0.02871520                0.15429596               -0.22002401
               2.37240717                6.04558692                9.96837940                0.01170450               -0.14609434                0.06461497               -0.11883348                0.27658134                3.37776138               -1.18318614
               3.36984673                6.02639421                9.96704462                0.00010000               -0.32110801                0.27186104               -0.20024030                0.65622610                6.64229678               -0.72961357
               4.36598501                6.00860680                9.97070864                0.00010000               -0.43348542                0.28187572               -0.22237755                0.73956828                6.98210165               -0.41516810
               5.36117702                5.99164093                9.97873443                0.00010000               -0.52866695                0.26516135               -0.19902413                0.71999073                7.23397654               -0.16264570
               6.35541168                5.97527328                9.98996660                0.00010000               -0.61874639                0.23354784               -0.15953149                0.68386583                7.39527395                0.18100320
               7.34880209                5.96006330               10.00379241                0.00010000               -0.69245514                0.15959345               -0.10584068                0.69305608                7.54043548                0.61334488
               8.34156257                5.94694219               10.02035290                0.29302561               -0.33403935                0.03592797               -0.02968626                0.33352077                3.80394016                1.11475413
               9.34212130                5.92797319                9.96146811                0.92968659                0.12575164                0.14233590               -0.44939884                0.00572936                0.02867133                0.37600201
              10.34407761                5.90934254                9.90250747                1.00000000                0.19563027                0.26365443               -0.87053214               -0.02626342                0.02363690               -0.36954813
               0.39723578                7.09210052               10.08612830                1.00000000               -0.11428340               -0.21605521                0.64505177               -0.04010481                0.03881571                0.74683257
               1.39609295                7.06968444               10.01484724                0.65001706               -0.04550538               -0.04336346                0.14982566               -0.02936848                0.13579773               -0.29836096
               2.39632567                7.04656003                9.94542080                0.02038945               -0.09510231                0.12769287               -0.33843348                0.26848068                4.04164425               -1.35557834
               3.39419090                7.02888534                9.95240705                0.00010000               -0.31164469                0.25847342               -0.29676305                0.60470876                7.91509613               -0.94978554
               4.39009278                7.01159301                9.96357670                0.00010000               -0.49057268                0.31239425               -0.23902210                0.61302577                8.16036470               -0.54097301
               5.38437945                6.99454809                9.97852449                0.00010000               -0.63809882                0.31477770               -0.16943777                0.55671838                8.35965609               -0.18315246
               6.37733080                6.97773805                9.99678652                0.00010000               -0.75851075                0.26704813               -0.08017725                0.47533442                8.53092476                0.17238176
               7.36920923                6.96156396               10.01822598                0.00010000               -0.84984449                0.14869611                0.03340160                0.43287053                8.71214927                0.58199188
               8.36033391                6.94692174               10.04290098                0.31326682               -0.44261913               -0.03640671                0.17449087                0.18714875                4.40356260                1.07178112
               9.36035685                6.92910459                9.98042052                0.89486875                0.07484349                0.08643637               -0.27177280               -0.00100439                0.03364449                0.33182434
              10.36183078                6.91173592                9.91763475                1.00000000                0.14739338                0.21546277               -0.71964586               -0.02556926                0.01957861               -0.42861513
               0.41839468                8.09021628               10.07319772                1.00000000               -0.06729503               -0.16172797                0.49827955               -0.03730107                0.02358121                0.71759099
               1.41772172                8.06951134                9.99658991                0.62910740                0.00906059                0.00983808               -0.03194086               -0.02342889                0.09224782               -0.33372421
               2.41857589                8.04814077                9.92129411                0.03691618               -0.04068985                0.18845314               -0.56812266                0.24328739                4.66702167               -1.38061892
               3.41690793                8.03156367                9.93639646                0.00010000               -0.29965501                0.27778381               -0.37745014                0.51095266                9.21278091               -0.96647491
               4.41258279                8.01485468                9.95558874                0.00010000               -0.53707916                0.33632486               -0.24733338                0.46864455                9.38736911               -0.52619650
               5.40616634                7.99793648                9.97772360                0.00010000               -0.73401469                0.35310239               -0.13646352                0.39096844                9.50320540               -0.17601894
               6.39790249                7.98061424               10.00301086                0.00010000               -0.89452668                0.32408404               -0.00278738                0.26595774                9.66261038                0.14018007
               7.38827581                7.96303722               10.03198345                0.00633513               -1.00687894                0.17284213                0.16618599                0.11913959                9.89402289                0.49990461
               8.37776491                7.94621405               10.06509514                0.33703026               -0.54943904               -0.10292700                0.37348735                0.00418968                5.00857871                1.00328626
               9.37728703                7.92970192                9.99881175                0.89797596                0.02693218                0.03347540               -0.10605543               -0.00503260                0.02503483                0.31034931
              10.37830356                7.91365180                9.93213792                1.00000000                0.10165278                0.17211720               -0.57589193               -0.02639308                0.00702055               -0.46117381
               0.43789965                9.08886596               10.06002457                1.00000000               -0.01997658               -0.11206976                0.35072689               -0.03306243                0.01743059                0.59433899
               1.43769988                9.06988120                9.97808970                0.65187847                0.06197209                0.06539802               -0.21584529               -0.01236669                0.11153836               -0.30677754
               2.43913909                9.05032910                9.89800511                0.04256969               -0.00019183                0.24443479               -0.79070854                0.19907304                5.35869088               -0.99417897
               3.43769604                9.03444102                9.92128641                0.00010000               -0.30231113                0.31254690               -0.38938702                0.33161554               10.50372493               -0.66278174
               4.43309287                9.01831950                9.94810115                0.00010000               -0.56283925                0.34672436               -0.24753780                0.27880373               10.54569358               -0.32882806
               5.42643926                9.00161014                9.97672336                0.00010000               -0.77718261                0.36745511               -0.11083295                0.22355061               10.56075732               -0.10575341
               6.41754921                8.98421973               10.00825787                0.00010000               -1.02235226                0.36485615                0.06141472                0.09712224               10.71977188                0.08744403
               7.40599221                8.96502080               10.04412891                0.01555400               -1.18981000                0.30755203                0.28197092               -0.12431717               11.06778811                0.30497415
               8.39375301                8.94486320               10.08621609                0.36258392               -0.65868801               -0.15868357                0.55883862               -0.23226690                5.69673636                0.70007802
               9.39281845                8.92977410               10.01729015                0.94067499               -0.01749224               -0.01868734                0.05402373               -0.00628081                0.06287892                0.28164114
              10.39340317                8.91517827                9.94653319                0.96383799                0.05847150                0.13514247               -0.44171603               -0.02672123               -0.02516288               -0.38656937
               0.45570293               10.08797489               10.04446731                1.00000000                0.03083208               -0.08910678                0.19721815                0.06476960                0.34598343                0.48343451
               1.45601125               10.07081930                9.96043451                0.85508902                0.11473010                0.09380964               -0.38808389                0.08386601                0.62177212               -0.27139455
               2.45799753               10.05302947                9.88192423                0.52877968               -0.02307100                0.27003717               -0.95398326                0.23560992                6.23926853               -0.65587907
               3.45554983               10.03781461                9.91055953                0.35712565               -0.35038925                0.33735915               -0.42138168                0.22336376               11.43785758               -0.31389507
               4.45098975               10.02178917                9.94261280                0.35316905               -0.54063491                0.34696657               -0.27483989                0.16323660               11.42716524               -0.12767662
               5.44473713               10.00528558                9.97589672                0.37568364               -0.72777373                0.36754464               -0.10899415                0.13589699               11.40837022               -0.00971335
               6.43643427                9.98791136               10.01207994                0.42191088               -0.97955669                0.36916345                0.10177719                0.08364006               11.59162998                0.09200764
               7.42514600                9.96918827               10.05301594                0.51156826               -1.40339974                0.41674642                0.36721388               -0.32817070               12.07258931                0.21535193
               8.40836628                9.94304038               10.10219504                0.69284885               -0.91498269               -0.18228181                0.70057741               -0.53167825                6.51540246                0.45603709
               9.40684634                9.92932817               10.03503824                1.00000000               -0.07027392               -0.04459277                0.20811619                0.06850238                0.43817617                0.25201782
              10.40696080                9.91635465                9.96249745                1.00000000                0.01144542                0.11763779               -0.29910317                0.05841033                0.17479691               -0.30616427
               0.24415947                0.13700941               11.18205999                1.00000000               -0.38964896               -0.43150824                1.48909665               -0.07510414               -0.50774896                0.55581534
               1.24026298                0.10021037               11.13688686                1.00000000               -0.32147802               -0.33776754                1.18170789               -0.05602872               -0.61538176                0.01265639
               2.23772991                0.06316089               11.08943405                1.00000000               -0.17377899               -0.24619222                0.84022138               -0.04303353               -0.54755063               -0.18659618
               3.23678740                0.02700701               11.04552023                0.60713190                0.30790430               -0.18292380                0.53332650                0.40667094                0.40791320               -0.37017383
               4.24388800                0.00118034               11.01712321                0.66090541                0.49502458               -0.13124634                0.23633021               -0.00757814                1.05131822                0.02831431
               5.24668789               -0.01761045               10.98604998                0.72563082                0.18755803                0.00167475               -0.09196187                0.00195867                0.72559432                0.02174655
               6.24763916               -0.03536161               10.95148442                0.71869762                0.05138823                0.10914835               -0.43497732                0.00646077                0.58321998               -0.01286705
               7.24771566               -0.05522769               10.91769590                0.82972216                0.05281636                0.21787260               -0.78288045                0.06245074                0.33822568                0.03002653
               8.24869549               -0.07965386               10.87827663                1.00000000                0.20957184                0.33577519               -1.10996161                0.04375043               -0.12670010                0.33053778
               9.25190710               -0.10673698               10.83537645                1.00000000                0.39007461                0.41000379               -1.42547741               -0.05097711               -0.32313316                0.02276536
              10.25649698               -0.13393475               10.79220625                1.00000000                0.45898817                0.49818680               -1.72951284               -0.07987967               -0.34359041               -0.36530179
               0.28020747                1.13269433               11.16635243                1.00000000               -0.35805126               -0.41438640                1.35309842               -0.03131795               -0.05379633                0.75965407
               1.27662696                1.09683270               11.12072801                1.00000000               -0.31531065               -0.31581899                1.04696645               -0.01068553                0.00692731                0.02522901
               2.27390126                1.06069897               11.07623924                0.73994971               -0.23912833               -0.22239287                0.73133042                0.01803703                0.24350838               -0.51727810
               3.27184439                1.02517778               11.03535160                0.07201231               -0.38901534               -0.17712225                0.41689167                0.54780912                1.45761901               -0.72931845
               4.26612095                0.99986787               11.01529855                0.19308180               -0.34329675                0.09970824                0.20228703                0.33703584                2.06054716                0.49086597
               5.26497845                0.98240630               10.98802556                0.26222385                0.01957189                0.09425321               -0.09357863                0.41833283                1.47403420                0.24422176
               6.26651239                0.96572987               10.95690752                0.18279502                0.27539189               -0.02681301               -0.40764170                0.37005389                1.33404661               -0.35561084
               7.27048629                0.94695104               10.92720926                0.35772628                0.41876255                0.24479690               -0.70792656                0.44694755                1.24104887                0.54566567
               8.27488764                0.92370389               10.89446527                1.00000000                0.40257405                0.31019196               -0.98942682                0.16321693                0.61645759                0.43570168
               9.27853777                0.89736306               10.85226866                1.00000000                0.40041583                0.39200425               -1.28917056               -0.00177564                0.08915891                0.07428757
              10.28289595                0.87104711               10.80904066                1.00000000                0.43581809                0.47156000               -1.59278347               -0.03154359                0.03306474               -0.43220923
               0.31525637                2.12872168               11.15455935                1.00000000               -0.32117419               -0.38448187                1.24198483               -0.03114207                0.02978052                0.98176995
               1.31204463                2.09389399               11.10472612                1.00000000               -0.27554009               -0.27665958                0.91648187               -0.01026453                0.10852900                0.00719226
               2.30974557                2.05871303               11.05640240                0.35170451               -0.17349762               -0.17750356                0.61037320                0.01440968                0.68160692               -1.02398636
               3.30857468                2.02346457               11.01802061                0.00010000               -0.81726895               -0.16044674                0.29541887                0.85278973                3.30895745               -1.38729301
               4.29340019                2.00317450               11.02237771                0.00010000               -0.96910649                0.24458396                0.44834986                1.63738973                3.42897910               -0.94822362
               5.28919255                1.98427462               10.99434146                0.00010000               -0.14523476                0.07312291               -0.05283915                1.40130791                1.33485943               -0.47147839
               6.29049550                1.96410213               10.95549520                0.00010000                0.47440212               -0.09111142               -0.38217886                1.40596148                2.32153917                0.06104357
               7.29868059                1.94966825               10.94711297                0.00010000                0.55261545               -0.02139667               -0.61708502                1.00854681                2.58962400                0.38454428
               8.30154781                1.92654998               10.91282683                0.41873747                0.29238854                0.29120620               -0.84906241                0.23088453                0.90558787                0.81611759
               9.30452836                1.90110310               10.87029164                1.00000000                0.34750921                0.37074766               -1.14823926                0.03789836                0.33666648                0.35369028
              10.30849799                1.87549645               10.82467259                1.00000000                0.39696280                0.42143178               -1.46887513               -0.01867451                0.17964688               -0.44665798
               0.34924000                3.12500469               11.14309893                1.00000000               -0.28096904               -0.35965536                1.13147888               -0.03182244                0.02683325                0.99751181
               1.34643031                3.09129950               11.08810819                1.00000000               -0.23105669               -0.23955531                0.78088685               -0.01373260                0.02860209               -0.03313917
               2.34461887                3.05714890               11.03306949                0.16119556               -0.09958000               -0.12320457                0.43146929               -0.04135107                0.86157260               -1.14365599
               3.34443871                3.02196884               10.99470461                0.00010000               -0.32800868                0.02234910                0.12756684                0.81013170                3.47025023               -1.37040541
               4.33805870                3.00475955               10.99206442                0.00010000               -0.61808659                0.15135933                0.03579092                2.00586145                4.79796690               -1.84969077
               5.33207698                2.98386876               10.98224476                0.00010000               -0.44103579                0.06130126               -0.10700764                1.83514091                4.12067435               -1.02873588
               6.32923798                2.96390765               10.96870405                0.00010000               -0.19338018                0.06770802               -0.32067534                1.70894754                3.80608854                0.33363122
               7.32820938                2.94652311               10.95374410                0.00010000               -0.05837534               -0.11291594               -0.50759962                1.24864954                3.58710735                0.17211508
               8.32807047                2.92952802               10.93668170                0.25779747                0.10699480                0.28741412               -0.69470222                0.53881617                2.09771067                1.48329932
               9.33034927                2.90477801               10.89284157                1.00000000                0.28326518                0.33640582               -0.97788205                0.05151119                0.37489558                0.53182873
              10.33373578                2.87947575               10.84138298                1.00000000                0.33865036                0.38433311               -1.33384786               -0.02810778               -0.00907439               -0.35429661
               0.38203029                4.12152857               11.13142421                1.00000000               -0.24045202               -0.33410281                1.01625103               -0.03261328                0.02610289                0.96979512
               1.37962577                4.08910289               11.07122813                1.00000000               -0.18905401               -0.19675301                0.63837796               -0.01272900                0.02590757               -0.04822041
               2.37824921                4.05624894               11.01093706                0.07178342               -0.12295581               -0.06219016                0.25945893                0.03592517                1.37935110               -1.02223112
               3.37716666                4.02391155               10.97780966                0.00010000               -0.33158531                0.36462106               -0.21976072                0.62116699                4.52037800               -0.31589833
               4.37161751                4.00620169               10.98029609                0.00010000               -0.52096916                0.16808851               -0.12204344                1.29302566                5.91485588               -0.66759059
               5.36674727                3.98550064               10.97765236                0.00010000               -0.47987029                0.18499756               -0.18152412                1.22429849                5.49177020               -0.45815942
               6.36202010                3.96545629               10.97378131                0.00010000               -0.43570308                0.18295096               -0.27711678                1.21288333                5.31978028                0.01596708
               7.35803321                3.94740993               10.96980267                0.00010000               -0.39754378                0.13855491               -0.37991115                1.20231328                5.35004523                0.67954214
               8.35406923                3.93229826               10.96831907                0.25812473               -0.12111789                0.22139723               -0.46734144                0.56886926                2.77571315                1.62253398
               9.35561085                3.90783122               10.91441990                1.00000000                0.22355646                0.27065938               -0.80547812                0.03098600                0.07664889                0.47854996
              10.35854035                3.88318311               10.85903207                1.00000000                0.29295006                0.35115139               -1.18540231               -0.02587864                0.00048813               -0.32081569
               0.41343911                5.11832263               11.11923631                1.00000000               -0.19837472               -0.30219641                0.89185727               -0.03558502                0.07450575                0.91295455
               1.41145537                5.08736444               11.05426914                0.84915257               -0.14552033               -0.14820110                0.49196143               -0.01800782                0.11983207               -0.12039944
               2.41052871                5.05590509               10.99012118                0.02968244               -0.22730305               -0.00344296                0.10415572                0.24644668                2.69265920               -1.06018156
               3.40690931                5.02926126               10.97663902                0.00010000               -0.40992932                0.43068724               -0.21479490                0.62345459                5.68274517               -0.01922861
               4.40233012                5.00812132               10.97386883                0.00010000               -0.48004789                0.23025454               -0.20158013                0.94840045                6.38697412               -0.35278835
               5.39730835                4.98756871               10.97658579                0.00010000               -0.53718819                0.22888306               -0.20169772                0.94394443                6.61628870               -0.20990247
               6.39158636                4.96756667               10.98070677                0.00010000               -0.59473378                0.22631556               -0.22231695                0.93949831                6.65298626                0.16372894
               7.38541367                4.94929420               10.98651244                0.00010000               -0.62798931                0.18808098               -0.24294694                0.97808062                6.74949106                0.70170718
               8.37902657                4.93395596               10.99484284                0.27088641               -0.26647618                0.11981049               -0.24828464                0.48601873                3.41482023                1.30036022
               9.38008415                4.91019120               10.93592531                0.99324705                0.17439285                0.20271647               -0.62572094                0.01933815                0.02641958                0.44977283
              10.38251443                4.88649878               10.87650775                1.00000000                0.24302791                0.30948780               -1.02266853               -0.02611857                0.00103213               -0.33765953
               0.44323497                6.11548465               11.10626261                1.00000000               -0.15518123               -0.25936662                0.75818272               -0.03831621                0.06810830                0.83874059
               1.44168316                6.08613886               11.03591256                0.71490849               -0.09768208               -0.09566069                0.32504408               -0.02506551                0.16009856               -0.24872980
               2.44128133                6.05618008               10.96732219                0.01767926               -0.21318191                0.05962489               -0.09514990                0.31414189                3.56347876               -1.27901188
               3.43741952                6.03252530               10.96510721                0.00010000               -0.45016285                0.29279586               -0.19484957                0.72231034                7.03873234               -0.70342824
               4.43227807                6.01080678               10.96854037                0.00010000               -0.56193498                0.29241847               -0.21614772                0.81519439                7.43643357               -0.38906641
               5.42618082                5.99007830               10.97680951                0.00010000               -0.65967490                0.28387025               -0.18811954                0.78262884                7.71457573               -0.13852120
               6.41908457                5.96998260               10.98841442                0.00010000               -0.74876454                0.25949520               -0.15132628                0.73346526                7.88127132                0.21937822
               7.41120553                5.95117155               11.00273435                0.00010000               -0.80959834                0.18031897               -0.10508869                0.74428944                8.03363059                0.67501507
               8.40289261                5.93469447               11.01999144                0.28778654               -0.38753635                0.03642794               -0.04188412                0.35981973                4.05482712                1.20280630
               9.40345480                5.91188555               10.95697423                0.91626203                0.12551082                0.14230230               -0.45130953                0.00769559                0.03534623                0.40784485
              10.40540282                5.88937286               10.89384258                1.00000000                0.19480210                0.26533171               -0.86792599               -0.02410885                0.03045517               -0.38123065
               0.47136435                7.11313530               11.09241937                1.00000000               -0.11057322               -0.20757535                0.61588025               -0.03685710                0.03712524                0.77634888
               1.47025862                7.08545123               11.01636085                0.64114692               -0.04696206               -0.04336466                0.15257581               -0.02509227                0.13642702               -0.33222407
               2.47042511                7.05709759               10.94222180                0.02329719               -0.17649029                0.12046984               -0.30458196                0.31806862                4.30004316               -1.46220554
               3.46672882                7.03511718               10.94955105                0.00010000               -0.46720542                0.26964362               -0.27940380                0.69712683                8.43887064               -0.95867880
               4.46108100                7.01396969               10.96126362                0.00010000               -0.64718572                0.33962199               -0.22744790                0.70951879                8.69877907               -0.50871078
               5.45378510                6.99324611               10.97689590                0.00010000               -0.79592949                0.35241615               -0.15873835                0.63089591                8.90988956               -0.14585554
               6.44516241                6.97275657               10.99602349                0.00010000               -0.90987548                0.30649365               -0.07322290                0.52319474                9.09456857                0.21542832
               7.43558759                6.95290058               11.01854346                0.00010000               -0.98267230                0.17663424                0.03081899                0.46671277                9.28985975                0.64020283
               8.42550897                6.93468452               11.04455114                0.30837346               -0.50139610               -0.03418998                0.15697649                0.20164565                4.69398513                1.15353627
               9.42555967                6.91303724               10.97764943                0.88049210                0.07743266                0.08933160               -0.28414121                0.00132297                0.03480600                0.36040314
              10.42705762                6.89180541               10.91042398                1.00000000                0.14979516                0.22068432               -0.72702750               -0.02304219                0.02161311               -0.44578248
               0.49786597                8.11133314               11.07802416                1.00000000               -0.06469452               -0.15386388                0.47001828               -0.03426003                0.02112275                0.74434941
               1.49721902                8.08527157               10.99632359                0.62073971                0.00553917                0.00797260               -0.02215077               -0.01936595                0.08611137               -0.36997702
               2.49797675                8.05858948               10.91587696                0.03588841               -0.13645339                0.17646813               -0.51988655                0.30759039                5.00092699               -1.48722414
               3.49448995                8.03791817               10.93264460                0.00010000               -0.48186183                0.30451906               -0.37126817                0.63197306                9.86648945               -0.94295305
               4.48833951                8.01759922               10.95313193                0.00010000               -0.72390470                0.39168730               -0.24439033                0.57868347               10.00710145               -0.48517824
               5.48001186                7.99712663               10.97641019                0.00010000               -0.92227573                0.41446594               -0.12861832                0.46674479               10.12039453               -0.13746089
               6.46989400                7.97611248               11.00301400                0.00010000               -1.07000134                0.38281936                0.00213833                0.30462166               10.29901575                0.17802700
               7.45861183                7.95470424               11.03360719                0.00571466               -1.15525702                0.21414355                0.15947078                0.12841146               10.55383822                0.54703937
               8.44678886                7.93401067               11.06868341                0.33306551               -0.61257316               -0.09779913                0.34758787                0.00346927                5.33793655                1.07503132
               9.44636037                7.91367218               10.99769140                0.88920304                0.03083915                0.03739251               -0.12059450               -0.00177920                0.02339269                0.33289737
              10.44740564                7.89378655               10.92638481                1.00000000                0.10452716                0.17697974               -0.58293167               -0.02285617                0.01169455               -0.48164236
               0.52280229                9.11005802               11.06338295                1.00000000               -0.01873259               -0.10461560                0.32415861               -0.03075220                0.01265052                0.61746994
               1.52261496                9.08561068               10.97603122                0.64307737                0.05640161                0.06068430               -0.19749587               -0.01006187                0.10239593               -0.33792826
               2.52393032                9.06062695               10.89045365                0.03689856               -0.11282135                0.22679198               -0.72604439                0.29548349                5.79069900               -1.06808079
               3.52035854                9.04120756               10.91709107                0.00010000               -0.52420519                0.39483521               -0.42852795                0.45183372               11.27611729               -0.61704216
               4.51344622                9.02180344               10.94553388                0.00010000               -0.78758982                0.43309789               -0.26139950                0.36586819               11.21595706               -0.29431244
               5.50460674                9.00153543               10.97564340                0.00010000               -0.98844903                0.44826429               -0.10754106                0.27418998               11.23803550               -0.07939269
               6.49367724                8.98041296               11.00889541                0.00010000               -1.21745583                0.43858617                0.06433484                0.11786792               11.42763354                0.11038938
               7.48025762                8.95718345               11.04688868                0.01620087               -1.35334142                0.37081543                0.27120553               -0.13693535               11.81032766                0.33021536
               8.46661041                8.93272854               11.09160538                0.36038227               -0.72547075               -0.14956763                0.52393153               -0.25520279                6.06925221                0.74289695
               9.46574821                8.91378509               11.01773212                0.93839961               -0.01193247               -0.01336573                0.03506377               -0.00535403                0.05866455                0.29761112
              10.46637176                8.89534501               10.94210533                0.96581457                0.06235507                0.13782503               -0.44920053               -0.02384552               -0.02439832               -0.40649920
               0.54614560               10.10924083               11.04631065                1.00000000                0.03032512               -0.08171964                0.17443428                0.05877440                0.35261439                0.50253436
               1.54644885               10.08648526               10.95669273                0.85119471                0.10719690                0.08745738               -0.36262447                0.07761365                0.63699705               -0.29603071
               2.54828954               10.06312532               10.87277380                0.52513532               -0.20493555                0.24983644               -0.88312177                0.40240283                6.75918706               -0.69924578
               3.54235014               10.04581487               10.90586457                0.35798693               -0.64802671                0.46073119               -0.48664725                0.35595365               12.29632200               -0.28197729
               4.53532901               10.02626118               10.93973120                0.35348824               -0.77320014                0.44577383               -0.29544157                0.20213079               12.14888175               -0.10822459
               5.52688614               10.00609191               10.97483010                0.37571231               -0.93628351                0.45564786               -0.10677178                0.15909120               12.15332653                0.00609001
               6.51660334                9.98488420               11.01311931                0.42190901               -1.16642977                0.44712423                0.10429832                0.09404163               12.37608215                0.10659565
               7.50355754                9.96212054               11.05661879                0.51240010               -1.57600868                0.49370911                0.35470290               -0.36325175               12.89874350                0.23231234
               8.48508316                9.93101932               11.10897289                0.69265662               -0.99603622               -0.17092173                0.66116361               -0.58850846                6.94056040                0.47548912
               9.48363682                9.91340487               11.03698057                1.00000000               -0.06371291               -0.03802268                0.18206113                0.06504778                0.45179063                0.26417704
              10.48380890                9.89654305               10.95945276                1.00000000                0.01720840                0.11980449               -0.31078165                0.05753306                0.18077807               -0.32117025
               0.28561005                0.15912104               12.19683186                1.00000000               -0.38343659               -0.42385580                1.46661149               -0.07433168               -0.54290884                0.58789661
               1.28177569                0.11720304               12.14862509                1.00000000               -0.31628505               -0.33331495                1.16693148               -0.05651093               -0.66665345                0.01960161
               2.27928435                0.07505568               12.09783034                1.00000000               -0.17054277               -0.24531686                0.83967077               -0.04237762               -0.59993076               -0.18456779
               3.27836483                0.03388835               12.05088641                0.61280228                0.30977655               -0.18506898                0.54027059                0.42568859                0.37208724               -0.40451710
               4.28547988                0.00352643               12.01948708                0.67167594                0.48808420               -0.11540253                0.23727983               -0.01639390                1.00521613                0.04232697
               5.28812652               -0.01932972               11.98515900                0.73976270                0.17671457                0.00649346               -0.08600446                0.00463353                0.66320534                0.02829271
               6.28901418               -0.04107959               11.94719933                0.72958058                0.04697498                0.10830212               -0.42196313                0.00764374                0.51110530               -0.01829888
               7.28906602               -0.06481191               11.90994778                0.83607691                0.04735695                0.21422184               -0.76602766                0.06029822                0.27295265                0.03136089
               8.28996131               -0.09308357               11.86726521                1.00000000                0.20097983                0.33197529               -1.09159229                0.04450668               -0.17398420                0.34222693
               9.29308561               -0.12409485               11.82121898                1.00000000                0.38215156                0.40481346               -1.40538211               -0.05106061               -0.35824545                0.02087807
              10.29760435               -0.15525963               11.77501862                1.00000000                0.45187327                0.49134529               -1.70727004               -0.07947126               -0.37311481               -0.39561163
               0.32678474                1.15488248               12.17977393                1.00000000               -0.35414803               -0.40578582                1.33245582               -0.03128651               -0.06105652                0.80281132
               1.32324326                1.11386989               12.13113183                1.00000000               -0.31334099               -0.31121507                1.03428609               -0.01141488               -0.00542497                0.03359349
               2.32051792                1.07260251               12.08352763                0.75696939               -0.24284587               -0.22166143                0.72710942                0.02086411                0.22778381               -0.52002515
               3.31838634                1.03203766               12.03954409                0.08570041               -0.42964699               -0.17826721                0.42170027                0.58564127                1.48970181               -0.76661118
               4.31192498                1.00237241               12.01731154                0.21330770               -0.39552396                0.09524319                0.20055316                0.23582483                2.10932740                0.61202051
               5.31047586                0.98073521               11.98710506                0.28588177               -0.00466365                0.09140571               -0.09071381                0.36995441                1.48144325                0.26567231
               6.31183171                0.96000343               11.95287999                0.20081435                0.25975629               -0.01468996               -0.39823331                0.33966291                1.34060400               -0.36065622
               7.31567099                0.93733031               11.92019303                0.37027023                0.41080729                0.23433081               -0.69513504                0.43768005                1.25973904                0.55333514
               8.32004785                0.91023618               11.88463920                1.00000000                0.39960256                0.30681453               -0.97571647                0.16686468                0.63041616                0.45678481
               9.32366304                0.87995328               11.83945567                1.00000000                0.39632817                0.38755037               -1.27330076               -0.00165336                0.09165768                0.07453020
              10.32797442                0.84965382               11.79320202                1.00000000                0.43113767                0.46421582               -1.57468721               -0.03135981                0.03336130               -0.46887777
               0.36700951                2.15100532               12.16686975                1.00000000               -0.31821495               -0.37474011                1.22135375               -0.02931283                0.02947438                1.03639671
               1.36382736                2.11097873               12.11383416                1.00000000               -0.27378250               -0.27241724                0.90540084               -0.00732755                0.11701345                0.01462706
               2.36153386                2.07062245               12.06249404                0.36773364               -0.17598004               -0.17944750                0.60693928                0.02568593                0.69439499               -1.05850043
               3.36030776                2.03032301               12.02099294                0.00010000               -1.00175177               -0.16207241                0.29769673                0.89127233                3.51925892               -1.44770104
               4.34149883                2.00543129               12.02624249                0.00010000               -1.12065909                0.25142385                0.34571262                1.71602067                3.63810088               -0.99821226
               5.33789458                1.98249839               11.99371175                0.00010000               -0.11432440                0.05896011               -0.06828593                1.47712123                1.32762830               -0.47041376
               6.33921234                1.95862661               11.95172951                0.00010000                0.48461429               -0.10279654               -0.37337644                1.44706696                2.41470478                0.06827198
               7.34758687                1.93987471               11.94094699                0.00010000                0.57316483               -0.03911070               -0.61473090                1.03363186                2.69075453                0.41267647
               8.35067563                1.91305272               11.90438526                0.42499842                0.30240229                0.29074952               -0.83989968                0.25048296                0.97414538                0.85574391
               9.35363491                1.88365616               11.85887130                1.00000000                0.34502222                0.36853744               -1.13617683                0.04203248                0.35949092                0.37071288
              10.35757608                1.85402468               11.81005681                1.00000000                0.39411683                0.41357995               -1.45446270               -0.01724771                0.19156809               -0.48318968
               0.40625166                3.14738768               12.15430081                1.00000000               -0.27720762               -0.35019999                1.11024737               -0.02844281                0.02777961                1.04968289
               1.40347958                3.10842154               12.09587049                1.00000000               -0.22821452               -0.23662426                0.77160489               -0.00958219                0.02957445               -0.03146197
               2.40168737                3.06901356               12.03740663                0.17404489               -0.10383195               -0.12767607                0.43464840               -0.02609028                0.88387875               -1.20231863
               3.40140294                3.02879621               11.99602112                0.00010000               -0.38086810               -0.00577130                0.13366020                0.88534716                3.61516820               -1.53903227
               4.39407001                3.00740088               11.99237237                0.00010000               -0.72899857                0.16665882                0.02535701                2.22070863                5.03038852               -2.07804434
               5.38682297                2.98191442               11.98111474                0.00010000               -0.53366364                0.06149155               -0.11773121                1.97581263                4.31364999               -1.08484375
               6.38339673                2.95794750               11.96552306                0.00010000               -0.24527279                0.04078815               -0.31591179                1.82511530                3.97684117                0.35597586
               7.38191752                2.93654810               11.94871434                0.00010000               -0.10603343               -0.12063987               -0.49884474                1.33494124                3.76435734                0.22419138
               8.38127606                2.91605117               11.92979807                0.25602836                0.08071065                0.29041753               -0.68416258                0.57529045                2.21766329                1.56221633
               9.38353173                2.88732403               11.88310898                1.00000000                0.28081731                0.33509939               -0.96919870                0.05770509                0.41105561                0.56264126
              10.38689241                2.85792542               11.82810117                1.00000000                0.33606818                0.37805867               -1.32325478               -0.02701352               -0.00717425               -0.37728795
               0.44437293                4.14400132               12.14146789                1.00000000               -0.23630906               -0.32539407                0.99396589               -0.02944558                0.02658459                1.01513046
               1.44200984                4.10624625               12.07757640                1.00000000               -0.18677714               -0.19482341                0.63118029               -0.00917125                0.02514455               -0.05170965
               2.44063739                4.06806893               12.01357932                0.08264311               -0.11912287               -0.06672901                0.26733029                0.02834551                1.32590628               -1.06931127
               3.43962738                4.03020758               11.97568868                0.00010000               -0.39212957                0.34848959               -0.20054784                0.66430584                4.70528302               -0.41436512
               4.43279479                4.00876447               11.97908198                0.00010000               -0.63815831                0.16272832               -0.12364839                1.38957457                6.31474666               -0.75333883
               5.42686421                3.98372823               11.97586147                0.00010000               -0.58569146                0.19876251               -0.17819907                1.29944390                5.79891365               -0.50202708
               6.42108096                3.95944237               11.97104778                0.00010000               -0.53410988                0.18805323               -0.27031939                1.27729477                5.60488462                0.03355609
               7.41618202                3.93746191               11.96603979                0.00010000               -0.48377286                0.14632301               -0.37288224                1.26859734                5.63429622                0.74091773
               8.41140551                3.91886107               11.96364959                0.25423848               -0.16336236                0.22434209               -0.46637581                0.60385438                2.93961056                1.72778853
               9.41291477                3.89035814               11.90639337                1.00000000                0.22137651                0.26874848               -0.80085619                0.03495783                0.09745125                0.51202476
              10.41583304                3.86158586               11.84721477                1.00000000                0.29182688                0.34868593               -1.17948505               -0.02432384                0.00063181               -0.32925740
               0.48117289                5.14087980               12.12802867                1.00000000               -0.19443402               -0.29360925                0.86832420               -0.03277382                0.08019362                0.94947865
               1.47922855                5.10452507               12.05916349                0.83783485               -0.14399721               -0.14669705                0.48668723               -0.01498227                0.13084236               -0.13585073
               2.47829295                5.06767898               11.99123857                0.03848734               -0.26175178               -0.00814337                0.11710493                0.25428255                2.72315246               -1.12046721
               3.47399352                5.03576600               11.97422855                0.00010000               -0.49760479                0.46030176               -0.27509019                0.63761416                5.94614968                0.05956667
               4.46834085                5.01065545               11.97185895                0.00010000               -0.59297847                0.23331021               -0.20326964                1.01701265                6.82452263               -0.36187122
               5.46213395                4.98588967               11.97460903                0.00010000               -0.65659543                0.24160836               -0.19568466                0.98916928                7.01810657               -0.21095436
               6.45520894                4.96170857               11.97852641                0.00010000               -0.71315910                0.24508720               -0.21460292                0.98080932                7.03815793                0.19285609
               7.44787076                4.93947456               11.98410374                0.00010000               -0.73760122                0.20353374               -0.23878044                1.02725584                7.13654950                0.76576241
               8.44045692                4.92053802               11.99233249                0.26629449               -0.31823315                0.12144738               -0.25309293                0.51190846                3.62034170                1.39557000
               9.44150610                4.89269900               11.92966316                0.97899586                0.17467959                0.20239136               -0.63026453                0.02117176                0.04006367                0.48544689
              10.44395051                4.86489914               11.86630198                1.00000000                0.24444088                0.31079222               -1.02442571               -0.02413787                0.00746936               -0.34232536
               0.51642690                6.13812914               12.11371260                1.00000000               -0.15158881               -0.25069247                0.73382150               -0.03556096                0.06831160                0.86683060
               1.51491101                6.10331231               12.03915087                0.70553528               -0.09723962               -0.09480719                0.32235729               -0.02162821                0.16597421               -0.27653776
               2.51448211                6.06790606               11.96647640                0.02409564               -0.27539088                0.05410886               -0.07650435                0.34723484                3.72552672               -1.36556494
               3.50940319                6.03941361               11.96314763                0.00010000               -0.57353611                0.32041843               -0.20560259                0.77287937                7.40609334               -0.64376423
               4.50301138                6.01343068               11.96638568                0.00010000               -0.69043546                0.30858929               -0.21908594                0.87647197                7.87919281               -0.35704447
               5.49559448                5.98856039               11.97497204                0.00010000               -0.79495610                0.30703147               -0.18159801                0.82984325                8.18308796               -0.11125051
               6.48711226                5.96434412               11.98694008                0.00010000               -0.88484006                0.28692329               -0.14449473                0.76689348                8.35156799                0.26029934
               7.47789768                5.94153259               12.00169064                0.00010000               -0.93465153                0.20103095               -0.10370680                0.77769612                8.50974371                0.73769944
               8.46841923                5.92129002               12.01951522                0.28311254               -0.44602991                0.03812389               -0.05233617                0.37620559                4.30024393                1.28912348
               9.46897708                5.89440597               11.95244192                0.90224636                0.12653902                0.14482415               -0.45873026                0.00928532                0.04420965                0.43890666
              10.47095001                5.86780170               11.88514895                1.00000000                0.19729277                0.26894535               -0.87687668               -0.02225542                0.03640030               -0.39564300
               0.55009533                7.13586595               12.09844591                1.00000000               -0.10762653               -0.19947191                0.59172531               -0.03413349                0.03561669                0.79867984
               1.54901906                7.10262893               12.01789876                0.63312589               -0.04794961               -0.04354411                0.15451874               -0.02123226                0.13717968               -0.36314472
               2.54913634                7.06876116               11.93932916                0.02686966               -0.25462881                0.11291901               -0.27709615                0.36683779                4.53489289               -1.55542584
               3.54392649                7.04217437               11.94681897                0.00010000               -0.62064119                0.28754914               -0.27220716                0.78228173                8.92713032               -0.96202423
               4.53672351                7.01682723               11.95902775                0.00010000               -0.80545595                0.37250918               -0.22309782                0.79018852                9.21491498               -0.47424312
               5.52781737                6.99203030               11.97534972                0.00010000               -0.95744470                0.39396825               -0.15256442                0.68587361                9.44228637               -0.10744380
               6.51757462                6.96744703               11.99532206                0.00010000               -1.06692918                0.34793729               -0.06806886                0.55192130                9.63961467                0.25968813
               7.50647878                6.94349518               12.01884236                0.00010000               -1.12334876                0.20501022                0.02903472                0.48194753                9.84773297                0.69809038
               8.49510764                6.92130049               12.04604051                0.30403704               -0.56493290               -0.03147948                0.14157577                0.20602549                4.97565330                1.23236923
               9.49518013                6.89559549               11.97473770                0.86605001                0.08031499                0.09356002               -0.29797922                0.00269728                0.03573223                0.38685146
              10.49671394                6.87027804               11.90309420                1.00000000                0.15338169                0.22679511               -0.73980767               -0.02171318                0.02248351               -0.46346626
               0.58221826                8.13413970               12.08259809                1.00000000               -0.06271073               -0.14685429                0.44724506               -0.03178881                0.01907542                0.76474209
               1.58159116                8.10244143               11.99614689                0.61340886                0.00275773                0.00622892               -0.01415690               -0.01586118                0.08089905               -0.40168558
               2.58227342                8.07016444               11.91089638                0.03606100               -0.23042046                0.16547431               -0.48057548                0.37400312                5.30060691               -1.57733028
               3.57698275                8.04516460               11.92897110                0.00010000               -0.66570945                0.33529192               -0.36392432                0.74640427               10.47308319               -0.93708649
               4.56895923                8.02088086               11.95070093                0.00010000               -0.91452940                0.45033744               -0.24196928                0.67056583               10.60529360               -0.45353154
               5.55869216                7.99643976               11.97515123                0.00010000               -1.11367105                0.47860365               -0.12431975                0.52215392               10.72031528               -0.10130949
               6.54668581                7.97130286               12.00305363                0.00010000               -1.25044948                0.44375873                0.00490601                0.32375118               10.91469095                0.21553022
               7.53368317                7.94563279               12.03517286                0.00535297               -1.31231886                0.25591643                0.15405184                0.11837875               11.19014312                0.59261592
               8.52043943                7.92066043               12.07204690                0.32958754               -0.68148451               -0.09344193                0.32714068               -0.00843245                5.65756519                1.14145271
               9.52005348                7.89627717               11.99639986                0.87437353                0.03555998                0.04208353               -0.13853632               -0.00055755                0.02203278                0.35615192
              10.52115063                7.87233760               11.92047929                1.00000000                0.10971512                0.18511469               -0.60111015               -0.02121427                0.01374178               -0.49952517
               0.61285610                9.13292886               12.06650775                1.00000000               -0.01789993               -0.09847705                0.30337064               -0.02889477                0.00880759                0.63548169
               1.61267710                9.10275351               11.97413979                0.63551864                0.05185646                0.05671300               -0.18246306               -0.00806629                0.09515220               -0.36446274
               2.61389323                9.07207064               11.88348422                0.03298701               -0.22694723                0.21199071               -0.67377569                0.39313569                6.16631954               -1.12896734
               3.60813815                9.04888021               11.91271585                0.00010000               -0.75167786                0.47317317               -0.43719149                0.56497317               11.99158777               -0.59608573
               4.59885967                9.02583398               11.94287316                0.00010000               -1.01498560                0.51745948               -0.26673468                0.43823900               11.87958541               -0.27087394
               5.58783844                9.00160237               11.97457254                0.00010000               -1.20015298                0.52971157               -0.10662552                0.31058054               11.90330220               -0.05637898
               6.57485661                8.97632221               12.00954456                0.00010000               -1.41748241                0.51463042                0.06478328                0.12462748               12.11363250                0.13230092
               7.55948879                8.94861350               12.04955302                0.01683348               -1.52809986                0.43707471                0.26238131               -0.16532138               12.52504427                0.35384199
               8.54429461                8.91943166               12.09669472                0.35833729               -0.79984951               -0.14226382                0.49770493               -0.29000354                6.43069224                0.78195745
               9.54349180                8.89643716               12.01799142                0.93057184               -0.00629080               -0.00811750                0.01604608               -0.00512542                0.05724415                0.31227674
              10.54416880                8.87398034               11.93754918                0.96779602                0.06769937                0.14493878               -0.46688220               -0.02161417               -0.02369351               -0.42291212
               0.64199108               10.13217016               12.04795599                1.00000000                0.02969749               -0.07587041                0.15700630                0.05405065                0.35777475                0.51763582
               1.64228805               10.10357569               11.95318202                0.84793043                0.10091772                0.08221779               -0.34176379                0.07280006                0.64984078               -0.31670523
               2.64400943               10.07440425               11.86426180                0.52245280               -0.38845909                0.23336124               -0.82568067                0.56423907                7.20603868               -0.73428926
               3.63451887               10.05462806               11.90082659                0.35883916               -0.95037896                0.57478506               -0.50575706                0.47936123               13.09678923               -0.26730512
               4.62500185               10.03123005               11.93670396                0.35378845               -1.00516601                0.53960645               -0.30405848                0.23451450               12.87413639               -0.09626902
               5.61441555               10.00703399               11.97376128                0.37568034               -1.14173135                0.54316194               -0.10650989                0.17598189               12.88856843                0.01872431
               6.60216722                9.98159547               12.01416591                0.42179188               -1.35741278                0.52732664                0.10431712                0.09807612               13.13723223                0.11942190
               7.58726729                9.95437428               12.06010999                0.51312357               -1.76757573                0.57607800                0.34426922               -0.41116597               13.69383210                0.24687646
               8.56681571                9.91781515               12.11541832                0.69234599               -1.09325017               -0.16165016                0.63153827               -0.66086347                7.35157113                0.49466200
               9.56540229                9.89611482               12.03867947                1.00000000               -0.05918624               -0.03223337                0.15928186                0.06210986                0.46800405                0.27282681
              10.56563198                9.87523638               11.95628181                1.00000000                0.02296949                0.12560408               -0.32833497                0.05847437                0.19155921               -0.33204048
               0.32971484                0.18288320               13.21139222                1.00000000               -0.37834049               -0.41705338                1.44682241               -0.07385533               -0.57563228                0.61788732
               1.32593144                0.13558893               13.16022549                1.00000000               -0.31224347               -0.32934335                1.15397425               -0.05708025               -0.71250618                0.02613789
               2.32346997                0.08807495               13.10622747                1.00000000               -0.16795123               -0.24401864                0.83812985               -0.04191201               -0.64643687               -0.18612665
               3.32257241                0.04160131               13.05632564                0.61676612                0.31248803               -0.18622899                0.54493143                0.44335946                0.33281476               -0.43914319
               4.32971973                0.00637794               13.02186880                0.67997621                0.48336696               -0.10250716                0.23953515               -0.02422078                0.95454449                0.05646367
               5.33223975               -0.02093670               12.98432989                0.75121947                0.16763789                0.01036980               -0.07980570                0.00656914                0.60157301                0.03514255
               6.33307249               -0.04708892               12.94304515                0.73870594                0.04345381                0.10754839               -0.40919935                0.00868678                0.44012458               -0.02335965
               7.33310883               -0.07509097               12.90237535                0.84181059                0.04360534                0.21095025               -0.74851497                0.05788423                0.20713219                0.03325564
               8.33394460               -0.10755730               12.85644479                1.00000000                0.19399743                0.32768418               -1.07230299                0.04378153               -0.22273205                0.35395618
               9.33698878               -0.14279279               12.80726880                1.00000000                0.37454015                0.39941311               -1.38437929               -0.05089072               -0.39410847                0.01935071
              10.34143540               -0.17821378               12.75806085                1.00000000                0.44466240                0.48451557               -1.68386488               -0.07859118               -0.40286029               -0.42560760
               0.37627055                1.17871267               13.19300154                1.00000000               -0.35057959               -0.39802298                1.31429511               -0.03160624               -0.06768589                0.84306033
               1.37276476                1.13229550               13.14141373                1.00000000               -0.31129461               -0.30705326                1.02261751               -0.01243633               -0.01654102                0.04157744
               2.37004466                1.08563476               13.09078143                0.77110570               -0.24551230               -0.22054614                0.72313851                0.02241174                0.21375269               -0.52427112
               3.36785451                1.03973902               13.04378561                0.09752518               -0.46490643               -0.17838947                0.42502809                0.61785486                1.51664454               -0.80321325
               4.36074653                1.00535287               13.01930961                0.23088078               -0.44078206                0.08857440                0.19914869                0.15758197                2.15196565                0.69521384
               5.35903887                0.97916699               12.98621128                0.30675843               -0.02550197                0.08966793               -0.08826562                0.33260219                1.48872927                0.28280293
               6.36023649                0.95398657               12.94894285                0.21707467                0.24414954               -0.00432890               -0.38975836                0.31666992                1.34696693               -0.36471570
               7.36392186                0.92701853               12.91330656                0.38229046                0.39984138                0.22457211               -0.68246013                0.42320388                1.27677429                0.55920910
               8.36823332                0.89571954               12.87495094                1.00000000                0.39431233                0.30316458               -0.96207206                0.16723067                0.64318324                0.47810867
               9.37180811                0.86120134               12.82680264                1.00000000                0.39185774                0.38284234               -1.25734335               -0.00151534                0.09395368                0.07552518
              10.37607048                0.82663137               12.77754691                1.00000000                0.42623677                0.45736400               -1.55622161               -0.03084898                0.03361089               -0.50482153
               0.42191705                2.17492274               13.17898642                1.00000000               -0.31564373               -0.36562294                1.20316226               -0.02820320                0.02960201                1.08670311
               1.41876061                2.12944787               13.12283413                1.00000000               -0.27211826               -0.26837394                0.89489909               -0.00537424                0.12500486                0.02163229
               2.41647468                2.08366403               13.06854118                0.38282571               -0.17746026               -0.18087630                0.60200239                0.03434047                0.70516119               -1.08990605
               3.41521141                2.03803352               13.02397454                0.00010000               -1.15156409               -0.16232826                0.29801042                0.92036092                3.68264907               -1.50495650
               4.39344340                2.00814943               13.02929196                0.00010000               -1.24766546                0.25031555                0.28003897                1.78247208                3.82859607               -1.03727377
               5.39025810                1.98085666               12.99297574                0.00010000               -0.09445227                0.04275872               -0.07652871                1.54177512                1.34984138               -0.47182647
               6.39155436                1.95282450               12.94802767                0.00010000                0.47909176               -0.11388348               -0.36817325                1.47412618                2.50181058                0.07856307
               7.39983993                1.92940047               12.93481835                0.00010000                0.57760222               -0.05521977               -0.61045801                1.04905673                2.79195244                0.44485117
               8.40310640                1.89850599               12.89602884                0.43153872                0.31033517                0.28942364               -0.83191381                0.26296854                1.04456418                0.89826200
               9.40604664                1.86486405               12.84756811                1.00000000                0.34259735                0.36537172               -1.12482426                0.04433420                0.38297742                0.38927738
              10.40995835                1.83093350               12.79558334                1.00000000                0.39117124                0.40703281               -1.44047363               -0.01618447                0.20374942               -0.51869612
               0.46665623                3.17140021               13.16530387                1.00000000               -0.27402482               -0.34097109                1.09159765               -0.02582282                0.02921606                1.09650610
               1.46391599                3.12692802               13.10354029                1.00000000               -0.22552088               -0.23360869                0.76250733               -0.00631748                0.03149757               -0.03021588
               2.46214582                3.08201724               13.04176246                0.18678320               -0.10698269               -0.13166287                0.43559001               -0.01275952                0.90271364               -1.25541955
               3.46177633                3.03649246               12.99737782                0.00010000               -0.42864859               -0.03083516                0.13645167                0.94500987                3.74374498               -1.69452669
               4.45357284                3.01035918               12.99257156                0.00010000               -0.82885174                0.17494535                0.01651007                2.39129825                5.24603192               -2.25658913
               5.44519930                2.98002217               12.97989014                0.00010000               -0.61988192                0.05545800               -0.12539734                2.09256843                4.50557497               -1.12725764
               6.44117521                2.95170890               12.96238581                0.00010000               -0.29888924                0.01497760               -0.31174315                1.91385379                4.14938908                0.38187062
               7.43922151                2.92591413               12.94376721                0.00010000               -0.15730497               -0.12807898               -0.49131449                1.40382526                3.93857209                0.28283230
               8.43802911                2.90150801               12.92299845                0.25484090                0.05228861                0.29068126               -0.67726542                0.59980502                2.33661150                1.64374041
               9.44026728                2.86850877               12.87345759                1.00000000                0.27893951                0.33267377               -0.96169342                0.06060430                0.44648410                0.59555108
              10.44360790                2.83477203               12.81491789                1.00000000                0.33406126                0.37318257               -1.31401590               -0.02608202               -0.00535143               -0.39956948
               0.51034496                4.16810332               13.15130353                1.00000000               -0.23277338               -0.31663584                0.97446337               -0.02690621                0.02777957                1.05423830
               1.50801723                4.12477569               13.08385174                1.00000000               -0.18449540               -0.19275331                0.62383277               -0.00631076                0.02530117               -0.05570151
               2.50665506                4.08103077               13.01628367                0.09343183               -0.11237833               -0.07092848                0.27212105                0.02110035                1.27490794               -1.11149045
               3.50576966                4.03741682               12.97379870                0.00010000               -0.44576998                0.32505959               -0.17621611                0.70265761                4.86792556               -0.54335544
               4.49773966                4.01164833               12.97782312                0.00010000               -0.75049579                0.16105075               -0.12878051                1.47081224                6.69175924               -0.83074695
               5.49075975                3.98196582               12.97408838                0.00010000               -0.69000934                0.21084383               -0.17696384                1.36397199                6.10174273               -0.53369845
               6.48393947                3.95312406               12.96837492                0.00010000               -0.63212131                0.19112957               -0.26485241                1.32763350                5.88535222                0.05687469
               7.47811732                3.92683889               12.96234503                0.00010000               -0.57158041                0.15222353               -0.36674126                1.31563167                5.91199240                0.80513773
               8.47250786                3.90431962               12.95899155                0.25094775               -0.20613088                0.22468628               -0.46557544                0.62617591                3.10147960                1.83320594
               9.47399470                3.87151753               12.89840278                1.00000000                0.22011648                0.26714065               -0.79835546                0.03630895                0.11933552                0.54443077
              10.47691019                3.83839715               12.83544237                1.00000000                0.29154868                0.34730288               -1.17635018               -0.02312419                0.00063159               -0.34011482
               0.55277336                5.16506749               13.13660279                1.00000000               -0.19110391               -0.28496471                0.84791223               -0.03046865                0.08624186                0.97950033
               1.55086232                5.12307295               13.06400289                0.82735725               -0.14233300               -0.14514278                0.48093189               -0.01236039                0.14241216               -0.15156634
               2.54992670                5.08059867               12.99246328                0.04739321               -0.28251986               -0.01262913                0.12585648                0.25303734                2.70650604               -1.17500516
               3.54521192                5.04299365               12.97113722                0.00010000               -0.57433008                0.48213841               -0.34450915                0.64219842                6.18913569                0.12045745
               4.53844009                5.01358019               12.96980343                0.00010000               -0.71044529                0.24243790               -0.20969929                1.07716268                7.28463501               -0.36972879
               5.53100301                4.98423905               12.97267210                0.00010000               -0.77926458                0.25733913               -0.19311429                1.02398653                7.41475409               -0.20719081
               6.52285480                4.95553149               12.97641471                0.00010000               -0.83322136                0.26344429               -0.20869861                1.00887113                7.41566549                0.22605655
               7.51433859                4.92895860               12.98173683                0.00010000               -0.84904098                0.21740164               -0.23511694                1.05890958                7.51415543                0.83192458
               8.50587398                4.90600174               12.98978099                0.26227517               -0.37113296                0.12246526               -0.25777370                0.52656645                3.82119340                1.49124915
               9.50691593                4.87385159               12.92332002                0.96370698                0.17560934                0.20358091               -0.63804488                0.02134530                0.05335776                0.52041793
              10.50938617                4.84171809               12.85601924                1.00000000                0.24702424                0.31353204               -1.03188288               -0.02302107                0.01362589               -0.35087032
               0.59372466                6.16240402               13.12093904                1.00000000               -0.14858178               -0.24220393                0.71315679               -0.03323711                0.06845869                0.88886856
               1.59223884                6.12187284               13.04235971                0.69693125               -0.09647769               -0.09403183                0.31903927               -0.01845979                0.17185142               -0.30327368
               2.59179511                6.08077819               12.96579210                0.03076541               -0.33033683                0.04852137               -0.06277014                0.37314047                3.86006906               -1.44417020
               3.58563211                6.04705959               12.96099515                0.00010000               -0.68787966                0.35297878               -0.23387655                0.80399118                7.74735559               -0.54921339
               4.57803751                6.01649709               12.96415865                0.00010000               -0.81719613                0.32946930               -0.22954016                0.92307332                8.32052783               -0.32067591
               5.56928818                5.98711260               12.97317755                0.00010000               -0.93200895                0.33395024               -0.17917795                0.86146741                8.64667001               -0.08144400
               6.55939733                5.95839294               12.98552452                0.00010000               -1.02314604                0.31526467               -0.13973960                0.78407946                8.81209454                0.30341929
               7.54882526                5.93118692               13.00066021                0.00010000               -1.06255638                0.22107830               -0.10287596                0.79305949                8.97414805                0.80170702
               8.53814621                5.90676892               13.01894471                0.27898624               -0.50600014                0.03992400               -0.06201249                0.38274693                4.54106829                1.37463958
               9.53870526                5.87558915               12.94779963                0.88778447                0.12852777                0.14823740               -0.47008893                0.01017853                0.05249707                0.47179630
              10.54071676                5.84466779               12.87630505                1.00000000                0.20115029                0.27438307               -0.89115394               -0.02172967                0.03855879               -0.40895286
               0.63317098                7.16022341               13.10425388                1.00000000               -0.10520271               -0.19189424                0.57177763               -0.03184886                0.03427973                0.81581529
               1.63211896                7.12119232               13.01945122                0.62583917               -0.04841143               -0.04380044                0.15541042               -0.01772225                0.13810003               -0.39143178
               2.63220276                7.08156910               12.93667987                0.03090686               -0.32730588                0.10548143               -0.25571790                0.41152406                4.74693399               -1.63765552
               3.62557284                7.05005323               12.94410691                0.00010000               -0.76771014                0.31099876               -0.27615445                0.85577216                9.38505766               -0.95287075
               4.61684855                7.02016958               12.95680167                0.00010000               -0.96181634                0.40930400               -0.22540178                0.85462830                9.71701531               -0.43485750
               5.60633651                6.99091805               12.97384461                0.00010000               -1.11932417                0.43825096               -0.15024780                0.72222436                9.96423475               -0.06812751
               6.59446207                6.96183678               12.99466212                0.00010000               -1.22563566                0.39038174               -0.06499858                0.56154843               10.17309628                0.30462851
               7.58182380                6.93338017               13.01912415                0.00010000               -1.26676868                0.23294870                0.02685223                0.47797965               10.39188753                0.75631555
               8.56912670                6.90680022               13.04738265                0.30020944               -0.63015857               -0.02916996                0.12734879                0.20015622                5.25210573                1.31032893
               9.56922063                6.87681633               12.97168984                0.85161546                0.08337969                0.09761748               -0.31205016                0.00344557                0.03830116                0.41316211
              10.57079429                6.84720575               12.89562783                1.00000000                0.15736616                0.23366359               -0.75502245               -0.02081571                0.02404059               -0.48004724
               0.67114987                8.15856614               13.08696906                1.00000000               -0.06111570               -0.14068293                0.42893883               -0.02976203                0.01737477                0.78067430
               1.67053871                8.12099683               12.99604046                0.60689424                0.00074054                0.00469911               -0.00811077               -0.01278725                0.07654072               -0.42973513
               2.67116468                8.08288782               12.90626545                0.03707526               -0.31958235                0.15565462               -0.44949849                0.43803148                5.57322049               -1.65466896
               3.66414707                8.05327956               12.92536612                0.00010000               -0.84497127                0.36885672               -0.35959196                0.85119326               11.04178961               -0.93386794
               4.65426526                8.02468317               12.94829254                0.00010000               -1.10407983                0.51066728               -0.24077758                0.74653653               11.18573943               -0.42459203
               5.64206547                7.99587762               12.97392379                0.00010000               -1.30495349                0.54398756               -0.12214356                0.55911362               11.30788166               -0.06674425
               6.62816619                7.96620058               13.00311212                0.00010000               -1.43220250                0.50549571                0.00600356                0.32378080               11.51738976                0.25233101
               7.61342142                7.93584589               13.03668822                0.00515906               -1.47265092                0.29714961                0.14885212                0.08847484               11.81169432                0.63776202
               8.59871317                7.90618552               13.07522622                0.32650046               -0.75263895               -0.09019734                0.30938312               -0.03226212                5.97144460                1.20736377
               9.59836864                7.87754150               12.99492068                0.85952032                0.04042243                0.04673421               -0.15711903               -0.00132298                0.02079603                0.37966414
              10.59952162                7.84934106               12.91436261                1.00000000                0.11529755                0.19392440               -0.62234169               -0.02063972                0.01381133               -0.51798031
               0.70771436                9.15740975               13.06945036                1.00000000               -0.01728273               -0.09345452                0.28714296               -0.02738648                0.00568528                0.64995536
               1.70754153                9.12128630               12.97238196                0.62887976                0.04831445                0.05349270               -0.17065696               -0.00632053                0.08949287               -0.38746611
               2.70868065                9.08468219               12.87697813                0.03029814               -0.33700928                0.19982799               -0.63257718                0.48725629                6.50462236               -1.18017143
               3.70080135                9.05743036               12.90834724                0.00010000               -0.97497099                0.54838632               -0.43386537                0.66987154               12.66121001               -0.58291607
               4.68918123                9.03038293               12.94019919                0.00010000               -1.23999844                0.59955087               -0.26640908                0.49896131               12.52880516               -0.25249934
               5.67600138                9.00179780               12.97351089                0.00010000               -1.41059117                0.61056503               -0.10559407                0.33469339               12.55751729               -0.03591843
               6.66096941                8.97194670               13.01019108                0.00010000               -1.61965136                0.59146884                0.06407179                0.11792202               12.78591070                0.15296624
               7.64360835                8.93932316               13.05213630                0.01744200               -1.70917781                0.50491149                0.25435929               -0.20950345               13.22376625                0.37695955
               8.62678585                8.90499627               13.10155948                0.35641492               -0.87848629               -0.13600781                0.47662578               -0.33700994                6.78763566                0.82119722
               9.62603863                8.87775102               13.01805304                0.91567212               -0.00017440               -0.00280934               -0.00461974               -0.00736347                0.05777603                0.32905604
              10.62678236                8.85108424               12.93276768                0.96979229                0.07437366                0.15479593               -0.49192871               -0.02098899               -0.02414144               -0.43915180
               0.74284905               10.15669705               13.04945078                1.00000000                0.02908212               -0.07127042                0.14376856                0.05043188                0.36203771                0.53002645
               1.74313987               10.12206668               12.94985745                0.84512699                0.09583509                0.07803836               -0.32515550                0.06919959                0.66127650               -0.33447413
               2.74476575               10.08688438               12.85626018                0.52043244               -0.56480533                0.22021877               -0.78016957                0.71753994                7.60688702               -0.76343790
               3.73184376               10.06424729               12.89574943                0.35965255               -1.24443535                0.68169307               -0.50391343                0.59373175               13.84956480               -0.25823034
               4.71987704               10.03667419               12.93365003                0.35406947               -1.23240965                0.62912641               -0.30380132                0.26166223               13.58853094               -0.08785523
               5.70719557               10.00808892               12.97269990                0.37560406               -1.34388865                0.62911158               -0.10526061                0.18720688               13.61332302                0.02897917
               6.69299927                9.97802995               13.01520566                0.42157627               -1.55068960                0.60832582                0.10313384                0.09574627               13.88306818                0.13053753
               7.67618177                9.94594412               13.06350418                0.51377563               -1.97270776                0.66209637                0.33448305               -0.47088730               14.46995669                0.25995179
               8.65354511                9.90346536               13.12160365                0.69200332               -1.20241848               -0.15309070                0.60626555               -0.74701470                7.75862710                0.51511313
               9.65213340                9.87748531               13.04016621                0.99380055               -0.05548580               -0.02657074                0.13737893                0.05805863                0.49083275                0.28444872
              10.65243540                9.85243698               12.95288606                1.00000000                0.03019906                0.13527437               -0.35646970                0.06047035                0.20675609               -0.34363070
               0.37643086                0.20826014               14.22576831                1.00000000               -0.37405499               -0.41106565                1.42947083               -0.07350342               -0.60544930                0.64584886
               1.37269031                0.15534932               14.17170458                1.00000000               -0.30877018               -0.32565246                1.14214777               -0.05752124               -0.75372034                0.03188321
               2.37025546                0.10222523               14.11459294                1.00000000               -0.16552617               -0.24218587                0.83422085               -0.04162439               -0.68836028               -0.18847902
               3.36937979                0.05018556               14.06178504                0.61927522                0.31555351               -0.18610619                0.54556990                0.45856909                0.29377761               -0.47072193
               4.37656653                0.00977410               14.02427778                0.68628967                0.48009177               -0.09205665                0.24219480               -0.03155269                0.90212430                0.07055442
               5.37898163               -0.02238966               13.98356289                0.76046249                0.16023388                0.01350810               -0.07387601                0.00774453                0.54047642                0.04230671
               6.37977121               -0.05334217               13.93901534                0.74629820                0.04137007                0.10687794               -0.39745972                0.00947817                0.37073792               -0.02813598
               7.37980903               -0.08600922               13.89497748                0.84693862                0.04210033                0.20807057               -0.73165377                0.05520660                0.14139589                0.03573120
               8.38061322               -0.12301675               13.84581915                1.00000000                0.18891777                0.32310580               -1.05307526                0.04190784               -0.27289220                0.36569265
               9.38358738               -0.16277551               13.79353140                1.00000000                0.36749196                0.39399928               -1.36317619               -0.05048212               -0.43090802                0.01814947
              10.38796305               -0.20274391               13.74134132                1.00000000                0.43756710                0.47788093               -1.65995541               -0.07733676               -0.43298647               -0.45540572
               0.42860665                1.20414948               14.20605984                1.00000000               -0.34740937               -0.39115425                1.29837834               -0.03190513               -0.07353751                0.88060828
               1.42513256                1.15209279               14.15158418                1.00000000               -0.30927773               -0.30322470                1.01179582               -0.01318616               -0.02637124                0.04889631
               2.42242109                1.09980337               14.09799040                0.78261800               -0.24707533               -0.21909668                0.71823703                0.02364619                0.20117615               -0.52926760
               3.42019105                1.04832450               14.04804466                0.10769173               -0.49412394               -0.17769484                0.42587613                0.64401677                1.54011091               -0.83791338
               4.41253862                1.00885353               14.02129452                0.24620875               -0.47869213                0.08248858                0.19788898                0.09619671                2.19021229                0.75652968
               5.41061721                0.97774542               13.98533974                0.32529127               -0.04314228                0.08863370               -0.08627195                0.30235741                1.49589110                0.29837523
               6.41167577                0.94772661               13.94508482                0.23183483                0.22905885                0.00485427               -0.38249745                0.29803965                1.35359694               -0.36816098
               7.41519838                0.91607148               13.90654383                0.39379235                0.38698333                0.21601529               -0.67065140                0.40517064                1.29257019                0.56442732
               8.41941544                0.88021431               13.86539776                1.00000000                0.38738796                0.29936040               -0.94888170                0.16484757                0.65471029                0.49959331
               9.42294614                0.84116448               13.81430880                1.00000000                0.38713277                0.37811293               -1.24163389               -0.00134173                0.09592853                0.07725283
              10.42715809                0.80203490               13.76207759                1.00000000                0.42119495                0.45118487               -1.53770995               -0.03008149                0.03374108               -0.54018133
               0.47990614                2.20043705               14.19093300                1.00000000               -0.31334358               -0.35743923                1.18716530               -0.02739738                0.03006793                1.13332934
               1.47677270                2.14928482               14.13173214                1.00000000               -0.27047295               -0.26465878                0.88501810               -0.00376804                0.13243333                0.02817277
               2.47449668                2.09784330               14.07453409                0.39701260               -0.17813662               -0.18203441                0.59620163                0.04149271                0.71450218               -1.11871947
               3.47320997                2.04663166               14.02695315                0.00010000               -1.27135658               -0.16214909                0.29693961                0.94291303                3.81710170               -1.55964873
               4.44906955                2.01142387               14.03184327                0.00010000               -1.35271349                0.24422027                0.24015305                1.83455278                4.00084340               -1.07211807
               5.44615570                1.97938301               13.99218118                0.00010000               -0.08318045                0.02556023               -0.08113929                1.59170291                1.38785374               -0.47381787
               6.44740594                1.94675491               13.94436604                0.00010000                0.46345215               -0.12444755               -0.36493324                1.48798726                2.58421836                0.09268167
               7.45542474                1.91831108               13.92873783                0.00010000                0.57056145               -0.06967066               -0.60566053                1.05467404                2.89292120                0.48064085
               8.45881717                1.88297046               13.88774698                0.43825406                0.31576086                0.28744809               -0.82491190                0.26890682                1.11560663                0.94293873
               9.46173996                1.84478675               13.83637482                1.00000000                0.34017182                0.36179483               -1.11422938                0.04525776                0.40711059                0.40947866
              10.46562060                1.80627978               13.78124733                1.00000000                0.38806438                0.40200498               -1.42703897               -0.01536155                0.21615241               -0.55339941
               0.53036316                3.19700069               14.17613276                1.00000000               -0.27122075               -0.33249403                1.07529548               -0.02380965                0.03108218                1.13897129
               1.52765095                3.14679962               14.11112064                1.00000000               -0.22295253               -0.23076039                0.75384942               -0.00374957                0.03423850               -0.02930731
               2.52590411                3.09616268               14.04611843                0.19933910               -0.10911061               -0.13524983                0.43517346               -0.00130967                0.91871370               -1.30369914
               3.52546874                3.04508152               13.99875015                0.00010000               -0.47128914               -0.05252983                0.13724595                0.99058602                3.86082880               -1.83513886
               4.51647832                3.01373793               13.99270257                0.00010000               -0.91742589                0.17468952                0.01151544                2.52229284                5.44997837               -2.40435711
               5.50712022                2.97825662               13.97860680                0.00010000               -0.69854403                0.04446419               -0.12980818                2.18456446                4.69486294               -1.16046872
               6.50250744                2.94523765               13.95928819                0.00010000               -0.35219498               -0.01019718               -0.30799910                1.97734375                4.32212234                0.41307053
               7.50007632                2.91467807               13.93888805                0.00010000               -0.20947684               -0.13580200               -0.48528917                1.45530528                4.10924039                0.34769580
               8.49831791                2.88596327               13.91625276                0.25404482                0.02328244                0.28860983               -0.67298674                0.61412453                2.45426877                1.72838074
               9.50054197                2.84840038               13.86387511                1.00000000                0.27734437                0.32987911               -0.95539736                0.06112154                0.48203789                0.63048883
              10.50386479                2.81007500               13.80182086                1.00000000                0.33228248                0.37012122               -1.30585357               -0.02524448               -0.00353762               -0.42192537
               0.57983210                4.19378717               14.16095716                1.00000000               -0.22963780               -0.30832033                0.95745730               -0.02503670                0.02953621                1.08828959
               1.57753572                4.14466962               14.09005306                1.00000000               -0.18217584               -0.19069189                0.61636921               -0.00417561                0.02624260               -0.06017227
               2.57618858                4.09513830               14.01902174                0.10399901               -0.10446428               -0.07461199                0.27453059                0.01480407                1.23029063               -1.15002046
               3.57544644                4.04558107               13.97216436                0.00010000               -0.49241430                0.29485908               -0.15089263                0.73733453                5.01316661               -0.70534049
               4.56634030                4.01491766               13.97650637                0.00010000               -0.85495845                0.15937063               -0.13388022                1.53557890                7.04584199               -0.90254283
               5.55834727                3.98027230               13.97232219                0.00010000               -0.79044660                0.22000309               -0.17629776                1.41654213                6.40178240               -0.55600313
               6.55053136                3.94655097               13.96575073                0.00010000               -0.72710163                0.19212215               -0.26049164                1.36364124                6.16215563                0.08588553
               7.54380523                3.91559504               13.95870497                0.00010000               -0.65770095                0.15598959               -0.36207169                1.34514798                6.18424368                0.87320531
               8.53737735                3.88874265               13.95433808                0.24810068               -0.24772867                0.22232862               -0.46576141                0.63844874                3.26125893                1.94027954
               9.53885066                3.85138433               13.89042626                1.00000000                0.21945693                0.26550661               -0.79732330                0.03662950                0.14178220                0.57664124
              10.54176648                3.81368221               13.82368776                1.00000000                0.29158234                0.34720299               -1.17478958               -0.02222255                0.00041465               -0.35292802
               0.62809753                5.19083429               14.14498692                1.00000000               -0.18812247               -0.27658744                0.83018147               -0.02871862                0.09234411                1.00445914
               1.62621631                5.14298578               14.06878213                0.81756659               -0.14043994               -0.14355586                0.47439661               -0.01022931                0.15418145               -0.16736504
               2.62528874                5.09467044               13.99375570                0.05623808               -0.28901198               -0.01661201                0.13052443                0.24261889                2.64501250               -1.22508259
               3.62043607                5.05097870               13.96733837                0.00010000               -0.63950305                0.49392959               -0.40949221                0.63961120                6.41135084                0.15393918
               4.61249867                5.01692535               13.96766496                0.00010000               -0.83091588                0.25506339               -0.21867346                1.12886175                7.76817684               -0.37850264
               5.60381775                4.98265669               13.97074674                0.00010000               -0.90205770                0.27433512               -0.19270921                1.04847467                7.80877991               -0.19930362
               6.59445752                4.94908010               13.97435244                0.00010000               -0.95150778                0.28070647               -0.20462735                1.02406500                7.78798396                0.26335466
               7.58478760                4.91779786               13.97940140                0.00010000               -0.95799638                0.22921801               -0.23281521                1.07424799                7.88388621                0.90092573
               8.57529759                4.89040984               13.98717702                0.25873819               -0.42262967                0.12192467               -0.26322612                0.53182435                4.01783788                1.58811780
               9.57633500                4.85371051               13.91690226                0.94762054                0.17634995                0.20438707               -0.64517152                0.02126232                0.06689713                0.55490248
              10.57882459                4.81701906               13.84566433                1.00000000                0.24895889                0.31659235               -1.03844661               -0.02195270                0.02056448               -0.36149868
               0.67495475                6.18825542               14.12797574                1.00000000               -0.14597651               -0.23410267                0.69565315               -0.03125768                0.06845039                0.90647038
               1.67349498                6.14179850               14.04553166                0.68897956               -0.09533532               -0.09331171                0.31496980               -0.01553019                0.17759359               -0.32882332
               2.67304804                6.09480606               13.96522100                0.03755718               -0.37556130                0.04321284               -0.05375975                0.38958801                3.96235526               -1.51580686
               3.66598376                6.05545966               13.95847010                0.00010000               -0.79042471                0.38836478               -0.27936243                0.81413217                8.06536544               -0.42435481
               4.65723955                6.02001893               13.96179488                0.00010000               -0.94108728                0.35354237               -0.24509034                0.95633896                8.76993968               -0.28167237
               5.64716201                5.98575900               13.97138848                0.00010000               -1.06840290                0.36324076               -0.18000857                0.87850166                9.10965235               -0.04940982
               6.63587149                5.95216510               13.98414528                0.00010000               -1.16007787                0.34359524               -0.13720806                0.78599451                9.26633305                0.34888840
               7.62396045                5.92017940               13.99963312                0.00010000               -1.18851531                0.23978057               -0.10340761                0.79122251                9.42933541                0.86766774
               8.61210118                5.89118115               14.01827497                0.27535143               -0.56468803                0.04078631               -0.07217502                0.37895705                4.77776751                1.46137775
               9.61266669                5.85547207               13.94304014                0.87297269                0.13045825                0.15135826               -0.48160837                0.00994409                0.06077502                0.50592667
              10.61471035                5.82001406               13.86732587                1.00000000                0.20436550                0.28002414               -0.90411022               -0.02109193                0.03998325               -0.42241013
               0.72038623                7.18615223               14.10988146                1.00000000               -0.10311596               -0.18493591                0.55530790               -0.02985781                0.03311022                0.82921530
               1.71935507                7.14111954               14.02100697                0.61918205               -0.04834473               -0.04412570                0.15520945               -0.01434657                0.13921896               -0.41746028
               2.71941933                7.09553470               13.93421481                0.03527422               -0.39246110                0.09833710               -0.23972857                0.44952895                4.93566018               -1.71096818
               3.71150585                7.05874600               13.94129588                0.00010000               -0.90466092                0.33936249               -0.29252339                0.91345930                9.81676232               -0.92492181
               4.70132612                7.02399619               13.95451971                0.00010000               -1.11321166                0.44862849               -0.23410067                0.90261500               10.21268557               -0.38848698
               5.68924161                6.98992150               13.97234477                0.00010000               -1.27845551                0.48397959               -0.15129550                0.74120045               10.48092492               -0.02713274
               6.67575701                6.95595200               13.99402209                0.00010000               -1.38228070                0.43277132               -0.06415477                0.55348288               10.69909976                0.35076991
               7.66159600                6.92259347               14.01937940                0.00010000               -1.40864705                0.25982361                0.02339820                0.45580340               10.92607759                0.81595881
               8.64758406                6.89122557               14.04858749                0.29682505               -0.69475121               -0.02751355                0.11345514                0.18394478                5.52456840                1.38985300
               9.64770097                6.85673768               13.96849669                0.83719576                0.08673635                0.10175901               -0.32705927                0.00301467                0.04154344                0.44077333
              10.64931879                6.82261954               13.88799375                1.00000000                0.16178159                0.24120427               -0.77214340               -0.02018177                0.02540827               -0.49670591
               0.76442297                8.18455670               14.09117687                1.00000000               -0.05973854               -0.13529928                0.41416379               -0.02805380                0.01598986                0.79341774
               1.76382559                8.14091598               13.99598468                0.60105861               -0.00054014                0.00338232               -0.00395977               -0.00998952                0.07301999               -0.45493904
               2.76441217                8.09677280               13.90190641                0.03870050               -0.40170699                0.14688890               -0.42561517                0.49659966                5.82302657               -1.72225278
               3.75579145                8.06224691               13.92177926                0.00010000               -1.01479141                0.40462907               -0.36155659                0.94270725               11.57987951               -0.92411138
               4.74411634                8.02899150               13.94588538                0.00010000               -1.28806177                0.57151570               -0.24256281                0.80688405               11.75309168               -0.39302281
               5.73003021                7.99543859               13.97270836                0.00010000               -1.49235841                0.60931953               -0.12215698                0.57921578               11.88649452               -0.03178531
               6.71426917                7.96082052               14.00317370                0.00010000               -1.61136268                0.56679972                0.00534478                0.30648470               12.11130335                0.28939546
               7.69780296                7.92537588               14.03814990                0.00508724               -1.63166500                0.33716347                0.14275740                0.04050310               12.42303563                0.68410154
               8.68163587                7.89063087               14.07823456                0.32369601               -0.82349722               -0.08736999                0.29203580               -0.06610503                6.28171873                1.27588977
               9.68133301                7.85750725               13.99325748                0.84470919                0.04535602                0.05175336               -0.17596440               -0.00272920                0.02057730                0.40472778
              10.68254299                7.82483814               13.90803245                1.00000000                0.12099798                0.20271568               -0.64429145               -0.02001623                0.01406299               -0.53768983
               0.80710659                9.18344625               14.07225061                1.00000000               -0.01674105               -0.08934313                0.27436914               -0.02612987                0.00313094                0.66193139
               1.80693918                9.14118719               13.97072665                0.62296289                0.04569048                0.05096234               -0.16178227               -0.00475900                0.08518744               -0.40783376
               2.80802040                9.09847248               13.87083268                0.02849038               -0.43989419                0.18992976               -0.60076281                0.57472045                6.81667546               -1.22428748
               3.79814130                9.06683858               13.90403854                0.00010000               -1.18741426                0.62060809               -0.42852073                0.76414520               13.29490949               -0.56858206
               4.78427212                9.03542651               13.93754498                0.00010000               -1.45721984                0.67898850               -0.26472835                0.54874844               13.16259757               -0.23463968
               5.76899690                9.00210789               13.97246066                0.00010000               -1.61613514                0.68984818               -0.10500099                0.34788298               13.20119636               -0.01625293
               6.75194941                8.96728800               14.01082600                0.00010000               -1.82005945                0.66782703                0.06215920                0.09919965               13.44820550                0.17322247
               7.73259571                8.92933674               14.05464020                0.01804493               -1.89094139                0.57308497                0.24576304               -0.26721806               13.91237941                0.40105750
               8.71413059                8.88947817               14.10622723                0.35445560               -0.95782934               -0.13009002                0.45624862               -0.39368241                7.14276104                0.86328134
               9.71343912                8.85777275               14.01789903                0.89994148                0.00630540                0.00351098               -0.02709731               -0.01003931                0.05999226                0.34895905
              10.71425669                8.82667385               13.92771061                0.97172149                0.08175688                0.16444361               -0.51972890               -0.02066893               -0.02545319               -0.45811170
               0.84841849               10.18276984               14.05083136                1.00000000                0.02856875               -0.06764087                0.13364568                0.04772894                0.36579522                0.54056679
               1.84870418               10.14193523               13.94667891                0.84267785                0.09183506                0.07480397               -0.31227889                0.06657751                0.67196961               -0.35014552
               2.85025519               10.10057140               13.84865841                0.51888375               -0.72919298                0.20989187               -0.74475592                0.85967114                7.97747003               -0.78851015
               3.83412032               10.07465907               13.89074832                0.36041521               -1.52165988                0.78204949               -0.49522979                0.69789565               14.56495276               -0.24910720
               4.81982199               10.04257127               13.93062794                0.35433384               -1.44969684                0.71447566               -0.30021724                0.28381199               14.28720291               -0.08039210
               5.80512638               10.00923555               13.97165607                0.37549631               -1.53988407                0.71276624               -0.10389241                0.19323815               14.32632029                0.03800091
               6.78902431                9.97417706               14.01622858                0.42127830               -1.74289774                0.68890675                0.10055583                0.08759112               14.61665275                0.14053261
               7.77026843                9.93683758               14.06679965                0.51439310               -2.18490460                0.75008323                0.32362394               -0.54012792               15.23267211                0.27258874
               8.74532622                9.88802907               14.12754363                0.69157758               -1.31659432               -0.14490921                0.58079765               -0.84344148                8.16594011                0.53792163
               9.74393654                9.85757747               14.04142705                0.98583898               -0.04994093               -0.01952723                0.11192547                0.05463860                0.51828631                0.30080486
              10.74432740                9.82812701               13.94915242                1.00000000                0.03908618                0.14531612               -0.39042847                0.06202486                0.21964588               -0.35987516
               0.42573333                0.23521713               15.23998163                1.00000000               -0.37009238               -0.40569799                1.41378608               -0.07319330               -0.63251429                0.67173879
               1.42203240                0.17646740               15.18306845                1.00000000               -0.30555147               -0.32215340                1.13082041               -0.05789787               -0.79076916                0.03695956
               2.41962230                0.11751044               15.12291188                1.00000000               -0.16346407               -0.24021792                0.82938058               -0.04144683               -0.72642532               -0.19124084
               3.41876312                0.05966765               15.06723704                0.62051845                0.31810377               -0.18550026                0.54452248                0.47120461                0.25643156               -0.49916288
               4.42598437                0.01375555               15.02671270                0.69103508                0.47742987               -0.08375800                0.24470334               -0.03846481                0.84969865                0.08473293
               5.42831172               -0.02364428               14.98285237                0.76792519                0.15441433                0.01604902               -0.06885458                0.00815880                0.47987180                0.04976412
               6.42907266               -0.05979061               14.93509596                0.75258205                0.04106068                0.10632488               -0.38733520                0.00993069                0.30313637               -0.03271596
               7.42913293               -0.09750905               14.88774227                0.85147444                0.04300875                0.20557707               -0.71618850                0.05223663                0.07632320                0.03878837
               8.42993284               -0.13940067               14.83538328                1.00000000                0.18577546                0.31842409               -1.03457267                0.03919356               -0.32413191                0.37738056
               9.43284844               -0.18398461               14.78000528                1.00000000                0.36114889                0.38875857               -1.34232995               -0.04984665               -0.46866429                0.01710935
              10.43715581               -0.22879442               14.72486174                1.00000000                0.43073703                0.47161597               -1.63609077               -0.07578942               -0.46361332               -0.48527558
               0.48375113                1.23116015               15.21896911                1.00000000               -0.34443570               -0.38503632                1.28411728               -0.03208877               -0.07867940                0.91556971
               1.48030677                1.17324586               15.16164964                1.00000000               -0.30717104               -0.29962674                1.00152016               -0.01380515               -0.03494695                0.05555040
               2.47760770                1.11510826               15.10514617                0.79175162               -0.24770768               -0.21744139                0.71274360                0.02440984                0.19027447               -0.53508997
               3.47535261                1.05781265               15.05230313                0.11635468               -0.51760066               -0.17662982                0.42551549                0.66454209                1.56176303               -0.87136303
               4.46725569                1.01291797               15.02326739                0.25962802               -0.50931138                0.07717299                0.19695358                0.04757157                2.22520389                0.80570512
               5.46516639                0.97651621               14.98448585                0.34186181               -0.05756699                0.08787642               -0.08475153                0.27676740                1.50283328                0.31378293
               6.46610435                0.94127264               14.94129290                0.24533804                0.21469715                0.01326876               -0.37652742                0.28199622                1.36066410               -0.37123586
               7.46946033                0.90454672               14.89989353                0.40480638                0.37291011                0.20890543               -0.66003933                0.38477074                1.30745028                0.56948297
               8.47356255                0.86378357               14.85597331                1.00000000                0.37932616                0.29552151               -0.93645663                0.16024796                0.66505271                0.52106715
               9.47704685                0.81990297               14.80196996                1.00000000                0.38225860                0.37359676               -1.22649114               -0.00108900                0.09750528                0.07944327
              10.48120773                0.77592174               14.74679271                1.00000000                0.41608725                0.44583318               -1.51950362               -0.02909562                0.03370295               -0.57537887
               0.54092012                2.22751640               15.20272973                1.00000000               -0.31119352               -0.35023384                1.17295401               -0.02660378                0.03083194                1.17674222
               1.53780819                2.17047486               15.14053449                1.00000000               -0.26882044               -0.26124529                0.87567142               -0.00232322                0.13921348                0.03424088
               2.53554371                2.11316161               15.08046522                0.41046286               -0.17819645               -0.18263322                0.58968418                0.04715297                0.72258447               -1.14533539
               3.53424426                2.05613505               15.02991333                0.00010000               -1.36557345               -0.16170866                0.29425666                0.95967707                3.93433990               -1.61276696
               4.50823224                2.01529901               15.03409502                0.00010000               -1.43759298                0.23454848                0.21626957                1.87191358                4.15943671               -1.10441602
               5.50549240                1.97811325               14.99135296                0.00010000               -0.07750853                0.00777877               -0.08391263                1.62601527                1.43382564               -0.47461125
               6.50668207                1.94047477               14.94072900                0.00010000                0.44125097               -0.13435085               -0.36311656                1.48939288                2.66337097                0.11053926
               7.51431742                1.90666906               14.92270514                0.00010000                0.55497360               -0.08229043               -0.60128777                1.05082083                2.99315381                0.51934922
               8.51778154                1.86650976               14.87953060                0.44508934                0.31855405                0.28504780               -0.81884207                0.26915674                1.18653813                0.98902852
               9.52068850                1.82348732               14.82528352                1.00000000                0.33774107                0.35820696               -1.10454770                0.04527879                0.43174689                0.43097129
              10.52453637                1.78012224               14.76704256                1.00000000                0.38478683                0.39856777               -1.41437104               -0.01461172                0.22873571               -0.58772382
               0.59730213                3.22415547               15.18680978                1.00000000               -0.26870363               -0.32507237                1.06098147               -0.02226287                0.03347581                1.17787189
               1.59461509                3.16802096               15.11861727                1.00000000               -0.22057767               -0.22820513                0.74593519               -0.00152820                0.03797289               -0.02877104
               2.59289057                3.11145560               15.05046593                0.21174323               -0.11031653               -0.13842628                0.43396521                0.00816833                0.93242057               -1.34757529
               3.59240876                3.05457847               15.00012274                0.00010000               -0.50874023               -0.07066271                0.13670031                1.02287287                3.97034932               -1.96120825
               4.58271577                3.01760894               14.99280187                0.00010000               -0.99489125                0.16680391                0.00959263                2.61798670                5.64610238               -2.53327772
               5.57251093                2.97667178               14.97729397                0.00010000               -0.76896859                0.02962802               -0.13169101                2.25176607                4.88055306               -1.18653457
               6.56733640                2.93858562               14.95622583                0.00010000               -0.40345914               -0.03486239               -0.30471949                2.01734310                4.49334468                0.45016846
               7.56444175                2.90290091               14.93406142                0.00010000               -0.26044850               -0.14397071               -0.48087640                1.48981643                4.27568819                0.41815351
               8.56212743                2.86948453               14.90953871                0.25351039               -0.00509014                0.28455950               -0.67088184                0.61982006                2.57033401                1.81594692
               9.56433995                2.82706711               14.85434965                1.00000000                0.27591104                0.32679381               -0.95019143                0.06003672                0.51811155                0.66736137
              10.56764565                2.78389309               14.78880082                1.00000000                0.33056985                0.36864382               -1.29839071               -0.02444635               -0.00161039               -0.44436412
               0.65274389                4.22101495               15.17045268                1.00000000               -0.22663962               -0.30086908                0.94288791               -0.02403461                0.03195239                1.11808792
               1.65047749                4.16591076               15.09617912                1.00000000               -0.17971637               -0.18869540                0.60873071               -0.00298954                0.02827577               -0.06533225
               2.64914956                4.11039309               15.02177428                0.11428303               -0.09645607               -0.07789182                0.27635040                0.00955862                1.19362182               -1.18503133
               3.64854837                4.05472180               14.97078085                0.00010000               -0.53254481                0.25941113               -0.12655509                0.76814564                5.14582539               -0.89637535
               4.63849867                4.01863509               14.97514552                0.00010000               -0.94986691                0.15563452               -0.13689429                1.58317477                7.37875565               -0.97167542
               5.62955103                3.97870581               14.97056243                0.00010000               -0.88494303                0.22574480               -0.17527563                1.45613153                6.69850508               -0.57122628
               6.62079981                3.93977752               14.96316509                0.00010000               -0.81680970                0.19092010               -0.25712203                1.38536316                6.43481539                0.12026969
               7.61321484                3.90378964               14.95510359                0.00010000               -0.73940291                0.15740250               -0.35917805                1.35867091                6.45090190                0.94538129
               8.60601175                3.87220095               14.94967633                0.24557813               -0.28670865                0.21713415               -0.46727277                0.64180018                3.41892923                2.04996352
               9.60748067                3.83002320               14.88245631                1.00000000                0.21918620                0.26343219               -0.79655414                0.03603886                0.16473257                0.60904818
              10.61039547                3.78749512               14.81194658                1.00000000                0.29148046                0.34784568               -1.17298846               -0.02142340               -0.00000400               -0.36702647
               0.70702982                5.21813809               15.15320642                1.00000000               -0.18526575               -0.26880316                0.81530361               -0.02720703                0.09813842                1.02525947
               1.70517716                5.16424705               15.07349082                0.80826786               -0.13795576               -0.14196137                0.46639923               -0.00861826                0.16548780               -0.18318498
               2.70427071                5.10989776               14.99507376                0.06492176               -0.28237459               -0.01950720                0.13010313                0.22369290                2.54693204               -1.27041193
               3.69952967                5.05976670               14.96294738                0.00010000               -0.69377256                0.49465885               -0.45745511                0.63205163                6.61385999                0.15160711
               4.69039526                5.02072163               14.96542997                0.00010000               -0.95192695                0.26869050               -0.22770467                1.17196201                8.26927644               -0.39048570
               5.68049113                4.98118668               14.96881791                0.00010000               -1.02177165                0.29102848               -0.19318648                1.06310933                8.20051628               -0.18820823
               6.66995982                4.94240403               14.97232216                0.00010000               -1.06496981                0.29617716               -0.20227723                1.02709177                8.15543862                0.30459344
               7.65919174                4.90604896               14.97708052                0.00010000               -1.06149721                0.23863141               -0.23234780                1.07453175                8.24638384                0.97316470
               8.64872988                4.87382721               14.98451646                0.25558897               -0.47125887                0.11925253               -0.26903801                0.52847919                4.21034663                1.68688770
               9.64976656                4.83233575               14.91041659                0.93097515                0.17717286                0.20450271               -0.65151420                0.02059916                0.08036378                0.58939279
              10.65227334                4.79085001               14.83525031                1.00000000                0.25067754                0.31975237               -1.04339647               -0.02110009                0.02856388               -0.37395181
               0.75998183                6.21563889               15.13485211                1.00000000               -0.14363734               -0.22657488                0.68080837               -0.02911819                0.06824546                0.92063768
               1.75854546                6.16307153               15.04865910                0.68154144               -0.09390275               -0.09284767                0.31048606               -0.01215606                0.18304047               -0.35314871
               2.75810377                6.11000294               14.96471691                0.04437146               -0.40899595                0.03832805               -0.04799310                0.39498894                4.02820781               -1.58138262
               3.75036554                6.06461498               14.95540790                0.00010000               -0.87929256                0.42394659               -0.33909018                0.80397311                8.36269914               -0.28069383
               4.74051792                6.02400890               14.95925684                0.00010000               -1.06173558                0.37938547               -0.26286040                0.97847631                9.23515120               -0.24222574
               5.72913083                5.98452638               14.96957738                0.00010000               -1.20192819                0.39344205               -0.18307637                0.88268313                9.57370587               -0.01554966
               6.71647936                5.94570106               14.98278036                0.00010000               -1.29242679                0.37098701               -0.13683633                0.77427500                9.71555601                0.39693388
               7.70328229                5.90856227               14.99859206                0.00010000               -1.30924094                0.25667995               -0.10582546                0.77365775                9.87633549                0.93635215
               8.69029454                5.87458600               15.01750121                0.27213430               -0.62062171                0.04052338               -0.08295409                0.36609367                5.01013697                1.55042492
               9.69086986                5.83411325               14.93816746                0.85789290                0.13252116                0.15393542               -0.49288548                0.00914194                0.06870002                0.54160414
              10.69294496                5.79389017               14.85822284                1.00000000                0.20751081                0.28575210               -0.91593482               -0.02055798                0.04120885               -0.43666595
               0.81158217                7.21360659               15.11536004                1.00000000               -0.10121851               -0.17867720                0.54162899               -0.02803870                0.03219832                0.83968845
               1.81056999                7.16239010               15.02255541                0.61306643               -0.04775659               -0.04465822                0.15400719               -0.01090771                0.14078337               -0.44170563
               2.81062704                7.11066432               14.93188530                0.03986738               -0.44834040                0.09109736               -0.22810988                0.47911934                5.09925220               -1.77718125
               3.80160318                7.06824563               14.93825644                0.00010000               -1.02868307                0.37198522               -0.32153104                0.95225835               10.22486853               -0.87357657
               4.79005338                7.02830934               14.95211965                0.00010000               -1.25752748                0.48942745               -0.24846512                0.93449809               10.70889739               -0.33472410
               5.77645263                6.98905552               14.97081870                0.00010000               -1.43219772                0.52998203               -0.15522963                0.74453212               10.99578571                0.01612813
               6.76140943                6.94982377               14.99337902                0.00010000               -1.53363394                0.47417566               -0.06563902                0.52991942               11.21954798                0.39884337
               7.74577995                6.91118256               15.01959211                0.00010000               -1.54543263                0.28524259                0.01809085                0.41764444               11.45186728                0.87813351
               8.73050077                6.87463768               15.04965175                0.29381342               -0.75673583               -0.02612166                0.09866115                0.15886654                5.79316381                1.47263310
               9.73064524                6.83541446               14.96514866                0.82276495                0.09037858                0.10602350               -0.34314008                0.00199061                0.04501524                0.47038540
              10.73230835                6.79656505               14.88018496                1.00000000                0.16631094                0.24901202               -0.78978283               -0.01954340                0.02661444               -0.51358441
               0.86185405                8.21206535               15.09525234                1.00000000               -0.05844762               -0.13063543                0.40201472               -0.02656161                0.01490112                0.80367469
               1.86126957                8.16217837               14.99596126                0.59580061               -0.00117086                0.00226484               -0.00151684               -0.00736148                0.07034253               -0.47803388
               2.86183063                8.11182489               14.89775314                0.04077627               -0.47519415                0.13900605               -0.40767880                0.54757687                6.05195407               -1.78260296
               3.85176569                8.07205468               14.91813498                0.00010000               -1.17163187                0.44220168               -0.37154834                1.01783044               12.09242669               -0.90165753
               4.83839799                8.03379745               14.94344128                0.00010000               -1.46293229                0.63191170               -0.24850749                0.85145093               12.31220007               -0.35537638
               5.82250704                7.99512602               14.97148065                0.00010000               -1.67236422                0.67347560               -0.12477824                0.58393922               12.45877659                0.00520243
               6.80495071                7.95518458               15.00321902                0.00010000               -1.78428880                0.62662472                0.00254380                0.27428263               12.69837462                0.32788691
               7.78682127                7.91426712               15.03954337                0.00512021               -1.78553684                0.37559990                0.13481825               -0.02231267               13.02584294                0.73292787
               8.76923997                7.87406357               15.08106694                0.32108114               -0.89194837               -0.08424226                0.27344454               -0.10759631                6.58878960                1.34836905
               9.76898230                7.83623372               14.99140139                0.82982458                0.05064756                0.05730830               -0.19614795               -0.00416508                0.02120882                0.43222846
              10.77025292                7.79887041               14.90147678                1.00000000                0.12706236                0.21184938               -0.66732775               -0.01924203                0.01448548               -0.55789451
               0.91082490                9.21099388               15.07493774                1.00000000               -0.01616846               -0.08592398                0.26402090               -0.02505832                0.00103697                0.67202308
               1.91066321                9.16243539               14.96914632                0.61765904                0.04386844                0.04904400               -0.15546315               -0.00333950                0.08206657               -0.42626343
               2.91170227                9.11344444               14.86496288                0.02733945               -0.53379898                0.18189111               -0.57657054                0.65346896                7.10873004               -1.26325568
               3.89998723                9.07708966               14.89977682                0.00010000               -1.38456026                0.68954545               -0.42588121                0.84553628               13.90010425               -0.54792033
               4.88401106                9.04094757               14.93490462                0.00010000               -1.66214739                0.75514921               -0.26473614                0.58753642               13.78279957               -0.21436392
               5.86674429                9.00252503               14.97141087                0.00010000               -1.81285453                0.76660502               -0.10609852                0.35114868               13.83528579                0.00413622
               6.84775397                8.96235626               15.01143426                0.00010000               -2.01447904                0.74254326                0.05834359                0.07037773               14.10196472                0.19404501
               7.82645471                8.91869456               15.05705157                0.01867775               -2.06858602                0.64049374                0.23530141               -0.33522604               14.59231068                0.42724017
               8.80638225                8.87295283               15.11068446                0.35230637               -1.03498039               -0.12362798                0.43377469               -0.45686890                7.49565562                0.90905397
               9.80575510                8.83656063               15.01751110                0.88319819                0.01339412                0.01058235               -0.05167967               -0.01213775                0.06391136                0.37087132
              10.80665013                8.80080204               14.92237310                0.97344559                0.08950356                0.17427253               -0.54832947               -0.01962691               -0.02629793               -0.47749668
               0.95846986               10.21034687               15.05212369                1.00000000                0.02823589               -0.06470159                0.12561665                0.04573421                0.36930180                0.54978964
               1.95875222               10.16315925               14.94361187                0.84050972                0.08879398                0.07238553               -0.30259687                0.06469279                0.68234681               -0.36430494
               2.96024574               10.11546271               14.84136506                0.51768553               -0.87894680                0.20182700               -0.71753243                0.98866421                8.32687633               -0.81078889
               3.94117328               10.08584559               14.88584483                0.36112359               -1.77661956                0.87559277               -0.48643963                0.79049067               15.25094471               -0.23678203
               4.92471335               10.04890043               14.92764568                0.35458366               -1.65259774                0.79528577               -0.29728893                0.30085499               14.96981833               -0.07227548
               5.90812133               10.01045812               14.97062205                0.37536665               -1.72623065                0.79330846               -0.10406288                0.19445460               15.02728537                0.04670132
               6.89018873                9.97003544               15.01721677                0.42091313               -1.93005785                0.76791809                0.09574180                0.07442040               15.33876448                0.15004724
               7.86952017                9.92707700               15.06997666                0.51501695               -2.39761060                0.83824398                0.31029777               -0.61567510               15.98332243                0.28547183
               8.84223652                9.87159101               15.13321961                0.69095347               -1.43149153               -0.13618241                0.55265735               -0.94615440                8.57208954                0.56417673
               9.84089034                9.83644537               15.04240472                0.97676541               -0.04294788               -0.01152606                0.08196403                0.05176652                0.54846926                0.31850382
              10.84137757                9.80235586               14.94507749                0.98754627                0.04872256                0.15538198               -0.42543820                0.06379211                0.23285924               -0.37678790
               0.47760696                0.26371996               16.25404403                1.00000000               -0.36622754               -0.40071857                1.39896317               -0.07288203               -0.65717619                0.69577377
               1.47394468                0.19892611               16.19432098                1.00000000               -0.30242999               -0.31883584                1.11981228               -0.05821779               -0.82413947                0.04135983
               2.47155836                0.13393185               16.13118055                1.00000000               -0.16185372               -0.23836106                0.82439033               -0.04132475               -0.76072579               -0.19450458
               3.47070761                0.07007013               16.07267549                0.62066356                0.31934113               -0.18491812                0.54349888                0.48112444                0.22159565               -0.52430722
               4.47794518                0.01835938               16.02917185                0.69467819                0.47440980               -0.07740655                0.24675194               -0.04509341                0.79749922                0.09909655
               5.48019580               -0.02466133               15.98218580                0.77407121                0.14994266                0.01818240               -0.06539701                0.00776803                0.41949993                0.05730729
               6.48094403               -0.06639037               15.93126864                0.75778669                0.04261841                0.10592217               -0.37899800                0.01000127                0.23757066               -0.03724352
               7.48104817               -0.10953598               15.88065371                0.85544654                0.04617674                0.20342460               -0.70222898                0.04894042                0.01245453                0.04241214
               8.48186757               -0.15664919               15.82512770                1.00000000                0.18437348                0.31375205               -1.01700583                0.03591384               -0.37607332                0.38891013
               9.48473564               -0.20636268               15.76668480                1.00000000                0.35551519                0.38377960               -1.32205579               -0.04898874               -0.50732630                0.01597723
              10.48897787               -0.25631137               15.70861951                1.00000000                0.42422309                0.46578681               -1.61251405               -0.07399053               -0.49482859               -0.51559620
               0.54167199                1.25971278               16.23174218                1.00000000               -0.34154300               -0.37943717                1.27091253               -0.03218804               -0.08330310                0.94819925
               1.53825656                1.19573775               16.17161458                1.00000000               -0.30494453               -0.29620490                0.99167428               -0.01438670               -0.04252858                0.06140308
               2.53557310                1.13154824               16.11224527                0.79868604               -0.24757363               -0.21575114                0.70713812                0.02471849                0.18103057               -0.54195722
               3.53330509                1.06822095               16.05655497                0.12359328               -0.53565604               -0.17567061                0.42545474                0.67982148                1.58246369               -0.90380141
               4.52485998                1.01758531               16.02523359                0.27149451               -0.53283639                0.07208436                0.19681549                0.00865082                2.25775149                0.84835945
               5.52264836                0.97552049               15.98364471                0.35691145               -0.06893061                0.08719970               -0.08373919                0.25429800                1.50917565                0.32933178
               6.52348137                0.93466885               15.93755428                0.25786848                0.20093121                0.02115719               -0.37172927                0.26774583                1.36795072               -0.37438649
               7.52666698                0.89249827               15.89334304                0.41539078                0.35793472                0.20330761               -0.65067269                0.36287646                1.32146622                0.57437609
               8.53064006                0.84648833               15.84666863                1.00000000                0.37049297                0.29174058               -0.92499331                0.15394134                0.67417941                0.54228547
               9.53407684                0.79747511               15.78977898                1.00000000                0.37732959                0.36945884               -1.21213659               -0.00072680                0.09858024                0.08162447
              10.53818665                0.74834650               15.73168751                1.00000000                0.41098092                0.44142872               -1.50185611               -0.02789325                0.03344281               -0.61104323
               0.60491325                2.25613122               16.21439208                1.00000000               -0.30917631               -0.34387947                1.16014230               -0.02563549                0.03155838                1.21718957
               1.60182148                2.19300201               16.14924557                1.00000000               -0.26718596               -0.25790924                0.86681322               -0.00083429                0.14493135                0.03977545
               2.59956953                2.12961683               16.08632777                0.42350577               -0.17772609               -0.18230638                0.58250650                0.05143313                0.72905365               -1.17036139
               3.59826696                2.06655672               16.03283829                0.00010000               -1.43754362               -0.16155561                0.28983882                0.97094662                4.04116674               -1.66451240
               4.57081866                2.01980107               16.03616866                0.00010000               -1.50343675                0.22182836                0.20218010                1.89475490                4.30862082               -1.13432123
               5.56819823                1.97708266               15.99050293                0.00010000               -0.07487440               -0.01020138               -0.08634723                1.64453333                1.48306368               -0.47325929
               6.56932117                1.93403277               15.93710371                0.00010000                0.41439950               -0.14319569               -0.36242436                1.47865191                2.73989600                0.13155244
               7.57648622                1.89453018               15.91671207                0.00010000                0.53241924               -0.09277889               -0.59803965                1.03815343                3.09201400                0.56009394
               8.57996955                1.84918562               15.87137014                0.45199665                0.31883593                0.28240755               -0.81384274                0.26463095                1.25691512                1.03571146
               9.58286294                1.80102649               15.81428386                1.00000000                0.33538407                0.35498515               -1.09610812                0.04484182                0.45662983                0.45319358
              10.58667723                1.75251720               15.75295991                1.00000000                0.38142978                0.39685977               -1.40288084               -0.01374906                0.24140825               -0.62215950
               0.66741770                3.25283519               16.19735239                1.00000000               -0.26634296               -0.31894639                1.04838939               -0.02031197                0.03648471                1.21378971
               1.66475427                3.19057957               16.12603934                1.00000000               -0.21853204               -0.22562946                0.73870733                0.00125358                0.04234108               -0.02935744
               2.66304706                3.12790211               16.05479773                0.22417632               -0.11072425               -0.13934968                0.43219133                0.01500185                0.94398052               -1.38760951
               3.66253978                3.06498984               16.00148416                0.00010000               -0.54089597               -0.08638983                0.13597978                1.04222550                4.07571875               -2.07423372
               4.65222914                3.02202188               15.99289443                0.00010000               -1.06162295                0.15274937                0.01000515                2.68208992                5.83789362               -2.64976754
               5.64130732                2.97531646               15.97597298                0.00010000               -0.83111244                0.01205858               -0.13139780                2.29413107                5.06111475               -1.20584303
               6.63560689                2.93180493               15.95319381                0.00010000               -0.45150604               -0.05863710               -0.30224739                2.03457849                4.66100176                0.49305509
               7.63227720                2.89064269               15.92927052                0.00010000               -0.30852615               -0.15233035               -0.47826044                1.50786834                4.43682786                0.49339399
               8.62943636                2.85213648               15.90283513                0.25314522               -0.03175524                0.27892752               -0.67100619                0.61828888                2.68433458                1.90580310
               9.63164210                2.80457481               15.84487128                1.00000000                0.27469420                0.32359302               -0.94641375                0.05796664                0.55496975                0.70632245
              10.63493025                2.75628369               15.77585304                1.00000000                0.32881515                0.36874925               -1.29162359               -0.02368037                0.00066565               -0.46611418
               0.72901825                4.24975229               16.17981491                1.00000000               -0.22386192               -0.29475709                0.93008936               -0.02259657                0.03407906                1.14481590
               1.72677963                4.18848942               16.10222767                0.99234386               -0.17794782               -0.18687332                0.60277003               -0.00090012                0.03205098               -0.07326391
               2.72545929                4.12682983               16.02454875                0.12433726               -0.08939635               -0.07912670                0.28084996                0.00316325                1.16604525               -1.22219067
               3.72499171                4.06482892               15.96963326                0.00010000               -0.56627321                0.21969737               -0.10423974                0.79217534                5.27275740               -1.10998612
               4.71413383                4.02285605               15.97376848                0.00010000               -1.03469547                0.14912145               -0.13578703                1.61397200                7.69213970               -1.03800561
               5.70429780                3.97732383               15.96881668                0.00010000               -0.97236618                0.22805552               -0.17328687                1.48162664                6.98943712               -0.58056134
               6.69468651                3.93286003               15.96060829                0.00010000               -0.89928788                0.18758814               -0.25496508                1.39282667                6.70169065                0.15939928
               7.68631204                3.89148357               15.95152140                0.00010000               -0.81416492                0.15649984               -0.35857925                1.35739577                6.71108368                1.02159743
               8.67840321                3.85476417               15.94499263                0.24328502               -0.32184904                0.20931129               -0.47081721                0.63734391                3.57475071                2.16281148
               9.67987506                3.80749835               15.87449517                1.00000000                0.21913309                0.26062047               -0.79512560                0.03471782                0.18883723                0.64268552
              10.68278587                3.75989219               15.80022799                1.00000000                0.29108131                0.34900323               -1.16943097               -0.02070691               -0.00079898               -0.38091964
               0.78949150                5.24694005               16.16129299                1.00000000               -0.18327812               -0.26188656                0.80270419               -0.02542398                0.10163472                1.04238493
               1.78765872                5.18684210               16.07811011                0.79923951               -0.13603411               -0.14092461                0.45872373               -0.00545542                0.17510332               -0.19989630
               2.78677082                5.12631958               15.99635776                0.07337275               -0.26508267               -0.02314821                0.12716005                0.19728920                2.42731092               -1.31645731
               3.78235707                5.06938378               15.95818926                0.00010000               -0.73785771                0.48538989               -0.48151381                0.61954135                6.79783719                0.10942359
               4.77201367                5.02500431               15.96311087                0.00010000               -1.07105941                0.28143352               -0.23390430                1.20665275                8.77552107               -0.40619076
               5.76093588                4.97987757               15.96688301                0.00010000               -1.13549926                0.30616930               -0.19378251                1.06835999                8.58824129               -0.17472233
               6.74930368                4.93555670               15.97030690                0.00010000               -1.17074536                0.30934451               -0.20170687                1.01882672                8.51701016                0.34945526
               7.73752097                4.89377269               15.97475445                0.00010000               -1.15676113                0.24556438               -0.23423135                1.06101410                8.60166447                1.04899961
               8.72616846                4.85632271               15.98179626                0.25273872               -0.51562689                0.11450907               -0.27579793                0.51699235                4.39957160                1.78821743
               9.72720844                4.80978722               15.90387198                0.91398238                0.17799893                0.20368680               -0.65619173                0.01925280                0.09427690                0.62394046
              10.72972844                4.76326376               15.82479640                1.00000000                0.25200022                0.32269480               -1.04540089               -0.02045233                0.03702093               -0.38803891
               0.84870566                6.24451456               16.14159191                1.00000000               -0.14146723               -0.21971363                0.66805723               -0.02696632                0.06862278                0.93134777
               1.84729099                6.18567093               16.05174138                0.67448992               -0.09211350               -0.09294129                0.30580403               -0.00804716                0.18924532               -0.37627915
               2.84686339                6.12636687               15.96426114                0.05110830               -0.42965953                0.03176293               -0.04402351                0.38991600                4.05446155               -1.64208803
               3.83869780                6.07453672               15.95168830                0.00010000               -0.95451477                0.45818001               -0.40582976                0.77648254                8.63949188               -0.13387893
               4.82777310                6.02848472               15.95653767                0.00010000               -1.17925965                0.40564812               -0.28000199                0.99193161                9.72080983               -0.20459223
               5.81511261                5.98344722               15.96772696                0.00010000               -1.33025873                0.42316070               -0.18751254                0.87621369               10.03826830                0.01951884
               6.80116792                5.93904692               15.98140856                0.00010000               -1.41731488                0.39667591               -0.13858312                0.75092550               10.15966357                0.44775264
               7.78676631                5.89639486               15.99751661                0.00010000               -1.42197015                0.27160711               -0.11046219                0.74235361               10.31537482                1.00838422
               8.77272852                5.85705435               16.01661588                0.26925397               -0.67236240                0.03948992               -0.09493638                0.34497838                5.23818463                1.64239010
               9.77331906                5.81157209               15.93318243                0.84262872                0.13476179                0.15621177               -0.50439826                0.00756862                0.07615047                0.57807994
              10.77542376                5.76634608               15.84900717                1.00000000                0.21046944                0.29150784               -0.92702500               -0.02009827                0.04216088               -0.45264146
               0.90663944                7.24254577               16.12071404                1.00000000               -0.09939674               -0.17310346                0.52988109               -0.02637572                0.03156660                0.84758545
               1.90564547                7.18498327               16.02408711                0.60740596               -0.04680428               -0.04532644                0.15200575               -0.00751489                0.14299105               -0.46490058
               2.90570335                7.12695484               15.92965261                0.04459110               -0.49383023                0.08381484               -0.21980950                0.49891215                5.23522516               -1.83884355
               3.89576887                7.07854738               15.93486526                0.00010000               -1.13807751                0.40783286               -0.36161214                0.97082363               10.61074989               -0.79655397
               4.88294180                7.03311727               15.94955041                0.00010000               -1.39354529                0.53071375               -0.26689368                0.95174869               11.21148628               -0.27476245
               5.86789796                6.98834079               15.96924017                0.00010000               -1.57836251                0.57516247               -0.16145189                0.73441723               11.51074344                0.06174399
               6.85137455                6.94349021               15.99270931                0.00010000               -1.67686745                0.51380526               -0.06946625                0.49350335               11.73494694                0.44941123
               7.83436061                6.89920483               16.01974122                0.00010000               -1.67418782                0.30900628                0.01050020                0.36639379               11.96948142                0.94364647
               8.81789080                6.85711250               16.05056071                0.29110230               -0.81462675               -0.02443989                0.08206016                0.12658779                6.05752485                1.55939104
               9.81806808                6.81291146               15.96163389                0.80829321                0.09438427                0.11086477               -0.36079504                0.00048467                0.04834043                0.50221380
              10.81977848                6.76909391               15.87219809                1.00000000                0.17104047                0.25730103               -0.80816789               -0.01884642                0.02771020               -0.53079031
               0.96330315                8.24105249               16.09921716                1.00000000               -0.05715174               -0.12652097                0.39156388               -0.02527211                0.01409755                0.81180009
               1.96273163                8.18476440               15.99595434                0.59105903               -0.00128108                0.00140181               -0.00053446               -0.00497093                0.06849462               -0.49959333
               2.96327753                8.12804317               15.89375283                0.04317887               -0.53898958                0.13203029               -0.39437407                0.58950607                6.26021823               -1.83767284
               3.95195184                8.08269338               15.91434829                0.00010000               -1.31314274                0.48114683               -0.38971908                1.07443014               12.58250361               -0.86209947
               4.93701467                8.03909900               15.94091523                0.00010000               -1.62619149                0.69087796               -0.25873076                0.88046718               12.86742782               -0.30987144
               5.91942801                7.99495047               15.97021279                0.00010000               -1.84203631                0.73542146               -0.13012664                0.57495214               13.02659559                0.04508927
               6.90017395                7.94932302               16.00322457                0.00010000               -1.94780564                0.68404640               -0.00269788                0.22989903               13.27922658                0.36860324
               7.88047190                7.90257498               16.04084627                0.00525804               -1.93101481                0.41217163                0.12442647               -0.09631749               13.62017754                0.78500679
               8.86155365                7.85656555               16.08370345                0.31860178               -0.95622749               -0.08029650                0.25250242               -0.15461148                6.89217873                1.42524795
               9.86134735                7.81378938               15.98933452                0.81481737                0.05641349                0.06376928               -0.21825862               -0.00564113                0.02238361                0.46253391
              10.86268192                7.77149211               15.89468590                1.00000000                0.13345723                0.22146475               -0.69139584               -0.01831575                0.01500931               -0.57777286
               1.01871018                9.24001535               16.07753102                1.00000000               -0.01547986               -0.08293827                0.25512916               -0.02415321               -0.00068408                0.68061301
               2.01855538                9.18501131               15.96761738                0.61288686                0.04271614                0.04768114               -0.15131294               -0.00208988                0.07997139               -0.44327212
               3.01956450                9.12959544               15.85930126                0.02668688               -0.61768703                0.17540380               -0.55831967                0.72206215                7.38409339               -1.29846146
               4.00620164                9.08817032               15.89552092                0.00010000               -1.56352213                0.75470168               -0.42767306                0.91230712               14.48169490               -0.51749218
               4.98829406                9.04693483               15.93225026                0.00010000               -1.85143290                0.82723171               -0.26786389                0.61526803               14.39182812               -0.18994436
               5.96917298                9.00304921               15.97033869                0.00010000               -1.99730200                0.83983759               -0.10973257                0.34546519               14.46077006                0.02619095
               6.94834802                8.95717114               16.01199287                0.00010000               -2.19906244                0.81449816                0.05201273                0.03350528               14.74746496                0.21610102
               7.92519173                8.90744826               16.05934623                0.01938388               -2.23819258                0.70609247                0.22218967               -0.41022123               15.26307577                0.45601375
               8.90358416                8.85550657               16.11490273                0.34995357               -1.10815132               -0.11616250                0.40831086               -0.52375583                7.84520909                0.95851627
               9.90302870                8.81418684               16.01686543                0.86570405                0.02112796                0.01854663               -0.07865065               -0.01413338                0.06887381                0.39495658
              10.90400672                8.77352321               15.91674402                0.97498901                0.09780206                0.18451909               -0.57812018               -0.01850744               -0.02678311               -0.49701449
               1.07282817               10.23939373               16.05334370                1.00000000                0.02815736               -0.06216278                0.11870817                0.04422941                0.37271798                0.55803206
               2.07310974               10.18571802               15.94062697                0.83860180                0.08657937                0.07067141               -0.29563752                0.06331262                0.69268023               -0.37735506
               3.07455976               10.13155124               15.83430776                0.51675557               -1.01255757                0.19557999               -0.69673835                1.10299534                8.66032646               -0.83111538
               4.05285859               10.09778741               15.88101953                0.36178023               -2.00593099                0.96170891               -0.48025720                0.87031525               15.91293888               -0.21914097
               5.03444114               10.05564363               15.92468216                0.35482199               -1.83787962                0.87088021               -0.29702947                0.31269870               15.63745076               -0.06253947
               6.01610100               10.01174722               15.96957481                0.37522098               -1.89980684                0.86980033               -0.10688544                0.19126997               15.71647173                0.05565761
               6.99644500                9.96561299               16.01814342                0.42049232               -2.10844805                0.84418433                0.08805463                0.05717933               16.04931497                0.15950744
               7.97393204                9.91669683               16.07300561                0.51568376               -2.60525251                0.92485680                0.29389125               -0.69450298               16.72124604                0.29899603
               8.94433995                9.85424230               16.13859678                0.69013369               -1.54419976               -0.12642700                0.52111567               -1.05124700                8.97525551                0.59354134
               9.94304804                9.81416032               16.04306633                0.96697929               -0.03504551               -0.00265281                0.04894591                0.04894333                0.58042303                0.33772061
              10.94363904                9.77518249               15.94064366                0.98739533                0.05909966                0.16592779               -0.46212665                0.06544886                0.24647933               -0.39421168
               0.53203590                0.29373631               17.26796090                1.00000000               -0.36228042               -0.39602153                1.38452359               -0.07245367               -0.68015718                0.71853806
               1.52841310                0.22270740               17.20546469                1.00000000               -0.29913148               -0.31580614                1.10903703               -0.05826966               -0.85460846                0.04499932
               2.52605327                0.15149090               17.13939969                1.00000000               -0.16046801               -0.23690045                0.81914536               -0.04077672               -0.79169563               -0.19853246
               3.52520374                0.08142256               17.07810702                0.62009081                0.31853904               -0.18487331                0.54252779                0.48713802                0.18881450               -0.54533529
               4.53242405                0.02361399               17.03164774                0.69787519                0.47005955               -0.07256507                0.24696151               -0.05223455                0.74404264                0.11323953
               5.53460493               -0.02541597               16.98154443                0.77933453                0.14660546                0.02016849               -0.06384280                0.00639071                0.35924279                0.06441629
               6.53535616               -0.07310676               16.92751600                0.76210418                0.04590160                0.10565929               -0.37206499                0.00971254                0.17456124               -0.04178134
               7.53552296               -0.12203947               16.87369769                0.85887904                0.05120582                0.20153478               -0.68942818                0.04535579               -0.04978205                0.04660549
               8.53638028               -0.17470433               16.81504317                1.00000000                0.18435720                0.30911633               -1.00020508                0.03229436               -0.42839106                0.40017479
               9.53921011               -0.22985343               16.75356416                1.00000000                0.35047682                0.37898254               -1.30220753               -0.04795499               -0.54677846                0.01456302
              10.54338982               -0.28524236               16.69261146                1.00000000                0.41797109                0.46028269               -1.58913841               -0.07192317               -0.52662631               -0.54657118
               0.60234027                1.28977609               17.24438736                1.00000000               -0.33871642               -0.37431612                1.25847141               -0.03225471               -0.08754425                0.97895764
               1.59895310                1.21954934               17.18148313                1.00000000               -0.30261701               -0.29308967                0.98241513               -0.01480876               -0.04935406                0.06634688
               2.59628793                1.14912190               17.11928893                0.80264390               -0.24697661               -0.21444859                0.70215750                0.02516379                0.17366564               -0.55060130
               3.59401357                1.07957383               17.06081222                0.12946080               -0.54834778               -0.17534734                0.42872675                0.68947044                1.60220683               -0.93608814
               4.58532097                1.02288834               17.02720370                0.28241989               -0.54921793                0.06688774                0.19752068               -0.02360728                2.28743846                0.88677390
               5.58302921                0.97478571               16.98281106                0.37101137               -0.07779665                0.08678847               -0.08325089                0.23375896                1.51346870                0.34380870
               6.58376504                0.92794983               16.93385832                0.26972938                0.18730443                0.02865237               -0.36793613                0.25524209                1.37465000               -0.37803760
               7.58677530                0.87997588               16.88688008                0.42560538                0.34225820                0.19914632               -0.64254246                0.34026552                1.33437976                0.57889487
               8.59061020                0.82838684               16.83747344                1.00000000                0.36121344                0.28809098               -0.91455959                0.14641468                0.68198012                0.56303520
               9.59399957                0.77393639               16.77772723                1.00000000                0.37246522                0.36561625               -1.19863434               -0.00025745                0.09906188                0.08331781
              10.59805951                0.71936047               16.71675559                1.00000000                0.40599371                0.43779415               -1.48486631               -0.02646132                0.03292932               -0.64776126
               0.67184431                2.28624998               17.22593258                1.00000000               -0.30731884               -0.33838326                1.14871329               -0.02455470                0.03233304                1.25492988
               1.66877112                2.21684561               17.15787076                1.00000000               -0.26561201               -0.25488182                0.85877135                0.00077072                0.14909546                0.04437152
               2.66653207                2.14720193               17.09211535                0.43699231               -0.17722084               -0.18197351                0.57458840                0.05537192                0.73304429               -1.19476158
               3.66522670                2.07791561               17.03571011                0.00010000               -1.48960233               -0.16374996                0.28481151                0.97813431                4.14254599               -1.71649547
               4.63674002                2.02495175               17.03813862                0.00010000               -1.55040406                0.20627131                0.19291211                1.90340197                4.45129648               -1.16209422
               5.63421862                1.97631980               16.98962601                0.00010000               -0.07345872               -0.02722711               -0.09036417                1.64595881                1.53148233               -0.46966928
               6.63527084                1.92746629               16.93348051                0.00010000                0.38363241               -0.15038405               -0.36248405                1.45587493                2.81280416                0.15479061
               7.64189127                1.88194345               16.91074435                0.00010000                0.50386062               -0.10082066               -0.59636413                1.01764461                3.18849579                0.60205031
               8.64534806                1.83105749               16.86325375                0.45891920                0.31700283                0.27956346               -0.81020797                0.25592989                1.32637346                1.08228753
               9.64823132                1.77745889               16.80336136                1.00000000                0.33321887                0.35229286               -1.08916807                0.04389450                0.48125082                0.47522693
              10.65201243                1.72351353               16.73898494                1.00000000                0.37811104                0.39711296               -1.39271036               -0.01274024                0.25393401               -0.65736164
               0.74065792                3.28300843               17.20777757                1.00000000               -0.26413491               -0.31396553                1.03737248               -0.01788917                0.03947000                1.24636884
               1.73801657                3.21445171               17.13339142                1.00000000               -0.21662784               -0.22354490                0.73213489                0.00437801                0.04678438               -0.03038124
               2.73632536                3.14548243               17.05910975                0.23743205               -0.10950668               -0.14063428                0.43079402                0.01899670                0.95432718               -1.42267109
               3.73582644                3.07629883               17.00284233                0.00010000               -0.56702702               -0.10493197                0.13634854                1.05442172                4.18455265               -2.18006635
               4.72498482                3.02701377               16.99300197                0.00010000               -1.11962938                0.13533919                0.01491371                2.71801847                6.02118830               -2.75128494
               5.71343385                2.97424117               16.97466602                0.00010000               -0.88629702               -0.00676276               -0.13049977                2.31048669                5.23321778               -1.21877685
               6.70725888                2.92494215               16.95018088                0.00010000               -0.49484315               -0.08069373               -0.30145238                2.02881684                4.82279570                0.54096247
               7.70353699                2.87795946               16.92449621                0.00010000               -0.35227601               -0.16028910               -0.47769703                1.50984306                4.59151724                0.57229396
               8.70021336                2.83397811               16.89611859                0.25287629               -0.05577797                0.27192793               -0.67344247                0.61038613                2.79546992                1.99706631
               9.70242143                2.78098225               16.83542137                1.00000000                0.27410356                0.32086568               -0.94526010                0.05576720                0.59242346                0.74709135
              10.70569544                2.72730273               16.76296834                1.00000000                0.32740061                0.37099220               -1.28707536               -0.02288108                0.00379322               -0.48639225
               0.80859996                4.27997067               17.18905446                1.00000000               -0.22152857               -0.28998152                0.91854694               -0.02107843                0.03862161                1.16843402
               1.80638468                4.21237471               17.10823452                0.98089749               -0.17675416               -0.18581469                0.59908614                0.00082288                0.03970004               -0.08377854
               2.80506488                4.14438924               17.02739128                0.13406936               -0.08004422               -0.08130979                0.28720800               -0.00726659                1.14609849               -1.26330329
               3.80478379                4.07581697               16.96869605                0.00010000               -0.59534184                0.18006527               -0.08808334                0.80880792                5.38555890               -1.32218647
               4.79315804                4.02765853               16.97242978                0.00010000               -1.11419105                0.14074284               -0.12850772                1.62973379                7.98271637               -1.09827575
               5.78249997                3.97618454               16.96709669                0.00010000               -1.05145751                0.22703913               -0.17144762                1.49099805                7.27050368               -0.58600121
               6.77212889                3.92585241               16.95806579                0.00010000               -0.97238982                0.18253550               -0.25464007                1.38614181                6.96085379                0.20254753
               7.76305217                3.87873767               16.94793201                0.00010000               -0.87979497                0.15371431               -0.36061330                1.34211601                6.96330493                1.10138572
               8.75453299                3.83649605               16.94025998                0.24114192               -0.35150644                0.19950991               -0.47816636                0.62644725                3.72762861                2.27904519
               9.75602205                3.78387621               16.86655380                1.00000000                0.21904305                0.25725300               -0.79349702                0.03339228                0.21461962                0.67778065
              10.75891385                3.73093337               16.78855796                1.00000000                0.28918079                0.35036601               -1.16218267               -0.02080926               -0.00083931               -0.39263087
               0.87542827                5.27720879               17.16926050                1.00000000               -0.18138162               -0.25629377                0.79122284               -0.02456955                0.10487106                1.05670058
               1.87361446                5.21073541               17.08266530                0.79026400               -0.13452513               -0.14028807                0.45303165               -0.00380539                0.18419621               -0.21970381
               2.87273777                5.14385623               16.99761697                0.08137143               -0.24405752               -0.02614530                0.12614074                0.16729664                2.29990040               -1.36859313
               3.86873331                5.07990013               16.95331710                0.00010000               -0.77629221                0.47222132               -0.47465778                0.60337230                6.95840933                0.03786767
               4.85721193                5.02982863               16.96075188                0.00010000               -1.18366882                0.29094917               -0.23632366                1.23096201                9.27299736               -0.42614891
               5.84505993                4.97878196               16.96494226                0.00010000               -1.23916680                0.31875239               -0.19487932                1.06447846                8.96937364               -0.16015558
               6.83242859                4.92859286               16.96828803                0.00010000               -1.26621315                0.32006457               -0.20313349                1.00029382                8.87142131                0.39766462
               7.81973567                4.88103375               16.97239590                0.00010000               -1.24124085                0.25027548               -0.23881446                1.03528640                8.94899400                1.12891229
               8.80760378                4.83796830               16.97900050                0.25010285               -0.55418561                0.10866487               -0.28589314                0.49764923                4.58566387                1.89358011
               9.80865196                4.78612731               16.89729276                0.89679448                0.17805724                0.20183660               -0.65721200                0.01606367                0.10881251                0.65775257
              10.81116492                4.73431005               16.81434229                1.00000000                0.25129636                0.32511359               -1.04267872               -0.02048417                0.04633004               -0.40335549
               0.94105534                6.27484480               17.14821325                1.00000000               -0.13942048               -0.21378737                0.65655615               -0.02563024                0.06922823                0.93919800
               1.93966113                6.20956895               17.05477518                0.66773806               -0.09046229               -0.09281430                0.30104827               -0.00508388                0.19623896               -0.39964964
               2.93924609                6.14386634               16.96383644                0.05764852               -0.43911454                0.02697627               -0.04160089                0.37540345                4.04195317               -1.70039802
               3.93087884                6.08526140               16.94729131                0.00010000               -1.01753164                0.48772090               -0.46797102                0.73991244                8.89612389                0.00227535
               4.91889546                6.03347752               16.95365680                0.00010000               -1.29267687                0.43039527               -0.29427206                0.99972300               10.22766635               -0.17118344
               5.90502530                5.98255959               16.96582713                0.00010000               -1.45062419                0.45113042               -0.19278939                0.86124276               10.50179293                0.05522909
               6.88988297                5.93225370               16.98000870                0.00010000               -1.53214224                0.42015564               -0.14240841                0.71811574               10.59800765                0.50153193
               7.87438246                5.88374318               16.99638282                0.00010000               -1.52452796                0.28460427               -0.11764338                0.69990780               10.74610662                1.08451991
               8.85939242                5.83866935               17.01560249                0.26663001               -0.71904428                0.03848122               -0.10865336                0.31622898                5.46168333                1.73819960
               9.86000157                5.78791294               16.92807949                0.82724525                0.13731371                0.15896705               -0.51773918                0.00444994                0.08287043                0.61518843
              10.86213869                5.73743564               16.83968234                1.00000000                0.21371159                0.29802352               -0.93962430               -0.01926808                0.04276994               -0.47095268
               1.00546736                7.27293305               17.12595766                1.00000000               -0.09761234               -0.16802173                0.51908544               -0.02507713                0.03127286                0.85325241
               2.00449124                7.20887913               17.02559553                0.60213558               -0.04569853               -0.04563616                0.14941827               -0.00473170                0.14586361               -0.48734000
               3.00455339                7.14439576               16.92748911                0.04934625               -0.52854307                0.07782203               -0.21381404                0.50851864                5.34113256               -1.89746856
               3.99392038                7.08965455               16.93102420                0.00010000               -1.23225991                0.44478194               -0.40903501                0.97076490               10.97519928               -0.69550912
               4.97990820                7.03843653               16.94678178                0.00010000               -1.52058902                0.57113269               -0.28694671                0.95683016               11.72480598               -0.21070219
               5.96350860                6.98780456               16.96758966                0.00010000               -1.71504387                0.61848477               -0.16921743                0.71318736               12.02639141                0.10953615
               6.94560732                6.93699597               16.99198970                0.00010000               -1.80952097                0.55096873               -0.07552297                0.44700292               12.24496550                0.50282223
               7.92731818                6.88672583               17.01980212                0.00010000               -1.79243592                0.33095333                0.00040549                0.30527144               12.47853538                1.01297367
               8.90975860                6.83873793               17.05129296                0.28862810               -0.86717579               -0.02214192                0.06314751                0.08918490                6.31700950                1.65052760
               9.90997466                6.78930665               16.95793276                0.79377803                0.09877753                0.11699609               -0.38035408               -0.00107280                0.05119142                0.53694220
              10.91173415                6.74027052               16.86402160                1.00000000                0.17594864                0.26666903               -0.82786279               -0.01803029                0.02884155               -0.54761268
               1.06866164                8.27148436               17.10308362                1.00000000               -0.05578488               -0.12267206                0.38190545               -0.02425686                0.01352140                0.81822867
               2.06810379                8.20865623               16.99595057                0.58675414               -0.00102993                0.00090964               -0.00075297               -0.00302114                0.06735634               -0.52003629
               3.06864104                8.14542278               16.88986566                0.04579885               -0.59252130                0.12622680               -0.38449574                0.62140108                6.44705757               -1.88890442
               4.05625336                8.09415704               16.91034060                0.00010000               -1.43794959                0.52070182               -0.41462155                1.11145764               13.05158864               -0.80244723
               5.03988205                8.04490017               16.93826667                0.00010000               -1.77618775                0.74726125               -0.27230285                0.89469528               13.42211573               -0.25612446
               6.02072961                7.99492929               16.96887812                0.00010000               -1.99901425                0.79411356               -0.13782795                0.55406914               13.59091967                0.08805423
               6.99990176                7.94327308               17.00316506                0.00010000               -2.09918372                0.73817308               -0.01041305                0.17606849               13.85366670                0.41188821
               7.97874593                7.89036225               17.04203190                0.00551202               -2.06532331                0.44648298                0.11130859               -0.17791913               14.20538568                0.84062147
               8.95859530                7.83822651               17.08611699                0.31622855               -1.01492035               -0.07540447                0.22881785               -0.20503771                7.19122364                1.50645928
               9.95844753                7.79025286               16.98703622                0.79969291                0.06275243                0.07106501               -0.24236316               -0.00704344                0.02391272                0.49617593
              10.95985035                7.74276902               16.88764886                1.00000000                0.14028181                0.23167349               -0.71656891               -0.01722630                0.01567949               -0.59636150
               1.13063850                9.27047961               17.08004032                1.00000000               -0.01460958               -0.08011011                0.24682229               -0.02342719               -0.00210728                0.68805335
               2.13049240                9.20889732               16.96612006                0.60860428                0.04210535                0.04683713               -0.14897403               -0.00106696                0.07871379               -0.45919802
               3.13148060                9.14692029               16.85379648                0.02641345               -0.69101305                0.17023218               -0.54452560                0.77949715                7.64429367               -1.33089508
               4.11667214                9.10006859               16.89122336                0.00010000               -1.72253767                0.81542555               -0.43381478                0.96328795               15.04254610               -0.47481690
               5.09702985                9.05338176               16.92954734                0.00010000               -2.02275340                0.89428337               -0.27420449                0.63216393               14.99163057               -0.16055617
               6.07621707                9.00368683               16.96921622                0.00010000               -2.16670621                0.90848694               -0.11606601                0.33187868               15.07825124                0.05027678
               7.05369573                8.95175944               17.01247451                0.00010000               -2.37053540                0.88257092                0.04294656               -0.00944349               15.38437931                0.23965811
               8.02880636                8.89565549               17.06149536                0.02021314               -2.39642463                0.76879589                0.20617046               -0.48918982               15.92366052                0.48746170
               9.00576723                8.83722984               17.11885067                0.34746388               -1.17575403               -0.10763837                0.37968190               -0.59209611                8.19046147                1.01143905
              10.00529128                8.79072795               17.01593809                0.84768433                0.02950319                0.02725666               -0.10792277               -0.01607285                0.07469632                0.42119466
              11.00635730                8.74490399               16.91081070                0.97639314                0.10660140                0.19516644               -0.60904101               -0.01728869               -0.02700505               -0.51605415
               1.19135767               10.26988216               17.05449786                1.00000000                0.02840943               -0.05974457                0.11204273                0.04299823                0.37614121                0.56556232
               2.19164176               10.20959297               16.93769912                0.83692091                0.08510225                0.06956515               -0.29100792                0.06219939                0.70307936               -0.38956093
               3.19305972               10.14882742               16.82743030                0.51603660               -1.12920534                0.19071301               -0.68083607                1.20154002                8.98072060               -0.85005327
               4.16905766               10.11046555               16.87623969                0.36238988               -2.20763186                1.03969626               -0.47729123                0.93647248               16.55426232               -0.19460548
               5.14890708               10.06278584               16.92170509                0.35504933               -2.00340775                0.94040803               -0.29993978                0.31939658               16.29118829               -0.05066563
               6.12898950               10.01309903               16.96848435                0.37506482               -2.05814215                0.94121915               -0.11266988                0.18417603               16.39414923                0.06512892
               7.10774423                9.96092450               17.01897786                0.42002507               -2.27488841                0.91650610                0.07734549                0.03680781               16.74790586                0.16911061
               8.08349173                9.90573817               17.07585448                0.51643147               -2.80316587                1.00826728                0.27441106               -0.77400067               17.44546452                0.31325562
               9.05168092                9.83607374               17.14364192                0.68918142               -1.65199071               -0.11560956                0.48628459               -1.15564034                9.37387371                0.62562347
              10.05045192                9.79079799               17.04338363                0.95676128               -0.02642119                0.00700420                0.01329078                0.04599401                0.61375480                0.35834586
              11.05115249                9.74667235               16.93583496                0.98725333                0.07005732                0.17683615               -0.50010072                0.06695544                0.26040508               -0.41193828
               0.58899623                0.32523780               18.28173450                1.00000000               -0.35825084               -0.39175498                1.37040046               -0.07152472               -0.70264940                0.74115285
               1.58541372                0.24778922               18.21650172                1.00000000               -0.29570560               -0.31305964                1.09863140               -0.05733450               -0.88410587                0.04794579
               2.58308211                0.17018273               18.14756346                1.00000000               -0.15889346               -0.23621687                0.81274102               -0.03828976               -0.82168514               -0.20406579
               3.58223585                0.09375302               18.08352605                0.61980972                0.31532554               -0.18569186                0.53762656                0.48633660                0.15458449               -0.56226064
               4.58938863                0.02951225               18.03411108                0.70111565                0.46382740               -0.06823417                0.24374964               -0.06083624                0.68793384                0.12587693
               5.59151240               -0.02590628               17.98090894                0.78391309                0.14466839                0.02213563               -0.06371018                0.00392772                0.30057515                0.07083406
               6.59228199               -0.07991063               17.92382734                0.76564271                0.05064841                0.10542130               -0.36580186                0.00921757                0.11486935               -0.04619764
               7.59252537               -0.13496864               17.86686514                0.86179974                0.05756398                0.19981466               -0.67729689                0.04162814               -0.11014819                0.05138125
               8.59343327               -0.19350625               17.80512360                1.00000000                0.18532066                0.30446985               -0.98384184                0.02847783               -0.48077174                0.41119975
               9.59623178               -0.25439756               17.74064065                1.00000000                0.34587427                0.37418311               -1.28250109               -0.04682530               -0.58678212                0.01288994
              10.60035076               -0.31553106               17.67683674                1.00000000                0.41189801                0.45488445               -1.56578004               -0.06957401               -0.55882593               -0.57803411
               0.66572956                1.32132025               18.25691161                1.00000000               -0.33616530               -0.36990983                1.24645152               -0.03179710               -0.09139504                1.00901082
               1.66236791                1.24465862               18.19126288                1.00000000               -0.30061228               -0.29040326                0.97419577               -0.01463930               -0.05487863                0.07022261
               2.65971732                1.16782056               18.12628842                0.80269930               -0.24667282               -0.21409782                0.69917329                0.02732134                0.17037603               -0.56243934
               3.65743445                1.09189610               18.06512950                0.13495075               -0.55537035               -0.17781580                0.43762125                0.69340547                1.61872277               -0.96844014
               4.64860991                1.02882991               18.02918400                0.29328582               -0.55856690                0.06243280                0.19780732               -0.05204811                2.30912241                0.91762846
               5.64626312                0.97431508               17.98197970                0.38465058               -0.08522804                0.08702976               -0.08367531                0.21436281                1.51343226                0.35501416
               6.64690535                0.92114358               17.93019555                0.28113535                0.17381692                0.03583241               -0.36522582                0.24456738                1.37976982               -0.38198122
               7.64973945                0.86702951               17.88049219                0.43546475                0.32635801                0.19618421               -0.63570301                0.31762040                1.34600450                0.58299179
               8.65343251                0.80953845               17.82837744                1.00000000                0.35182387                0.28462348               -0.90511264                0.13807552                0.68847649                0.58326977
               9.65677593                0.74934428               17.76580629                1.00000000                0.36780052                0.36172228               -1.18593228                0.00021556                0.09894235                0.08447768
              10.66078852                0.68901779               17.70199019                1.00000000                0.40125889                0.43441372               -1.46853938               -0.02474968                0.03212407               -0.68531803
               0.74168354                2.31783960               18.23736634                1.00000000               -0.30629202               -0.33397863                1.13803422               -0.02335334                0.03361620                1.29054504
               1.73862062                2.24198115               18.16642099                1.00000000               -0.26462402               -0.25252226                0.85272127                0.00255151                0.15233591                0.04740957
               2.73639106                2.16590077               18.09781954                0.45424301               -0.17630082               -0.18239011                0.56656901                0.05904587                0.73470316               -1.21906512
               3.73509461                2.09019670               18.03853452                0.00010000               -1.52311906               -0.17467663                0.28394346                0.98821483                4.22835728               -1.75768197
               4.70592868                2.03076091               18.04002690                0.00010000               -1.58043135                0.19375572                0.18182924                1.89284616                4.58408199               -1.18872948
               5.70348598                1.97583432               17.98869564                0.00010000               -0.07348856               -0.04224162               -0.09756628                1.62873817                1.57534185               -0.46602007
               6.70445891                1.92080602               17.92985403                0.00010000                0.34984607               -0.15523370               -0.36325413                1.42239906                2.88004094                0.17963870
               7.71048290                1.86895505               17.90478479                0.00010000                0.47105521               -0.10642964               -0.59642963                0.99052958                3.28134855                0.64485113
               8.71388002                1.81218622               17.85516598                0.46578314                0.31369266                0.27665593               -0.80819022                0.24349697                1.39461071                1.12852022
               9.71675676                1.75283689               17.79250050                1.00000000                0.33143629                0.34899606               -1.08372234                0.04179355                0.50529872                0.49627286
              10.72050874                1.69315722               17.72510571                1.00000000                0.37519864                0.39825216               -1.38366292               -0.01178498                0.26627651               -0.69405633
               0.81697940                3.31464068               18.21809984                1.00000000               -0.26216268               -0.31007824                1.02732778               -0.01589947                0.04285518                1.27551191
               1.81435777                3.23960818               18.14068204                1.00000000               -0.21483570               -0.22205880                0.72655878                0.00741349                0.05213580               -0.03212445
               2.81268269                3.16417276               18.06341361                0.25093229               -0.10095795               -0.14221082                0.42980154                0.01615308                0.96360217               -1.45275047
               3.81233861                3.08840257               18.00421113                0.00010000               -0.59267346               -0.11431381                0.13663304                1.05510215                4.25345781               -2.23176126
               4.80082922                3.03270502               17.99319270                0.00010000               -1.17729225                0.11898619                0.01820117                2.72632593                6.18552133               -2.84427012
               5.78879277                2.97347025               17.97336298                0.00010000               -0.92983069               -0.02533783               -0.13283129                2.29598801                5.39388974               -1.22590096
               6.78223260                2.91803891               17.94716476                0.00010000               -0.53114652               -0.10010917               -0.30310904                2.00200109                4.97882858                0.59261609
               7.77816984                2.86490092               17.91971658                0.00010000               -0.39059989               -0.16717221               -0.47933786                1.49668533                4.73958746                0.65418285
               8.77442061                2.81507157               17.88936628                0.25263766               -0.07645145                0.26384674               -0.67827978                0.59386257                2.90271532                2.08862133
               9.77664081                2.75632420               17.82596608                1.00000000                0.27457809                0.31728458               -0.94695721                0.05119866                0.62898359                0.78977186
              10.77991217                2.69698283               17.75011153                1.00000000                0.32713574                0.37542051               -1.28548994               -0.02153550                0.00669611               -0.50279863
               0.89143056                4.31163804               18.19818585                1.00000000               -0.21937444               -0.28627050                0.90802237               -0.01980916                0.04541045                1.18857245
               1.88923682                4.23753998               18.11420939                0.96845825               -0.17554122               -0.18504057                0.59563493                0.00234637                0.05055574               -0.09600106
               2.88791974                4.16305655               18.03029291                0.14232403               -0.07862159               -0.08350988                0.29212084               -0.00976067                1.12858935               -1.30474403
               3.88766438                4.08791042               17.96787159                0.00010000               -0.62661072                0.15716577               -0.06527026                0.80679014                5.47562605               -1.48247262
               4.87538752                4.03314063               17.97119833                0.00010000               -1.17962634                0.12746412               -0.12072927                1.62181853                8.25584328               -1.16213297
               5.86407186                3.97532756               17.96538773                0.00010000               -1.11596282                0.22368892               -0.17216827                1.48288202                7.53962602               -0.58918464
               6.85306827                3.91880383               17.95551549                0.00010000               -1.03439560                0.17640860               -0.25664934                1.36649551                7.21296196                0.24963115
               7.84338395                3.86561160               17.94430914                0.00010000               -0.93671393                0.14996055               -0.36518357                1.31389301                7.20642161                1.18451696
               8.83433399                3.81746316               17.93542930                0.23907694               -0.37572376                0.18901166               -0.48890073                0.60676260                3.87664953                2.39767289
               9.83586947                3.75918258               17.85862523                0.99006147                0.22133895                0.25461932               -0.79974611                0.03022802                0.24447760                0.71869958
              10.83876077                3.70066563               17.77698434                1.00000000                0.28912952                0.35447182               -1.16037636               -0.01950516                0.00533692               -0.39887385
               0.96477934                5.30891527               18.17711745                1.00000000               -0.17931580               -0.25183355                0.78028179               -0.02400018                0.10810773                1.06821843
               1.96298619                5.23590736               18.08717074                0.78138082               -0.13311596               -0.13961362                0.44824001               -0.00284693                0.19306684               -0.24192867
               2.96211702                5.16250256               17.99888058                0.08862522               -0.22979222               -0.02848957                0.12725662                0.14525561                2.18172579               -1.42301515
               3.95839034                5.09154588               17.94869611                0.00010000               -0.81342865                0.44823522               -0.43108663                0.59436370                7.10032794               -0.04843030
               4.94584845                5.03525431               17.95838440                0.00010000               -1.28015670                0.29452620               -0.23779596                1.24006160                9.75082288               -0.45385243
               5.93278721                4.97794402               17.96298543                0.00010000               -1.32849891                0.32884183               -0.19695966                1.05187431                9.34385318               -0.14484045
               6.91927847                4.92156708               17.96624423                0.00010000               -1.34994165                0.32860266               -0.20664832                0.97301113                9.21876456                0.44940719
               7.90578837                4.86790013               17.96997816                0.00010000               -1.31467978                0.25337165               -0.24597417                0.99977180                9.28699786                1.21308196
               8.89298488                4.81885180               17.97607839                0.24760496               -0.58727362                0.10313666               -0.29990777                0.47239897                4.77004281                2.00517353
               9.89404290                4.76141658               17.89072774                0.87950869                0.17855477                0.20266370               -0.66123482                0.01238028                0.12762951                0.69199854
              10.89655597                4.70407227               17.80394282                1.00000000                0.25130713                0.32910461               -1.04630915               -0.01879700                0.05874595               -0.42260208
               1.03696637                6.30660137               18.15472303                1.00000000               -0.13737781               -0.20874053                0.64538992               -0.02487608                0.06972692                0.94491613
               2.03559259                6.23474770               18.05776235                0.66127304               -0.08900168               -0.09231389                0.29652942               -0.00347511                0.20319362               -0.42344014
               3.03518633                6.16248676               17.96342912                0.06388845               -0.43963376                0.02368400               -0.03964482                0.35538682                3.99693024               -1.75729117
               4.02679991                6.09687513               17.94232887                0.00010000               -1.06978606                0.50210143               -0.51466825                0.70671167                9.13702222                0.10867451
               5.01379061                6.03903116               17.95065223                0.00010000               -1.40016706                0.45195280               -0.30406819                1.00266361               10.75205551               -0.14330153
               5.99879657                5.98190440               17.96387117                0.00010000               -1.56091121                0.47682442               -0.19849066                0.83876980               10.96272109                0.09196842
               6.98257239                5.92537589               17.97856039                0.00010000               -1.63509568                0.44116100               -0.14810146                0.67787849               11.02998651                0.55852307
               7.96609466                5.87067903               17.99516374                0.00010000               -1.61534384                0.29575463               -0.12740775                0.64948436               11.16845268                1.16507589
               8.95026551                5.81952589               18.01444282                0.26418580               -0.75990213                0.03783768               -0.12481657                0.28361442                5.68015219                1.83951740
               9.95089661                5.76323586               17.92282764                0.81179094                0.14039748                0.16384999               -0.53403092                0.00210936                0.08851523                0.65177815
              10.95307346                5.70724772               17.83021469                1.00000000                0.21768449                0.30514376               -0.95505672               -0.01773094                0.04310645               -0.49273003
               1.10798915                7.30474046               18.13109575                1.00000000               -0.09578628               -0.16334851                0.50846978               -0.02427217                0.03115349                0.85742045
               2.10703129                7.23406109               18.02707547                0.59719759               -0.04459079               -0.04542794                0.14638194               -0.00300474                0.14908656               -0.50919427
               3.10709734                7.16297624               17.92537633                0.05402515               -0.55255526                0.07354714               -0.20931306                0.50845694                5.41579007               -1.95346300
               4.09598018                7.10158791               17.92668456                0.00010000               -1.31124401                0.47850695               -0.45808020                0.95499082               11.31853508               -0.57767709
               5.08087245                7.04429336               17.94381147                0.00010000               -1.63811557                0.60898946               -0.30598410                0.95107301               12.25066830               -0.14504936
               6.06321787                6.98748051               17.96585582                0.00010000               -1.84055242                0.65902970               -0.17764234                0.68241895               12.54184584                0.15931336
               7.04406141                6.93039030               17.99119885                0.00010000               -1.92949077                0.58500409               -0.08354130                0.39279090               12.74878464                0.55920329
               8.02462806                6.87381522               18.01974933                0.00010000               -1.89805307                0.35075686               -0.01223333                0.23756430               12.97850242                1.08614599
               9.00610035                6.81960856               18.05182366                0.28632844               -0.91323975               -0.01944331                0.04177750                0.04933316                6.57147811                1.74548887
              10.00636326                6.76469358               17.95402681                0.77922271                0.10386407                0.12358601               -0.40152906               -0.00181533                0.05372706                0.57555298
              11.00817763                6.71017514               17.85564084                1.00000000                0.18143652                0.27640282               -0.84897905               -0.01700634                0.03030447               -0.56204354
               1.17783966                8.30333440               18.10685527                1.00000000               -0.05429535               -0.11891397                0.37230495               -0.02355495                0.01310337                0.82357595
               2.17729671                8.23383915               17.99593928                0.58284891               -0.00055087                0.00088564               -0.00194069               -0.00172432                0.06665836               -0.53956153
               3.17782865                8.16395771               17.88606292                0.04852302               -0.63570528                0.12183332               -0.37703228                0.64279292                6.61164254               -1.93714185
               4.16458261                8.10644527               17.90605586                0.00010000               -1.54545896                0.55934937               -0.44336228                1.12873757               13.50033801               -0.72167800
               5.14691947                8.05121094               17.93546917                0.00010000               -1.91172966                0.79959599               -0.28745531                0.89505371               13.97805111               -0.19509226
               6.12634801                7.99508499               17.96745623                0.00010000               -2.14129846                0.84840063               -0.14712828                0.52289924               14.15162391                0.13372231
               7.10409350                7.93707597               18.00301631                0.00010000               -2.23601638                0.78806005               -0.02039433                0.11521192               14.42086492                0.45765008
               8.08162768                7.87769417               18.04307244                0.00589861               -2.18598448                0.47798504                0.09542748               -0.26391089               14.78060723                0.89952320
               9.06037381                7.81913703               18.08827981                0.31394998               -1.06669803               -0.06990688                0.20237165               -0.25681373                7.48549049                1.59123205
              10.06029372                7.76570758               17.98448725                0.78444870                0.06982030                0.07848685               -0.26826303               -0.00809550                0.02582165                0.53295155
              11.06177021                7.71277578               17.88035452                1.00000000                0.14764907                0.24204460               -0.74265872               -0.01599173                0.01646971               -0.61295687
               1.24650856                9.30236218               18.08246747                1.00000000               -0.01350646               -0.07722466                0.23840730               -0.02289777               -0.00330875                0.69475749
               2.24637349                9.23407880               17.96463790                0.60475825                0.04192561                0.04647684               -0.14814083               -0.00035455                0.07804794               -0.47424061
               3.24734707                9.16541291               17.84841075                0.02641182               -0.75358985                0.16624210               -0.53395822                0.82505278                7.88997848               -1.36113812
               4.23130170                9.11277490               17.88684462                0.00010000               -1.86066324                0.87086890               -0.44302114                0.99794068               15.58415396               -0.41840820
               5.21013381                9.06028528               17.92676617                0.00010000               -2.17454321                0.95519381               -0.28292281                0.63872038               15.58325615               -0.12613897
               6.18781083                9.00444853               17.96801737                0.00010000               -2.31886701                0.97142788               -0.12469859                0.31147111               15.68767612                0.07624781
               7.16375647                8.94615150               18.01285180                0.00010000               -2.52610254                0.94562656                0.03126580               -0.05670599               16.01195170                0.26461547
               8.13728878                8.88337492               18.06346964                0.02121768               -2.54028993                0.82747648                0.18727524               -0.56957455               16.57283428                0.52134925
               9.11295067                8.81821042               18.12249637                0.34492113               -1.23630901               -0.09823735                0.34782395               -0.65985683                8.53052990                1.06702222
              10.11256260                8.76626332               18.01470698                0.82932085                0.03853627                0.03642810               -0.13931892               -0.01790022                0.08124838                0.44926773
              11.11372139                8.71501603               17.90456320                0.97768183                0.11587909                0.20597185               -0.64075931               -0.01601435               -0.02697112               -0.53427649
               1.31394847               10.30178991               18.05558455                1.00000000                0.02904252               -0.05722734                0.10492795                0.04186860                0.37963201                0.57263190
               2.31423889               10.23476868               17.93480681                0.83545638                0.08425685                0.06898826               -0.28837626                0.06117206                0.71356655               -0.40107674
               3.31563360               10.16728255               17.82069104                0.51547712               -1.22849249                0.18696427               -0.66858228                1.28335161                9.28962975               -0.86786492
               4.28966904               10.12386265               17.87147370                0.36295725               -2.38066788                1.10877488               -0.47704050                0.98834822               17.17678592               -0.16213819
               5.26802025               10.07031482               17.91868336                0.35527025               -2.14789136                1.00295387               -0.30554743                0.32118928               16.93166285               -0.03653159
               6.24671122               10.01451355               17.96732141                0.37490046               -2.19936311                1.00650238               -0.12111853                0.17372226               17.06028511                0.07510627
               7.22403298                9.95598850               18.01969033                0.41951898               -2.42669708                0.98369990                0.06382272                0.01415951               17.43398894                0.17884351
               8.19817727                9.89424370               18.07849383                0.51729550               -2.98723561                1.08687815                0.25214581               -0.85196181               18.15482888                0.32819923
               9.16428827                9.81717228               18.14832247                0.68817266               -1.75235837               -0.10381418                0.44822734               -1.25661761                9.76650904                0.65975317
              10.16313011                9.76643614               18.04333214                0.94627109               -0.01718861                0.01728180               -0.02460827                0.04289723                0.64804617                0.38006899
              11.16394450                9.71689521               17.93064164                0.98713900                0.08143937                0.18791790               -0.53870557                0.06821829                0.27455929               -0.42971629
               0.64844848                0.35820515               19.29536891                1.00000000               -0.35464463               -0.38806825                1.35707888               -0.06998006               -0.72570558                0.76399536
               1.64490203                0.27414400               19.22743732                1.00000000               -0.29266153               -0.31094800                1.08938394               -0.05460631               -0.91562988                0.05085141
               2.64259525                0.18995965               19.15565451                1.00000000               -0.15771109               -0.23426237                0.80535824               -0.03531981               -0.85818766               -0.21125651
               3.64174781                0.10697044               19.08885955                0.61959810                0.31022964               -0.17738860                0.52994263                0.47576538                0.11377127               -0.57588112
               4.64879984                0.03598568               19.03652273                0.70414785                0.45761826               -0.06605942                0.23914201               -0.07022333                0.63575763                0.13542816
               5.65090017               -0.02614080               18.98027022                0.78776615                0.14487546                0.02400956               -0.06354262                0.00097213                0.24630205                0.07695478
               6.65169735               -0.08676715               18.92019996                0.76849466                0.05617818                0.10506603               -0.35945467                0.00880235                0.05890520               -0.05038442
               7.65202374               -0.14826594               18.86015175                0.86423781                0.06459977                0.19820045               -0.66543984                0.03793417               -0.16861991                0.05670509
               8.65298934               -0.21298801               18.79536633                1.00000000                0.18687907                0.29978564               -0.96770386                0.02457988               -0.53291600                0.42215940
               9.65576132               -0.27992693               18.72791414                1.00000000                0.34158824                0.36930135               -1.26284687               -0.04566144               -0.62701994                0.01121853
              10.65982111               -0.34710993               18.66129586                1.00000000                0.40597893                0.44950789               -1.54250444               -0.06699222               -0.59113602               -0.60942245
               0.73180982                1.35432447               19.26931639                1.00000000               -0.33311063               -0.36662499                1.23464961               -0.03105220               -0.09452367                1.03873204
               1.72847872                1.27103452               19.20096705                1.00000000               -0.29904975               -0.28846801                0.96667747               -0.01224180               -0.05856873                0.07470720
               2.72582883                1.18761703               19.13327239                0.78779224               -0.24931351               -0.21321056                0.69969922                0.03396954                0.17443296               -0.58174865
               3.72349245                1.10519655               19.06956465                0.14098878               -0.55878019               -0.16450489                0.44535555                0.67733652                1.63668697               -1.01589213
               4.71465323                1.03532508               19.03115984                0.30437283               -0.56030697                0.05913915                0.19422360               -0.08182829                2.31900659                0.93724509
               5.71228631                0.97409930               18.98113756                0.39790133               -0.09026418                0.08784569               -0.08586869                0.19782906                1.50899579                0.36220316
               6.71284794                0.91428351               18.92655380                0.29212568                0.16136005                0.04285032               -0.36385338                0.23509670                1.38349842               -0.38536424
               7.71551351                0.85371606               18.87416602                0.44492775                0.31088457                0.19410129               -0.63016585                0.29544423                1.35659081                0.58687904
               8.71906563                0.79000985               18.81937119                1.00000000                0.34260782                0.28135343               -0.89656025                0.12926212                0.69398840                0.60318706
               9.72236567                0.72376609               18.75400859                1.00000000                0.36342808                0.35757444               -1.17401547                0.00057782                0.09833652                0.08555679
              10.72633420                0.65738514               18.68738480                1.00000000                0.39685291                0.43104942               -1.45298219               -0.02277181                0.03105460               -0.72279430
               0.81440732                2.35087265               19.24869326                1.00000000               -0.30426871               -0.33126601                1.12693882               -0.02276062                0.03748933                1.32491687
               1.81136464                2.26837464               19.17492518                1.00000000               -0.26473593               -0.25068536                0.84718002                0.00447933                0.15592897                0.04944429
               2.80911261                2.18569544               19.10344673                0.45519566               -0.18890783               -0.18314918                0.56715002                0.07725930                0.74264897               -1.24972588
               3.80758648                2.10368034               19.04138898                0.00010000               -1.54260371               -0.14350149                0.30831846                0.95485397                4.32916796               -1.83973974
               4.77826053                2.03716846               19.04177521                0.00010000               -1.58440765                0.18159299                0.16084395                1.84129730                4.70579127               -1.21900810
               5.77589833                1.97561611               18.98767469                0.00010000               -0.07390086               -0.05341122               -0.10688533                1.59873384                1.61622498               -0.46420968
               6.77678251                1.91408986               18.92621543                0.00010000                0.31539798               -0.15752457               -0.36556388                1.38169405                2.94179577                0.20634017
               7.78220629                1.85561608               18.89881576                0.00010000                0.43710226               -0.10986451               -0.59825475                0.95814545                3.36989989                0.68892040
               8.78552456                1.79263906               18.84708994                0.47249139                0.30956443                0.27386854               -0.80778339                0.22805116                1.46155312                1.17440317
               9.78839758                1.72722456               18.78168691                1.00000000                0.33014999                0.34434337               -1.07966353                0.03810867                0.52883384                0.51716612
              10.79212756                1.66151105               18.71131169                1.00000000                0.37299835                0.39914888               -1.37580472               -0.01113862                0.27825133               -0.73105787
               0.89635063                3.34769915               19.22832413                1.00000000               -0.26051114               -0.30740689                1.01686094               -0.01514490                0.04722733                1.30234924
               1.89374552                3.26602082               19.14792260                1.00000000               -0.21411565               -0.22043295                0.72185620                0.00894939                0.05887621               -0.03594159
               2.89206832                3.18395404               19.06770578                0.25872102               -0.13145065               -0.14340211                0.42810278                0.05837842                0.97179439               -1.48044790
               3.89111651                3.10232653               19.00557499                0.00010000               -0.62624579               -0.09989004                0.14158101                1.04036592                4.32579679               -2.29693540
               4.87954340                3.03895694               18.99336600                0.00010000               -1.18884578                0.10278577                0.00948394                2.66013946                6.35222535               -2.93211277
               5.86733959                2.97303107               18.97200939                0.00010000               -0.95307739               -0.04188538               -0.13923283                2.26265399                5.55344718               -1.22738785
               6.86048185                2.91113302               18.94411870                0.00010000               -0.56061856               -0.11621460               -0.30683868                1.95859520                5.13225264                0.64746207
               7.85612722                2.85151877               18.91490946                0.00010000               -0.42318378               -0.17248229               -0.48313172                1.47073505                4.88184102                0.73951732
               8.85201818                2.79548722               18.88255299                0.25236292               -0.09356875                0.25491680               -0.68529854                0.56797553                3.00596122                2.18103114
               9.85425584                2.73065296               18.81648223                1.00000000                0.27601324                0.31319847               -0.95118562                0.04199433                0.66463454                0.83124273
              10.85753844                2.66536812               18.73725855                1.00000000                0.32825987                0.38067752               -1.28632458               -0.01974243                0.00859800               -0.51931652
               0.97746109                4.34472452               19.20721491                1.00000000               -0.21723608               -0.28315820                0.89741869               -0.01919269                0.05367709                1.20578043
               1.97528873                4.26396599               19.12014722                0.95572543               -0.17433134               -0.18384666                0.59152952                0.00350147                0.06362696               -0.10981986
               2.97397447                4.18282740               19.03323370                0.14817936               -0.09489171               -0.08471615                0.29526889                0.02475824                1.12509280               -1.34607231
               3.97339090                4.10168254               18.96739065                0.00010000               -0.66078458                0.10738589               -0.02789356                0.82581610                5.57159526               -1.63935687
               4.96075877                4.03922418               18.97001519                0.00010000               -1.22077832                0.11703657               -0.11952067                1.57457658                8.51610087               -1.23164250
               5.94897533                3.97477841               18.96365332                0.00010000               -1.16460286                0.21853159               -0.17492881                1.46394817                7.80424764               -0.58692004
               6.93746672                3.91176557               18.95293280                0.00010000               -1.08542697                0.17015415               -0.26076910                1.33586661                7.46056513                0.30125678
               7.92726679                3.85216644               18.94062834                0.00010000               -0.98584150                0.14610049               -0.37199335                1.27430354                7.44212552                1.27120902
               8.91774989                3.79773739               18.93048197                0.23702197               -0.39551176                0.17855215               -0.50207374                0.57794825                4.01965626                2.51940912
               9.91935656                3.73348853               18.85055888                0.97073551                0.22762457                0.25559569               -0.81909629                0.02357423                0.27427225                0.76584986
              10.92230238                3.66912460               18.76535043                1.00000000                0.29458217                0.36297693               -1.17417885               -0.01783125                0.01600069               -0.40575769
               1.05748384                5.34203599               19.18486614                1.00000000               -0.17711703               -0.24798481                0.76912228               -0.02370272                0.11128451                1.07732089
               2.05571267                5.26234388               19.09163010                0.77287746               -0.13184559               -0.13852845                0.44367886               -0.00230412                0.20204719               -0.26570587
               3.05484692                5.18225972               19.00016210                0.09524083               -0.22383092               -0.03013167                0.12944888                0.13870306                2.09082209               -1.47896608
               4.05123605                5.10447424               18.94469537                0.00010000               -0.84539280                0.38819463               -0.37560826                0.60216171                7.25655855               -0.18917657
               5.03793907                5.04129768               18.95599596                0.00010000               -1.35794413                0.29801157               -0.23710973                1.22814806               10.19875501               -0.48664299
               6.02407716                4.97740170               18.96100307                0.00010000               -1.40639575                0.33750773               -0.19947096                1.03173309                9.71380421               -0.12646743
               7.00981115                4.91453610               18.96415506                0.00010000               -1.42178518                0.33519891               -0.21186182                0.93812457                9.55965075                0.50539678
               7.99564146                4.85444078               18.96747641                0.00010000               -1.37780528                0.25535431               -0.25557932                0.95622249                9.61659380                1.30138974
               8.98225505                4.79905826               18.97300235                0.24516866               -0.61506718                0.09885179               -0.31668651                0.44528790                4.95181029                2.12157448
               9.98334012                4.73576487               18.88406806                0.86218097                0.18273134                0.20804483               -0.67849087                0.01064254                0.14733654                0.73397628
              10.98590967                4.67262766               18.79341611                1.00000000                0.25695571                0.33792114               -1.06747874               -0.01750320                0.06809053               -0.44117890
               1.13637124                6.33976482               19.16112105                1.00000000               -0.13523275               -0.20433847                0.63404976               -0.02458319                0.07008253                0.94909945
               2.13501892                6.26119542               19.06070577                0.65508904               -0.08765375               -0.09127890                0.29208548               -0.00301646                0.20993393               -0.44743190
               3.13461817                6.18222476               18.96304354                0.06974781               -0.43113696                0.02164883               -0.03748957                0.33321014                3.92875004               -1.81307717
               4.12639618                6.10944643               18.93699794                0.00010000               -1.11119465                0.49498884               -0.54334682                0.67897660                9.36167240                0.16113097
               5.11239428                6.04518441               18.94757544                0.00010000               -1.50123053                0.47104630               -0.30972535                0.99466779               11.28465800               -0.12003590
               6.09637157                5.98152856               18.96185731                0.00010000               -1.66020730                0.50020305               -0.20381147                0.80830548               11.41831193                0.13041617
               7.07919013                5.91846954               18.97704667                0.00010000               -1.72512401                0.45940071               -0.15530762                0.63116576               11.45487243                0.61898862
               8.06186909                5.85727352               18.99383466                0.00010000               -1.69292855                0.30496370               -0.13963122                0.59334207               11.58226486                1.24959362
               9.04533156                5.79971443               19.01310615                0.26184825               -0.79345395                0.03762256               -0.14462391                0.25157694                5.89433219                1.94511652
              10.04600001                5.73764943               18.91739888                0.79627759                0.14475872                0.16966159               -0.55313860                0.00302549                0.09479792                0.69009864
              11.04822673                5.67588303               18.82058121                1.00000000                0.22267260                0.31310784               -0.97286024               -0.01651454                0.04485923               -0.51181341
               1.21413098                7.33794922               19.13612705                1.00000000               -0.09385866               -0.15903300                0.49759376               -0.02386903                0.03102002                0.86081124
               2.21319239                7.26051831               19.02852317                0.59251667               -0.04354351               -0.04464239                0.14297785               -0.00230638                0.15219372               -0.53051766
               3.21326011                7.18269270               18.92330285                0.05853283               -0.56682285                0.07103763               -0.20569130                0.49974270                5.46045447               -2.00731610
               4.20185593                7.11437402               18.92186259                0.00010000               -1.37549051                0.50584924               -0.50284700                0.92417993               11.64191615               -0.45387942
               5.18575030                7.05071860               18.94066210                0.00010000               -1.74488976                0.64296116               -0.32183352                0.93400839               12.78715777               -0.08104949
               6.16695814                6.98740576               18.96403682                0.00010000               -1.95303966                0.69568143               -0.18595896                0.64244479               13.05465127                0.21071747
               7.14668950                6.92372412               18.99031887                0.00010000               -2.03473613                0.61517920               -0.09319998                0.33235090               13.24496387                0.61830698
               8.12626342                6.86054006               19.01955745                0.00010000               -1.98894117                0.36794379               -0.02747325                0.16560434               13.46882871                1.16251537
               9.10691068                6.79981071               19.05212851                0.28415141               -0.95156936               -0.01679913                0.01777323                0.00883902                6.82146986                1.84289124
              10.10723203                6.73915810               18.94990218                0.76458718                0.11007535                0.12911474               -0.42428473               -0.00158236                0.05653958                0.61692796
              11.10911219                6.67888982               18.84704202                1.00000000                0.18801588                0.28522476               -0.87120514               -0.01590464                0.03177157               -0.57406914
               1.29075568                8.33658416               19.11052971                1.00000000               -0.05263762               -0.11518717                0.36232384               -0.02313524                0.01275029                0.82846218
               2.29022931                8.26030257               18.99591176                0.57927262                0.00008121                0.00133335               -0.00394329               -0.00104782                0.06606955               -0.55826163
               3.29075731                8.18364552               18.88232502                0.05123551               -0.66877188                0.11883582               -0.37124222                0.65371007                6.75403214               -1.98285959
               4.27685387                8.11956342               18.90147336                0.00010000               -1.63573050                0.59542820               -0.47186442                1.12709934               13.92897271               -0.62117182
               5.25804270                8.05804363               18.93251756                0.00010000               -2.03194621                0.84630924               -0.30210580                0.88253484               14.53515973               -0.12863891
               6.23621495                7.99544219               18.96593556                0.00010000               -2.26699217                0.89704238               -0.15715805                0.48281577               14.70728635                0.18123487
               7.21270286                7.93077313               19.00275717                0.00010000               -2.35601835                0.83268064               -0.03235914                0.04915966               14.97936372                0.50541897
               8.18909458                7.86463240               19.04394045                0.00643223               -2.29062807                0.50605153                0.07678311               -0.35198056               15.34477499                0.96100347
               9.16689029                7.79937845               19.09016442                0.31175884               -1.11026632               -0.06415408                0.17301203               -0.30854298                7.77467026                1.67787781
              10.16688925                7.74023172               18.98167095                0.76909162                0.07774569                0.08551578               -0.29586087               -0.00867673                0.02822816                0.57163204
              11.16844521                7.68158752               18.87279569                1.00000000                0.15559549                0.25207604               -0.76930646               -0.01475805                0.01735162               -0.62753119
               1.36623145                9.33564547               19.08480847                1.00000000               -0.01213774               -0.07417630                0.22943413               -0.02254490               -0.00435553                0.70112162
               2.36611008                9.26054497               18.96315724                0.60132645                0.04210014                0.04655229               -0.14857663                0.00006222                0.07771891               -0.48850698
               3.36707346                9.18506941               18.84311732                0.02656765               -0.80551359                0.16320211               -0.52569440                0.85828625                8.12170562               -1.38954393
               4.34999981                9.12628258               18.88236294                0.00010000               -1.97756166                0.92006009               -0.45321790                1.01612754               16.10732668               -0.34800745
               5.32752222                9.06764479               18.92388889                0.00010000               -2.30574235                1.00885904               -0.29265842                0.63569761               16.16667057               -0.08736487
               6.30388496                9.00534661               18.96672225                0.00010000               -2.45198688                1.02754365               -0.13494228                0.28531185               16.28822085                0.10359929
               7.27848249                8.94037773               19.01309983                0.00010000               -2.66332362                1.00255947                0.01724862               -0.10683923               16.62896790                0.29060873
               8.25061849                8.87066109               19.06524086                0.02244734               -2.66709947                0.88106861                0.16561266               -0.64942535               17.20905333                0.55717853
               9.22514050                8.79852763               19.12580715                0.34239974               -1.28845336               -0.08809200                0.31259766               -0.72550882                8.86436350                1.12399127
              10.22484942                8.74086842               19.01315171                0.81073143                0.04824668                0.04586590               -0.17272745               -0.01959369                0.08843255                0.47836921
              11.22610543                8.68393134               18.89799551                0.97885386                0.12560120                0.21668095               -0.67288262               -0.01473419               -0.02669424               -0.55166302
               1.44050579               10.33510063               19.05659642                1.00000000                0.03008255               -0.05448404                0.09692809                0.04073131                0.38321121                0.57945459
               2.44080661               10.26123361               18.93193160                0.83420196                0.08398179                0.06886409               -0.28745587                0.06009980                0.72403961               -0.41198743
               3.44218542               10.18690956               18.81405865                0.51503253               -1.31027823                0.18401453               -0.65900853                1.34774690                9.58796764               -0.88470600
               4.41460105               10.13796462               18.86669888                0.36348699               -2.52464002                1.16820378               -0.47848113                1.02568694               17.78163468               -0.12144419
               5.39169262               10.07822081               18.91559415                0.35548353               -2.27064041                1.05760260               -0.31286685                0.31846186               17.55893855               -0.02035615
               6.36918824               10.01599306               18.96606198                0.37473073               -2.32205136                1.06464507               -0.13164828                0.16050334               17.71437183                0.08537991
               7.34525160                9.95082432               19.02025432                0.41897980               -2.56160333                1.04465870                0.04780685               -0.01005366               18.10677841                0.18856950
               8.31795617                9.88225377               19.08089740                0.51831146               -3.15394037                1.15926854                0.22737783               -0.92661681               18.84793039                0.34368220
               9.28217279                9.79761661               19.15260647                0.68716990               -1.84312518               -0.09110221                0.40691877               -1.35200747               10.15152230                0.69501951
              10.28109367                9.74114904               19.04289147                0.93563106               -0.00740534                0.02806256               -0.06444438                0.03965179                0.68288507                0.40236479
              11.28202468                9.68592114               18.92506084                0.98704884                0.09310113                0.19898031               -0.57735899                0.06913488                0.28887658               -0.44737446
               0.71034529                0.39262274               20.30887608                1.00000000               -0.35297753               -0.38522047                1.34568337               -0.06834630               -0.74826416                0.78582322
               1.70681552                0.30174679               20.23828940                1.00000000               -0.29245811               -0.30818926                1.08172848               -0.05254390               -0.94871309                0.05296892
               2.70449613                0.21072183               20.16367062                1.00000000               -0.15862307               -0.23284620                0.80055257               -0.03485530               -0.89863840               -0.21204117
               3.70364305                0.12082520               20.09412490                0.62022301                0.30984888               -0.17763693                0.53059694                0.47500654                0.06973005               -0.58604059
               4.71069311                0.04294659               20.03889392                0.70695176                0.45590762               -0.06242515                0.23584295               -0.07394915                0.58673676                0.14210887
               5.71276121               -0.02610184               19.97963809                0.79103575                0.14427307                0.02565245               -0.06180231                0.00015794                0.19522338                0.08323643
               6.71357857               -0.09362599               19.91663824                0.77078498                0.06126977                0.10468202               -0.35255884                0.00876779                0.00565146               -0.05444072
               7.71398660               -0.16186306               19.85355635                0.86623728                0.07169979                0.19661488               -0.65366166                0.03438873               -0.22559236                0.06248915
               8.71501256               -0.23307278               19.78576952                1.00000000                0.18876244                0.29513575               -0.95187041                0.02076446               -0.58464711                0.43326575
               9.71776185               -0.30636207               19.71538371                1.00000000                0.33760230                0.36447130               -1.24352248               -0.04451132               -0.66720350                0.00980751
              10.72176461               -0.37989740               19.64598665                1.00000000                0.40027588                0.44434694               -1.51976781               -0.06427588               -0.62328037               -0.64020366
               0.80053778                1.38877054               20.28160460                1.00000000               -0.32972468               -0.36462695                1.22349062               -0.02935407               -0.09833279                1.06697581
               1.79724053                1.29866490               20.21059643                1.00000000               -0.29647027               -0.28661523                0.95971908               -0.01034717               -0.06075921                0.07888012
               2.79460837                1.20839337               20.14028241                0.79072543               -0.24798945               -0.21244849                0.69731538                0.03340253                0.17938367               -0.59625481
               3.79228074                1.11904883               20.07403661                0.15026658               -0.55956179               -0.17168182                0.43471198                0.68176997                1.65133580               -1.05043357
               4.78341714                1.04232234               20.03306848                0.31502421               -0.56158328                0.06140025                0.18502705               -0.09142279                2.32216328                0.94594983
               5.78104908                0.97415468               19.98026232                0.41061808               -0.09351405                0.08900664               -0.09029164                0.18537693                1.50395559                0.36830820
               6.78154686                0.90742083               19.92291849                0.30257640                0.15024027                0.04969557               -0.36359415                0.22617957                1.38699277               -0.38768542
               7.78405388                0.84010308               19.86788887                0.45390353                0.29614274                0.19265393               -0.62575142                0.27387703                1.36672890                0.59076779
               8.78746971                0.76987858               19.81044623                1.00000000                0.33375828                0.27826295               -0.88881732                0.12034615                0.69894938                0.62304684
               9.79072905                0.69728264               19.74232598                1.00000000                0.35937338                0.35343194               -1.16300246                0.00086651                0.09738297                0.08706023
              10.79465718                0.62454607               19.67293054                1.00000000                0.39281304                0.42798562               -1.43852299               -0.02067662                0.02976750               -0.75937639
               0.88996949                2.38533020               20.25990512                1.00000000               -0.29837467               -0.33022619                1.11537142               -0.02210990                0.04049684                1.35803637
               1.88698574                2.29601449               20.18336459                1.00000000               -0.25946178               -0.24987974                0.83968438                0.00278855                0.16295001                0.05249240
               2.88478025                2.20647286               20.10916254                0.44928228               -0.18181253               -0.18082715                0.57738913                0.06174392                0.77148289               -1.28388270
               3.88334949                2.11739156               20.04470089                0.00010000               -1.55107246               -0.12933208                0.33660899                0.93076628                4.42546108               -1.94319837
               4.85375880                2.04417459               20.04324378                0.00010000               -1.59896168                0.17502217                0.13288031                1.81544572                4.79725192               -1.25094034
               5.85137025                1.97567829               19.98655794                0.00010000               -0.08025227               -0.06054143               -0.11725607                1.56266288                1.66235381               -0.46094806
               6.85215376                1.90736792               19.92254275                0.00010000                0.28180681               -0.15750255               -0.36823325                1.33712299                3.00110242                0.23632412
               7.85700639                1.84199001               19.89281970                0.00010000                0.40430859               -0.11121999               -0.60250194                0.92215236                3.45578864                0.73506173
               8.86023993                1.77249248               19.83901032                0.47892510                0.30526491                0.27107938               -0.80865572                0.21069524                1.52746091                1.22026312
               9.86311169                1.70070657               19.77090723                1.00000000                0.32921460                0.33972189               -1.07697127                0.03343668                0.55203177                0.53849617
              10.86682422                1.62866232               19.69758961                1.00000000                0.37125301                0.40058387               -1.36945080               -0.01070972                0.28968879               -0.76739425
               0.97872701                3.38216601               20.23843706                1.00000000               -0.25733694               -0.30592842                1.00523581               -0.01637131                0.05227181                1.32842058
               1.97615364                3.29366731               20.15511916                1.00000000               -0.21304175               -0.21892045                0.71688061                0.00578225                0.06459514               -0.03900385
               2.97446618                3.20477683               20.07197567                0.26133452               -0.14796521               -0.13970349                0.42727704                0.05964000                0.98379805               -1.51175324
               3.97319434                3.11646219               20.00704275                0.00010000               -0.65134253               -0.06943246                0.15623167                1.00056285                4.47366678               -2.46703712
               4.96143933                3.04582278               19.99338238                0.00010000               -1.20426646                0.08516112                0.00451796                2.60848624                6.53578034               -3.00182426
               5.94910901                2.97294385               19.97057832                0.00010000               -0.97308680               -0.05414028               -0.14546295                2.21584708                5.71921036               -1.22231088
               6.94197759                2.90427078               19.94102798                0.00010000               -0.58683210               -0.12876549               -0.31162691                1.90428168                5.28363341                0.70672035
               7.93737237                2.83787868               19.91005395                0.00010000               -0.45052651               -0.17605942               -0.48854480                1.43501462                5.01866776                0.82919091
               8.93296706                2.77530017               19.87566031                0.25198073               -0.10722095                0.24547510               -0.69382019                0.53775192                3.10529024                2.27427691
               9.93522795                2.70407708               19.80694236                1.00000000                0.27822158                0.31035885               -0.95827022                0.03161705                0.69983090                0.86935601
              10.93853149                2.63255775               19.72438504                1.00000000                0.33035435                0.38652985               -1.28994678               -0.01826057                0.01013746               -0.54016324
               1.06663948                4.37921164               20.21613423                1.00000000               -0.21489078               -0.28052337                0.88609962               -0.02004996                0.06233363                1.22178796
               2.06449057                4.29163608               20.12603998                0.94464740               -0.17306549               -0.18163036                0.58638776                0.00223445                0.07753185               -0.12416109
               3.06317817                4.20367879               20.03619829                0.15459763               -0.10878880               -0.08317170                0.29650263                0.03844262                1.13813813               -1.38508607
               4.06231479                4.11600291               19.96731372                0.00010000               -0.68656523                0.08464325               -0.01484085                0.83461670                5.70621492               -1.87141544
               5.04944686                4.04587782               19.96880791                0.00010000               -1.25377967                0.10692094               -0.11586495                1.53345464                8.76467502               -1.28488614
               6.03723920                3.97459548               19.96188915                0.00010000               -1.20711533                0.21334187               -0.17699767                1.43549885                8.06814359               -0.57674443
               7.02530456                3.90479261               19.95030010                0.00010000               -1.12809538                0.16451855               -0.26595743                1.29469484                7.70319397                0.35795856
               8.01467729                3.83846883               19.93686927                0.00010000               -1.02539940                0.14214559               -0.38086351                1.22549839                7.67070820                1.36165746
               9.00479657                3.77740198               19.92538783                0.23490950               -0.40954220                0.16794692               -0.51946194                0.54536494                4.15492483                2.64457792
              10.00648645                3.70691375               19.84224331                0.95133939                0.23505511                0.25895154               -0.84244788                0.01694284                0.30057854                0.81340107
              11.00949767                3.63639291               19.75350076                1.00000000                0.30112221                0.37300819               -1.19391754               -0.01757338                0.02646642               -0.41746796
               1.15347712                5.37655555               20.19249989                1.00000000               -0.17459523               -0.24445950                0.75743789               -0.02413011                0.11461970                1.08509724
               2.15173117                5.29003470               20.09604432                0.76475504               -0.13044649               -0.13650427                0.43869077               -0.00319724                0.21122001               -0.28982715
               3.15086819                5.20311339               20.00146955                0.10139019               -0.20217611               -0.02971630                0.13154244                0.12056736                2.01993596               -1.53440306
               4.14768765                5.11815505               19.94118394                0.00010000               -0.86761724                0.34638048               -0.34558334                0.60172357                7.41015197               -0.39019559
               5.13351585                5.04796120               19.95364220                0.00010000               -1.43917287                0.30432420               -0.23184789                1.21165879               10.61511561               -0.51886841
               6.11890419                4.97721069               19.95899601                0.00010000               -1.47588529                0.34417458               -0.20138866                1.00261635               10.07556043               -0.10317279
               7.10399814                4.90756115               19.96200699                0.00010000               -1.48156161                0.33996194               -0.21821207                0.89494185                9.89299561                0.56592909
               8.08927296                4.84072160               19.96486657                0.00010000               -1.42843531                0.25605218               -0.26763266                0.90505679                9.93782687                1.39335715
               9.07542944                4.77865911               19.96974466                0.24272359               -0.63485421                0.09500397               -0.33785574                0.41629432                5.12792872                2.24131845
              10.07657588                4.70925611               19.87715792                0.84480997                0.18961268                0.21449821               -0.70406715                0.00949389                0.16294322                0.78431439
              11.07922169                4.64001791               19.78259325                1.00000000                0.26458151                0.34963122               -1.09416421               -0.01840438                0.07093138               -0.45338072
               1.23919857                6.37432245               20.16740403                1.00000000               -0.13297957               -0.20037640                0.62237263               -0.02463529                0.07010910                0.95257097
               2.23786878                6.28890599               20.06360406                0.64910580               -0.08647062               -0.08949750                0.28744198               -0.00348917                0.21619295               -0.47127766
               3.23746916                6.20308447               19.96267933                0.07520812               -0.41836583                0.02175228               -0.03551123                0.30616671                3.84536859               -1.86770957
               4.22950146                6.12293052               19.93146194                0.00010000               -1.14223783                0.49399283               -0.55992887                0.63257206                9.57269257                0.16611315
               5.21462440                6.05196430               19.94445772                0.00010000               -1.59049407                0.48845247               -0.31276929                0.97369943               11.81537972               -0.10382942
               6.19769158                5.98147897               19.95979494                0.00010000               -1.74659587                0.52029652               -0.20824818                0.76887402               11.86506134                0.17065902
               7.17969249                5.91159185               19.97545424                0.00010000               -1.80055542                0.47423941               -0.16380504                0.57764000               11.87075594                0.68277902
               8.16168047                5.84358987               19.99237112                0.00010000               -1.75522737                0.31190700               -0.15450564                0.53161237               11.98631355                1.33725516
               9.14458794                5.77930206               20.01155034                0.25954237               -0.81814757                0.03745063               -0.16853596                0.21847104                6.10447901                2.05299000
              10.14531752                5.71120371               19.91176487                0.78070448                0.15090204                0.17519756               -0.57579725                0.00440692                0.10228776                0.73348852
              11.14760598                5.64338554               19.81075748                1.00000000                0.22884605                0.32306825               -0.99357578               -0.01623329                0.04764719               -0.52337790
               1.32381732                7.37254802               20.14104762                1.00000000               -0.09179562               -0.15501101                0.48634264               -0.02372647                0.03078171                0.86396261
               2.32289937                7.28824475               20.02993503                0.58803381               -0.04251611               -0.04330783                0.13916244               -0.00227774                0.15493012               -0.55121318
               3.32296700                7.20354844               19.92126250                0.06275512               -0.57200533                0.07007890               -0.20267911                0.48343463                5.47875283               -2.05918813
               4.31145926                7.12803491               19.91662762                0.00010000               -1.42628062                0.52954820               -0.53809539                0.88249311               11.94592544               -0.33111688
               5.29444139                7.05773025               19.93737480                0.00010000               -1.84025672                0.67235375               -0.33327769                0.90588848               13.33004220               -0.01973466
               6.27465412                6.98761662               19.96213665                0.00010000               -2.05006691                0.72726406               -0.19374575                0.59391190               13.56117344                0.26293312
               7.25344005                6.91704594               19.98933485                0.00010000               -2.12295660                0.64057691               -0.10434620                0.26632539               13.73135388                0.67959550
               8.23219499                6.84695974               20.01919987                0.00010000               -2.06275161                0.38204800               -0.04547844                0.08988261               13.94831955                1.24115241
               9.21218502                6.77940812               20.05217913                0.28204300               -0.98072257               -0.01430630               -0.00951494               -0.03254499                7.06685162                1.94153947
              10.21258054                6.71276006               19.94554112                0.74986214                0.11741779                0.13434877               -0.44919797               -0.00096707                0.05996217                0.65971380
              11.21453337                6.64647928               19.83821673                1.00000000                0.19528315                0.29430601               -0.89412650               -0.01498835                0.03304866               -0.58420421
               1.40733058                8.37122223               20.11410175                1.00000000               -0.05077841               -0.11150552                0.35180095               -0.02290981                0.01238988                0.83330441
               2.40682280                8.28803984               19.99586042                0.57597029                0.00085533                0.00220362               -0.00668587               -0.00082604                0.06530656               -0.57618853
               3.40734769                8.20448605               19.87863807                0.05381130               -0.69266433                0.11699758               -0.36665371                0.65450693                6.87613207               -2.02637615
               4.39296951                8.13352149               19.89661857                0.00010000               -1.70936135                0.62771586               -0.49544316                1.10713654               14.33810071               -0.50378493
               5.37316046                8.06541138               19.92942706                0.00010000               -2.13576922                0.88655762               -0.31431252                0.85846429               15.09116687               -0.05882129
               6.35025413                7.99602426               19.96431307                0.00010000               -2.37422934                0.93887365               -0.16719845                0.43510970               15.25548259                0.22978036
               7.32567588                7.92440339               20.00236913                0.00010000               -2.45690946                0.87102965               -0.04609877               -0.02081324               15.52708877                0.55458398
               8.30111594                7.85123083               20.04460810                0.00712954               -2.37695828                0.53009049                0.05527866               -0.44099574               15.89628099                1.02431249
               9.27813671                7.77901594               20.09174005                0.30964621               -1.14444610               -0.05799616                0.14032329               -0.35990333                8.05806924                1.76469030
              10.27822702                7.71389069               19.97857004                0.75360647                0.08655348                0.09250634               -0.32537181               -0.00909660                0.03116930                0.61097988
              11.27986778                7.64927166               19.86496839                1.00000000                0.16407632                0.26191691               -0.79626676               -0.01357689                0.01825401               -0.64050133
               1.48972390                9.37031791               20.08705615                1.00000000               -0.01048777               -0.07095606                0.21969334               -0.02232138               -0.00530420                0.70739865
               2.48961902                9.28828882               19.96166637                0.59824867                0.04257934                0.04701949               -0.15012340                0.00025670                0.07749993               -0.50206086
               3.49057549                9.20588839               19.83789686                0.02677701               -0.84711814                0.16098582               -0.51914127                0.87891959                8.34061060               -1.41625801
               4.47267666                9.14058923               19.87778026                0.00010000               -2.07337917                0.96201977               -0.46188774                1.01848694               16.61280219               -0.26494294
               5.44910790                9.07546140               19.92091300                0.00010000               -2.41561768                1.05429038               -0.30187826                0.62401613               16.74076597               -0.04527423
               6.42436431                9.00639409               19.96531852                0.00010000               -2.56453471                1.07587216               -0.14607212                0.25447393               16.87828676                0.13172907
               7.39781721                8.93446653               20.01319678                0.00010000               -2.78008900                1.05237635                0.00118579               -0.15876456               17.23376230                0.31724979
               8.36876253                8.85756155               20.06678190                0.02394699               -2.77450587                0.92867253                0.14129905               -0.72752699               17.83031076                0.59450588
               9.34232709                8.77824820               20.12874832                0.33996615               -1.33098187               -0.07709503                0.27374992               -0.78817100                9.19058449                1.18103371
              10.34214289                8.71461019               20.01125243                0.79197658                0.05864000                0.05566124               -0.20817038               -0.02120822                0.09613345                0.50763292
              11.34349989                8.65171762               19.89110555                0.97990709                0.13570033                0.22727036               -0.70511508               -0.01348227               -0.02615530               -0.56837432
               1.57094233               10.36980310               20.05752311                1.00000000                0.03151181               -0.05148046                0.08786275                0.03955538                0.38686579                0.58615212
               2.57125745               10.28898023               19.92905770                0.83315376                0.08416720                0.06914064               -0.28800882                0.05897559                0.73440500               -0.42233679
               3.57262568               10.20770576               19.80751086                0.51465386               -1.37456038                0.18173706               -0.65142506                1.39410154                9.87650273               -0.90053313
               4.54376624               10.15276188               19.86190408                0.36398378               -2.63948774                1.21726555               -0.48041512                1.04852918               18.36957315               -0.07326785
               5.51983592               10.08649718               19.91242603                0.35569438               -2.37138815                1.10357813               -0.32075418                0.31179242               18.17256087               -0.00260622
               6.49633848               10.01754170               19.96468845                0.37455559               -2.42513947                1.11476065               -0.14365398                0.14510377               18.35537017                0.09569957
               7.47133313                9.94545091               20.02064647                0.41841269               -2.67773732                1.09843843                0.02956258               -0.03527883               18.76519662                0.19815934
               8.44278373                9.86980428               20.08304139                0.51950867               -3.30042425                1.22427339                0.20033985               -0.99672325               19.52297712                0.35965121
               9.40532465                9.77747404               20.15646084                0.68622494               -1.92251506               -0.07741591                0.36211092               -1.44026309               10.52697989                0.73047186
              10.40433343                9.71500391               20.04204325                0.92490045                0.00293172                0.03937208               -0.10617146                0.03620558                0.71788392                0.42469156
              11.40538328                9.65381706               19.91909446                0.98698901                0.10498492                0.20994471               -0.61574717                0.06965414                0.30332401               -0.46486257
               0.77465655                0.42846458               21.32228257                1.00000000               -0.35233221               -0.38296267                1.33680727               -0.06722926               -0.76891087                0.80454283
               1.77113323                0.33058933               21.24907189                1.00000000               -0.29347864               -0.30523912                1.07499741               -0.05321645               -0.97776323                0.05593254
               2.76878698                0.23249525               21.17166556                1.00000000               -0.16070582               -0.22952407                0.79822102               -0.03922175               -0.92857553               -0.21005217
               3.76791911                0.13542621               21.09947149                0.62178186                0.31172036               -0.18143083                0.53557787                0.48057259                0.02893905               -0.60708637
               4.77502139                0.05047874               21.04123959                0.70988587                0.45706010               -0.05845243                0.23314183               -0.07259794                0.52844287                0.15287740
               5.77706032               -0.02572454               20.97903418                0.79395816                0.14353661                0.02701511               -0.05881901                0.00074993                0.14429115                0.08911991
               6.77789212               -0.10041645               20.91314879                0.77263644                0.06601486                0.10417411               -0.34523406                0.00907909               -0.04685311               -0.05819559
               7.77838061               -0.17568121               20.84707852                0.86783186                0.07884604                0.19492811               -0.64211635                0.03098950               -0.28166307                0.06853386
               8.77946904               -0.25367612               20.77632892                1.00000000                0.19097513                0.29061056               -0.93669534                0.01714198               -0.63592035                0.44462662
               9.78220012               -0.33361532               20.70304369                1.00000000                0.33402870                0.35990901               -1.22506421               -0.04339401               -0.70711058                0.00873007
              10.78614961               -0.41380179               20.63090050                1.00000000                0.39494979                0.43964504               -1.49825373               -0.06156661               -0.65505432               -0.67017819
               0.87185951                1.42463495               21.29378620                1.00000000               -0.32737829               -0.36318277                1.21390471               -0.02771377               -0.10232733                1.09222024
               1.86858573                1.32753694               21.22016143                1.00000000               -0.29415947               -0.28437831                0.95343313               -0.01009765               -0.06613542                0.08197149
               2.86597632                1.23020001               21.14721870                0.81252584               -0.24263157               -0.20853632                0.68714595                0.02469783                0.16904694               -0.59497718
               3.86373310                1.13361190               21.07825889                0.16053234               -0.55527704               -0.18079852                0.41050904                0.68947736                1.65299753               -1.05311689
               4.85487078                1.04989421               21.03486039                0.32533505               -0.56088434                0.06785058                0.17295650               -0.08695774                2.33128537                0.95315978
               5.85251541                0.97454561               20.97933172                0.42234046               -0.09547672                0.09028455               -0.09587993                0.17585961                1.50087660                0.37518797
               6.85296125                0.90062529               20.91928192                0.31335309                0.14024662                0.05616464               -0.36369064                0.21865703                1.39104001               -0.38710602
               7.85532034                0.82626807               20.86165099                0.46229569                0.28231337                0.19167282               -0.62207245                0.25392912                1.37671386                0.59382663
               8.85860751                0.74922999               20.80159484                1.00000000                0.32543348                0.27531829               -0.88182683                0.11164518                0.70367028                0.64299372
               9.86182901                0.66998377               20.73074854                1.00000000                0.35564528                0.34967130               -1.15305752                0.00117361                0.09617116                0.08906883
              10.86572042                0.59059466               20.65861434                1.00000000                0.38914072                0.42552322               -1.42549696               -0.01856289                0.02830446               -0.79487704
               0.96829831                2.42120092               21.27100069                1.00000000               -0.29320922               -0.32982500                1.10448896               -0.02129875                0.03982873                1.38930818
               1.96536622                2.32490176               21.19171887                1.00000000               -0.25461680               -0.24857924                0.83251246                0.00183449                0.17120947                0.05650477
               2.96320597                2.22832453               21.11499451                0.45924581               -0.16758787               -0.17583925                0.58118221                0.03764223                0.79309105               -1.30431083
               3.96201446                2.13181024               21.04812116                0.00010000               -1.54287265               -0.16194761                0.32329678                0.94806275                4.45388000               -1.96031756
               4.93234852                2.05183575               21.04443281                0.00010000               -1.60840131                0.17310570                0.10903291                1.80617837                4.86375046               -1.27077872
               5.92984643                1.97608115               20.98532956                0.00010000               -0.09028583               -0.06459851               -0.12866383                1.52169370                1.71463693               -0.45069473
               6.93054280                1.90070684               20.91885077                0.00010000                0.25040336               -0.15576061               -0.36964396                1.28943710                3.05677006                0.27157833
               7.93485450                1.82815224               20.88676572                0.00010000                0.37217200               -0.11075261               -0.60824214                0.88356566                3.53692111                0.78325467
               8.93798624                1.75183025               20.83091683                0.48495373                0.30022082                0.26826297               -0.81033017                0.19269573                1.59347086                1.26636183
               9.94085892                1.67337810               20.76014748                1.00000000                0.32851679                0.33601158               -1.07558238                0.02885692                0.57486574                0.55958317
              10.94455658                1.59470867               20.68392267                1.00000000                0.36976624                0.40295237               -1.36474840               -0.01017259                0.30074866               -0.80367671
               1.06403186                3.41803845               21.24842884                1.00000000               -0.25330461               -0.30517407                0.99372631               -0.01741274                0.05630309                1.35429379
               2.06149881                3.32256535               21.16226021                1.00000000               -0.21055853               -0.21720780                0.71107708                0.00269333                0.06775843               -0.03891296
               3.05982069                3.22668323               21.07625132                0.26841475               -0.11578431               -0.13463693                0.42839965                0.00325576                0.99938920               -1.54321570
               4.05918313                3.13037295               21.00869963                0.00010000               -0.65486277               -0.08485981                0.16464949                0.97821080                4.56809082               -2.55675832
               5.04672343                3.05335633               20.99345636                0.00010000               -1.25524676                0.07154406                0.01139238                2.60045112                6.69247546               -3.05369510
               6.03407819                2.97325364               20.96910013                0.00010000               -1.00222689               -0.06276580               -0.14892252                2.15766649                5.87269294               -1.20691233
               7.02667890                2.89751008               20.93788616                0.00010000               -0.61049704               -0.13805563               -0.31698000                1.84035229                5.42966663                0.77075809
               8.02186825                2.82405302               20.90513856                0.00010000               -0.47216645               -0.17826383               -0.49517477                1.39119512                5.14981636                0.92367609
               9.01723557                2.75459524               20.86867659                0.25141900               -0.11702635                0.23571747               -0.70344507                0.50695444                3.20022430                2.36677572
              10.01952772                2.67670400               20.79731682                1.00000000                0.28101337                0.30814455               -0.96712950                0.02273668                0.73387514                0.90507560
              11.02285583                2.59865370               20.71145961                1.00000000                0.33281097                0.39291843               -1.29535236               -0.01701865                0.01143743               -0.56349918
               1.15889625                4.41509744               21.22493690                1.00000000               -0.21209480               -0.27851595                0.87455451               -0.02120804                0.06983678                1.23792814
               2.15677531                4.32055760               21.13187498                0.93413737               -0.17163819               -0.17910417                0.58063612                0.00014683                0.09018523               -0.13743092
               3.15546349                4.22563179               21.03916375                0.16135537               -0.09348668               -0.07963033                0.29655369               -0.00796155                1.13994911               -1.42123561
               4.15490557                4.13011304               20.96709383                0.00010000               -0.69933219                0.10745831               -0.02518173                0.78590773                5.82523894               -2.05193552
               5.14147685                4.05326663               20.96769789                0.00010000               -1.30297802                0.09570852               -0.10667411                1.52093385                9.01028228               -1.33291861
               6.12884601                3.97482584               20.96011337                0.00010000               -1.24631867                0.20894079               -0.17761763                1.39122446                8.31845249               -0.56011491
               7.11655047                3.89794573               20.94761365                0.00010000               -1.16263890                0.15952374               -0.27172923                1.24413687                7.93702775                0.41972793
               8.10559323                3.82458697               20.93301107                0.00010000               -1.05380632                0.13765308               -0.39185436                1.16954707                7.88888595                1.45524376
               9.09547435                3.75654460               20.92009273                0.23267627               -0.41690226                0.15634354               -0.54043886                0.51203653                4.28220749                2.77043050
              10.09725519                3.67954100               20.83370992                0.93186023                0.24212246                0.26127964               -0.86328982                0.01225582                0.32567655                0.86026736
              11.10031680                3.60256704               20.74147208                1.00000000                0.30616068                0.38248111               -1.21026742               -0.01730474                0.03786933               -0.42991839
               1.25268737                5.41246813               21.20001490                1.00000000               -0.17199689               -0.24144666                0.74566082               -0.02463102                0.11731331                1.09245978
               2.25096740                5.31898327               21.10040391                0.75686205               -0.12906756               -0.13392265                0.43305979               -0.00426729                0.21995336               -0.31311656
               3.25010602                5.22509062               21.00279295                0.10724193               -0.18504825               -0.02770814                0.13262067                0.08715068                1.95015263               -1.58730569
               4.24726644                5.13252211               20.93778370                0.00010000               -0.88383525                0.36059888               -0.33317131                0.56729698                7.53966780               -0.57118182
               5.23242932                5.05527050               20.95135900                0.00010000               -1.50214273                0.30542938               -0.22666235                1.19011832               11.01385642               -0.55159206
               6.21722358                4.97743246               20.95697530                0.00010000               -1.53144073                0.34876332               -0.20260381                0.96301596               10.42387026               -0.07621570
               7.20180050                4.90070055               20.95979082                0.00010000               -1.52816285                0.34257679               -0.22566667                0.84261069               10.21556277                0.63022587
               8.18666033                4.82680608               20.96212376                0.00010000               -1.46391165                0.25491823               -0.28228375                0.84637918               10.24724945                1.48837555
               9.17252227                4.75772212               20.96624523                0.24019622               -0.64549653                0.08975856               -0.36361789                0.38382766                5.29640345                2.36472371
              10.17375040                4.68192959               20.86998672                0.82738878                0.19676915                0.21975054               -0.72944541                0.00823191                0.17636352                0.83913227
              11.17645765                4.60630333               20.77153282                1.00000000                0.27072553                0.36124719               -1.11618646               -0.01874366                0.07264138               -0.46080502
               1.34537336                6.41026851               21.17356850                1.00000000               -0.13058919               -0.19686922                0.61052920               -0.02471463                0.06987469                0.95580221
               2.34406747                6.31787915               21.06645461                0.64318267               -0.08528531               -0.08727917                0.28246198               -0.00410859                0.22195716               -0.49444314
               3.34366766                6.22507763               20.96233331                0.08019630               -0.39979190                0.02297837               -0.03392957                0.27412103                3.75088562               -1.92084352
               4.33607163                6.13732502               20.92579937                0.00010000               -1.16493944                0.50364664               -0.56516637                0.58466483                9.77104490                0.15531861
               5.32036887                6.05937522               20.94132005                0.00010000               -1.66976781                0.50420378               -0.31313403                0.94444421               12.33987180               -0.09193727
               6.30267628                5.98180110               20.95769235                0.00010000               -1.81699011                0.53569172               -0.21217528                0.72100114               12.30036820                0.21250196
               7.28402907                5.90479727               20.97377057                0.00010000               -1.85885115                0.48502907               -0.17368886                0.51685451               12.27489648                0.74921545
               8.26549926                5.82968533               20.99074455                0.00010000               -1.80008411                0.31600217               -0.17223798                0.46338532               12.37822541                1.42744373
               9.24802739                5.75833977               21.00973544                0.25720940               -0.83303192                0.03648349               -0.19624684                0.18174346                6.30832752                2.16363684
              10.24883862                5.68393601               20.90588293                0.76504831                0.15835354                0.18088106               -0.60163175                0.00477427                0.10913887                0.78206497
              11.25119446                5.60979198               20.80070969                1.00000000                0.23558390                0.33457498               -1.01584825               -0.01618857                0.04988218               -0.52920677
               1.43697179                7.40853075               21.14585391                1.00000000               -0.08956785               -0.15133955                0.47480277               -0.02366735                0.03039814                0.86711424
               2.43607611                7.31723768               21.03130642                0.58362475               -0.04146093               -0.04158464                0.13485763               -0.00244602                0.15722824               -0.57126609
               3.43614257                7.22555019               20.91924927                0.06658163               -0.57069868                0.07030025               -0.20032514                0.46057473                5.47705589               -2.10939041
               4.42466214                7.14259505               20.91110069                0.00010000               -1.46502286                0.55050313               -0.55908421                0.82798274               12.23184794               -0.20870199
               5.40684212                7.06535457               20.93399654                0.00010000               -1.92202902                0.69768960               -0.33957069                0.86769567               13.87318876                0.04039844
               6.38622156                6.98814629               20.96016190                0.00010000               -2.12943776                0.75274088               -0.20077514                0.53764028               14.05782325                0.31587517
               7.36425336                6.91040113               20.98823195                0.00010000               -2.19180143                0.66028086               -0.11702343                0.19501814               14.20543328                0.74261156
               8.34238553                6.83312612               21.01864788                0.00010000               -2.11734497                0.39256443               -0.06640755                0.01003363               14.41476462                1.32148866
               9.32190646                6.75845179               21.05193821                0.27995691               -0.99959337               -0.01183538               -0.04055957               -0.07582732                7.30607660                2.04094374
              10.32239366                6.68554721               20.94091822                0.73500871                0.12577317                0.14020019               -0.47669338               -0.00056375                0.06359564                0.70480565
              11.32442193                6.61299483               20.82915949                1.00000000                0.20282616                0.30483498               -0.91759750               -0.01428261                0.03433102               -0.59116114
               1.52748615                8.40724172               21.11756573                1.00000000               -0.04870339               -0.10793344                0.34074450               -0.02276882                0.01199474                0.83820570
               2.52699911                8.31704746               20.99577804                0.57283696                0.00178224                0.00343953               -0.01015521               -0.00074190                0.06425959               -0.59338248
               3.52752179                8.22648363               20.87499194                0.05613014               -0.70861044                0.11606374               -0.36307230                0.64584136                6.98210928               -2.06801306
               4.51282690                8.14833508               20.89156449                0.00010000               -1.76751268                0.65515873               -0.50938906                1.07114778               14.72908778               -0.37336096
               5.49217154                8.07332901               20.92623131                0.00010000               -2.22221893                0.91928787               -0.32240235                0.82390014               15.64194185                0.01312241
               6.46838252                7.99685592               20.96259159                0.00010000               -2.46109680                0.97297635               -0.17674601                0.38096135               15.79309528                0.27900306
               7.44294960                7.91800288               21.00183520                0.00010000               -2.53666241                0.90221282               -0.06147255               -0.09391506               16.06155251                0.60481488
               8.41764928                7.83753662               21.04504602                0.00800503               -2.44299277                0.54958992                0.03081260               -0.53060994               16.43286972                1.08910935
               9.39408975                7.75810306               21.09297088                0.30759772               -1.16824875               -0.05121362                0.10393460               -0.41107089                8.33428233                1.85084971
              10.39428430                7.68674001               20.97516352                0.73796418                0.09619169                0.10003213               -0.35706828               -0.00965895                0.03446963                0.65070032
              11.39601358                7.61588868               20.85687035                1.00000000                0.17292782                0.27214772               -0.82339200               -0.01242467                0.01915505               -0.65195699
               1.61690493                9.40637208               21.08920234                1.00000000               -0.00855701               -0.06759829                0.20914237               -0.02217084               -0.00619582                0.71364186
               2.61681936                9.31730647               20.96015478                0.59547558                0.04334225                0.04783839               -0.15268741                0.00036173                0.07723529               -0.51495825
               3.61777178                9.22787146               20.83273449                0.02691801               -0.87898241                0.15936329               -0.51397365                0.88695256                8.54887161               -1.44145083
               4.59923972                9.15569822               20.87312518                0.00010000               -2.14862484                0.99582745               -0.46636600                1.00596576               17.10162687               -0.17209184
               5.57479928                9.08374033               20.91785132                0.00010000               -2.50363996                1.09068105               -0.30917411                0.60477659               17.30344047               -0.00099807
               6.54916692                9.00760582               20.96380081                0.00010000               -2.65524610                1.11556427               -0.15745619                0.21988691               17.45568397                0.16024091
               7.52169436                8.92844539               21.01312355                0.00010000               -2.87468799                1.09426210               -0.01665030               -0.21174566               17.82434133                0.34436642
               8.49167316                8.84411792               21.06806684                0.02575482               -2.86063526                0.96955957                0.11453629               -0.80329076               18.43411486                0.63329946
               9.46448166                8.75742751               21.13128215                0.33767080               -1.36291477               -0.06510299                0.23101620               -0.84746443                9.50736469                1.23722830
              10.46441486                8.68754786               21.00898830                0.77310867                0.06972163                0.06606052               -0.24576114               -0.02281521                0.10414392                0.53657380
              11.46587609                8.61843778               20.88389321                0.98083384                0.14612261                0.23786888               -0.73729600               -0.01224922               -0.02535099               -0.58444138
               1.70517394               10.40588975               21.05835367                1.00000000                0.03330239               -0.04823277                0.07772666                0.03834795                0.39054275                0.59273282
               2.70550696               10.31800423               20.92617142                0.83230102                0.08475785                0.06977521               -0.28985638                0.05781708                0.74454626               -0.43215734
               3.70686910               10.22967090               20.80103015                0.51428710               -1.42148065                0.17994329               -0.64541864                1.42210184               10.15624618               -0.91534122
               4.67707735               10.16825163               20.85709058                0.36445107               -2.72548124                1.25534096               -0.48169388                1.05735018               18.94145855               -0.01954724
               5.65235947               10.09514263               20.90917906                0.35590015               -2.45010727                1.14023003               -0.32813575                0.30179757               18.77165372                0.01612534
               6.62807520               10.01916720               20.96318890                0.37437874               -2.50784417                1.15613858               -0.15663815                0.12810333               18.98178494                0.10591800
               7.60220259                9.93988812               21.02084557                0.41781666               -2.77369328                1.14427337                0.00929708               -0.06114696               19.40796269                0.20763246
               8.57260134                9.85692781               21.08490419                0.52091264               -3.42460339                1.28098921                0.17133655               -1.06153811               20.17773091                0.37635469
               9.53371052                9.75680100               21.15984869                0.68538321               -1.98918044               -0.06265144                0.31339759               -1.52044309               10.89056039                0.76531148
              10.53281773                9.68806122               21.04076804                0.91414615                0.01391139                0.05133640               -0.14997934                0.03253989                0.75268147                0.44665018
              11.53398875                9.62064606               20.91274590                0.98692522                0.11710179                0.22082800               -0.65380202                0.06974996                0.31786499               -0.48208785
               0.84138844                0.46570634               22.33561223                1.00000000               -0.35111828               -0.38095159                1.32951120               -0.06676404               -0.78714031                0.82067836
               1.83787726                0.36068637               22.25978935                1.00000000               -0.29317143               -0.30290196                1.06848475               -0.05378533               -1.00228501                0.06074624
               2.83552502                0.25541451               22.17963504                1.00000000               -0.16147271               -0.22496314                0.79360206               -0.04220126               -0.95123238               -0.20993743
               3.83464781                0.15110867               22.10483646                0.62361842                0.30871303               -0.17718499                0.53169587                0.47252177               -0.00833305               -0.63499003
               4.84169928                0.05876255               22.04355675                0.71255643                0.45450131               -0.05702354                0.22977219               -0.07408716                0.46620653                0.16697898
               5.84373783               -0.02491454               21.97846171                0.79642199                0.14489430                0.02775885               -0.05621946               -0.00021117                0.09392281                0.09509018
               6.84459716               -0.10705616               21.90973356                0.77406457                0.07176865                0.10328910               -0.33823587                0.00898317               -0.09880239               -0.06151675
               7.84517321               -0.18963733               21.84071402                0.86901447                0.08659102                0.19297429               -0.63131023                0.02740651               -0.33697060                0.07468823
               8.84632898               -0.27471209               21.76703561                1.00000000                0.19374256                0.28626350               -0.92267211                0.01366727               -0.68653455                0.45621038
               9.84904806               -0.36159715               21.69088242                1.00000000                0.33104624                0.35573815               -1.20800960               -0.04233665               -0.74646687                0.00792075
              10.85294991               -0.44872864               21.61602158                1.00000000                0.39018498                0.43550069               -1.47856618               -0.05897447               -0.68627055               -0.69929545
               0.94574078                1.46189683               22.30588270                1.00000000               -0.32554579               -0.36163091                1.20618476               -0.02688554               -0.10573680                1.11472807
               1.94248532                1.35765735               22.22966509                1.00000000               -0.29244660               -0.28202819                0.94690406               -0.00965492               -0.07490148                0.08669304
               2.93989185                1.25316488               22.15402533                0.82708692               -0.23931574               -0.20302448                0.67711848                0.01971233                0.14886298               -0.58786632
               3.93769901                1.14933683               22.08224679                0.16992085               -0.54609193               -0.16821004                0.39684543                0.66842035                1.64884486               -1.05622440
               4.92897001                1.05819231               22.03652761                0.33475277               -0.55269654                0.07002513                0.16213657               -0.09238234                2.34569065                0.96432161
               5.92664508                0.97536305               21.97834472                0.43280222               -0.09608108                0.09052601               -0.10065089                0.16458097                1.50042036                0.38326414
               6.92704839                0.89397673               21.91564467                0.32363572                0.13150781                0.06257020               -0.36358596                0.20926019                1.39594702               -0.38285501
               7.92927523                0.81229242               21.85544742                0.47001231                0.26985902                0.19024303               -0.61877835                0.23396826                1.38673084                0.59631931
               8.93244557                0.72815055               21.79280969                1.00000000                0.31788678                0.27250292               -0.87556532                0.10332036                0.70831533                0.66296932
               9.93563297                0.64196023               21.71926483                1.00000000                0.35230422                0.34635491               -1.14427873                0.00154596                0.09479643                0.09137193
              10.93949165                0.55562636               21.64442061                1.00000000                0.38586841                0.42360787               -1.41405664               -0.01644076                0.02678164               -0.82941911
               1.04932970                2.45847373               22.28199490                1.00000000               -0.29135867               -0.32905755                1.09548539               -0.02031404                0.03906616                1.41829147
               2.04641611                2.35504580               22.20001484                1.00000000               -0.25449553               -0.24622037                0.82695836                0.00406531                0.17832247                0.06152283
               3.04423978                2.25135402               22.12078618                0.46874449               -0.17136617               -0.17108040                0.57463455                0.04106818                0.79570303               -1.31462727
               4.04298879                2.14774447               22.05116682                0.00010000               -1.52071909               -0.14912381                0.29606445                0.92305703                4.46627039               -1.95452178
               5.01382540                2.06016305               22.04542444                0.00010000               -1.58718736                0.16457423                0.09300452                1.75349141                4.93128527               -1.27563529
               6.01124504                1.97689598               21.98398466                0.00010000               -0.09862007               -0.06706268               -0.13856705                1.47600866                1.77064429               -0.43129115
               7.01185300                1.89419524               21.91514988                0.00010000                0.22168572               -0.15268382               -0.37196127                1.23778277                3.10954175                0.31189707
               8.01567875                1.81416753               21.88065485                0.00010000                0.34372887               -0.10927788               -0.61294486                0.84228815                3.61316385                0.83352120
               9.01872758                1.73073797               21.82280371                0.49044699                0.29622047                0.26546168               -0.81246194                0.17550625                1.65938075                1.31240201
              10.02160316                1.64532995               21.74939559                1.00000000                0.32806222                0.33279636               -1.07511033                0.02475012                0.59723184                0.58012625
              11.02528882                1.55974351               21.67029464                1.00000000                0.36856614                0.40559942               -1.36128213               -0.00949253                0.31150657               -0.83981073
               1.15219035                3.45531568               22.25831159                1.00000000               -0.25040152               -0.30447910                0.98374869               -0.01675540                0.05945573                1.37901415
               2.14968633                3.35273294               22.16934070                1.00000000               -0.20879019               -0.21510225                0.70521228                0.00394583                0.07083011               -0.03811916
               3.14801454                3.24974327               22.08054366                0.27572229               -0.11676034               -0.13207825                0.42886535                0.00699604                1.00979784               -1.57023690
               4.14735112                3.14635435               22.01033574                0.00010000               -0.65631062               -0.09321724                0.16345384                0.95185820                4.61540857               -2.57631124
               5.13488833                3.06148380               21.99361023                0.00010000               -1.26090314                0.05768731                0.01049936                2.52375074                6.82258271               -3.08415171
               6.12213306                2.97402180               21.96759987                0.00010000               -1.01779180               -0.06889816               -0.15207810                2.09433526                6.00910498               -1.18038592
               7.11453249                2.89092305               21.93468838                0.00010000               -0.62773969               -0.14563643               -0.32282986                1.76897378                5.56783446                0.83916822
               8.10957827                2.81010686               21.90015045                0.00010000               -0.48696047               -0.17895167               -0.50315681                1.34169578                5.27473283                1.02184632
               9.10479328                2.73345978               21.86159140                0.25059995               -0.12279187                0.22519887               -0.71371714                0.47617895                3.29092004                2.45765343
              10.10712243                2.64861616               21.78759977                1.00000000                0.28406911                0.30596273               -0.97610665                0.01480163                0.76664224                0.93848171
              11.11047467                2.56373835               21.69847800                1.00000000                0.33522368                0.39889095               -1.30069541               -0.01568482                0.01252462               -0.58788744
               1.25416006                4.45238414               22.23362532                1.00000000               -0.20926343               -0.27712671                0.86366955               -0.02128754                0.07678658                1.25341349
               2.25206743                4.35074376               22.13765271                0.92381803               -0.17008825               -0.17701030                0.57504573               -0.00029116                0.10201932               -0.15000204
               3.25075830                4.24871246               22.04212936                0.16737103               -0.08910001               -0.07727796                0.29641938               -0.01933564                1.13512042               -1.45643941
               4.25028543                4.14588013               21.96681009                0.00010000               -0.70626643                0.08357658               -0.01835729                0.75840816                5.91532625               -2.16447598
               5.23663297                4.06131680               21.96667443                0.00010000               -1.32964692                0.09117010               -0.10187643                1.46754720                9.24290548               -1.37784674
               6.22369249                3.97551802               21.95833680                0.00010000               -1.27427760                0.20427993               -0.17872265                1.33912187                8.55222765               -0.53812655
               7.21114742                3.89128251               21.94486552                0.00010000               -1.18582755                0.15428499               -0.27872426                1.18494612                8.15899012                0.48598280
               8.19997594                3.81058850               21.92903218                0.00010000               -1.07027772                0.13243824               -0.40471073                1.10723511                8.09483747                1.55107405
               9.18974186                3.73524195               21.91457905                0.23025691               -0.41776569                0.14255462               -0.56237260                0.47809826                4.40117235                2.89512475
              10.19162062                3.65144920               21.82497751                0.91229131                0.24944364                0.26247964               -0.88262364                0.00862573                0.34991715                0.90712678
              11.19473073                3.56772133               21.72929542                1.00000000                0.31101104                0.39129261               -1.22415784               -0.01740458                0.05067133               -0.44186055
               1.35504537                5.44977314               22.20741311                1.00000000               -0.16931751               -0.23923305                0.73423352               -0.02485156                0.11938547                1.09932743
               2.35335219                5.34919273               22.10470552                0.74890935               -0.12769543               -0.13145662                0.42730724               -0.00498735                0.22831823               -0.33597668
               3.35249146                5.24819772               22.00412197                0.11258312               -0.17186205               -0.02505913                0.13304763                0.06084829                1.88377031               -1.63916813
               4.34991495                5.14802588               21.93452052                0.00010000               -0.89450376                0.34198905               -0.31164534                0.53798375                7.66791626               -0.72742261
               5.33460138                5.06330720               21.94910896                0.00010000               -1.54825838                0.30856089               -0.22237286                1.14887034               11.39771568               -0.57967097
               6.31894978                4.97810740               21.95494393                0.00010000               -1.57202238                0.35121938               -0.20428122                0.91287449               10.75863034               -0.04652239
               7.30316093                4.89400875               21.95749366                0.00010000               -1.55931248                0.34262589               -0.23462922                0.78195132               10.52468167                0.69758518
               8.28776353                4.81275562               21.95922089                0.00010000               -1.48331920                0.25130600               -0.29935807                0.78031487               10.54230206                1.58582993
               9.27349455                4.73631087               21.96247230                0.23752252               -0.64739867                0.08199387               -0.39153080                0.34921844                5.45593473                2.49078139
              10.27481556                4.65386575               21.86256901                0.80990193                0.20438790                0.22321544               -0.75350497                0.00793726                0.18828903                0.89825828
              11.27758231                4.57156420               21.76026952                1.00000000                0.27667493                0.37267002               -1.13539233               -0.01918619                0.07434805               -0.46376550
               1.45482385                6.44759948               22.17961461                1.00000000               -0.12807406               -0.19400347                0.59879010               -0.02474085                0.06943138                0.95864829
               2.45354311                6.34811463               22.06925330                0.63720724               -0.08408660               -0.08483679                0.27707274               -0.00459140                0.22744840               -0.51701911
               3.45314212                6.24821128               21.96200074                0.08462777               -0.38037444                0.02521447               -0.03304393                0.24138380                3.65328604               -1.97288297
               4.44593562                6.15271991               21.92015861                0.00010000               -1.18066289                0.50349319               -0.55348903                0.53553647                9.95566290                0.13897947
               5.42952886                6.06748801               21.93819504                0.00010000               -1.73435962                0.51598803               -0.30964256                0.90325309               12.85238221               -0.07689516
               6.41124843                5.98254241               21.95555143                0.00010000               -1.86953215                0.54637437               -0.21583095                0.66362104               12.72217673                0.25639633
               7.39213821                5.89813503               21.97198046                0.00010000               -1.89841570                0.49123944               -0.18515938                0.44870060               12.66498048                0.81783536
               8.37328011                5.81561462               21.98892636                0.00010000               -1.82610546                0.31662043               -0.19266773                0.38836425               12.75549513                1.51979579
               9.35561611                5.73688183               22.00762540                0.25477629               -0.83770369                0.03403359               -0.22701730                0.14202753                6.50388858                2.27715036
              10.35652604                5.65591351               21.89973224                0.74927070                0.16669968                0.18549202               -0.62864193                0.00542606                0.11491158                0.83557873
              11.35895010                5.57517473               21.79044052                1.00000000                0.24240608                0.34655960               -1.03733985               -0.01612054                0.05183257               -0.52923983
               1.55352026                7.44589307               22.15054368                1.00000000               -0.08716947               -0.14807872                0.46307788               -0.02360666                0.02990684                0.87010229
               2.55264857                7.34749600               22.03263218                0.57922289               -0.04032073               -0.03953983                0.13001603               -0.00261965                0.15915284               -0.59070552
               3.55271385                7.24870200               21.91725600                0.06990509               -0.56498131                0.07146415               -0.19875139                0.43305264                5.46410484               -2.15832021
               4.54134894                7.15809574               21.90544594                0.00010000               -1.49349511                0.56549299               -0.56208492                0.76506171               12.50337749               -0.08679371
               5.52284395                7.07362696               21.93058339                0.00010000               -1.98868773                0.71655149               -0.33965621                0.81912448               14.40905483                0.10103423
               6.50157519                6.98903488               21.95812114                0.00010000               -2.18906065                0.77115009               -0.20684370                0.47351514               14.54107597                0.37023047
               7.47906273                6.90383354               21.98699438                0.00010000               -2.23955828                0.67365268               -0.13124548                0.11837108               14.66465121                0.80723902
               8.45678402                6.81908803               22.01787171                0.00010000               -2.15132596                0.39897164               -0.09022167               -0.07422294               14.86568643                1.40325179
               9.43603621                6.73699155               22.05136793                0.27783621               -1.00764244               -0.00964177               -0.07506050               -0.12118426                7.53716666                2.14111006
              10.43663117                6.65757559               21.93600725                0.71999250                0.13506174                0.14605508               -0.50629714               -0.00026233                0.06672474                0.75294632
              11.43873745                6.57849540               21.81986478                1.00000000                0.21062757                0.31620304               -0.94116370               -0.01366360                0.03552027               -0.59417546
               1.65114586                8.44463791               22.12091664                1.00000000               -0.04640825               -0.10451331                0.32920921               -0.02266566                0.01155890                0.84301524
               2.65068178                8.34732383               21.99565731                0.56980969                0.00287787                0.00501386               -0.01436096               -0.00071716                0.06289237               -0.60989867
               3.65120342                8.24964056               21.87137663                0.05805733               -0.71849421                0.11595811               -0.36046293                0.62873026                7.07851671               -2.10797539
               4.63631190                8.16402977               21.88643079                0.00010000               -1.81156076                0.67627819               -0.50962013                1.02109551               15.10436159               -0.23446943
               5.61497221                8.08181904               21.92297901                0.00010000               -2.28998748                0.94333656               -0.32514689                0.77963915               16.18187079                0.08641204
               6.59051215                7.99796541               21.96077815                0.00010000               -2.52598595                0.99833584               -0.18541163                0.32098076               16.31663256                0.32890315
               7.56445249                7.91160808               22.00113968                0.00010000               -2.59372506                0.92549728               -0.07832025               -0.16980441               16.58011776                0.65617335
               8.53863765                7.82359405               22.04522435                0.00906369               -2.48738121                0.56406669                0.00346442               -0.62084472               16.95194846                1.15556135
               9.51470486                7.73668899               22.09381874                0.30560168               -1.18103532               -0.04382928                0.06384592               -0.46213630                8.60146598                1.93602426
              10.51501694                7.65883461               21.97142867                0.72217005                0.10661745                0.10807781               -0.39089959               -0.01033318                0.03773608                0.69111971
              11.51683721                7.58149879               21.84850055                1.00000000                0.18202719                0.28289228               -0.85047483               -0.01130172                0.02004385               -0.66135151
               1.74769511                9.44380281               22.09123900                1.00000000               -0.00635349               -0.06414087                0.19781378               -0.02206192               -0.00705457                0.71974096
               2.74763157                9.34759628               21.95861262                0.59293221                0.04437022                0.04899808               -0.15621617                0.00042372                0.07683711               -0.52724218
               3.74858251                9.25102117               21.82761739                0.02687069               -0.90196024                0.15835319               -0.51000379                0.88265270                8.74990538               -1.46512577
               4.72959237                9.17162131               21.86845294                0.00010000               -2.20407115                1.02051914               -0.46430897                0.98035635               17.57560410               -0.07397913
               5.70450109                9.09249369               21.91472952                0.00010000               -2.56933027                1.11725841               -0.31345067                0.57893809               17.85177622                0.04434005
               6.67820576                9.00900160               21.96216940                0.00010000               -2.72315444                1.14592368               -0.16862194                0.18226579               18.01792243                0.18899200
               7.65003800                8.92234349               22.01286377                0.00010000               -2.94597712                1.12757160               -0.03595717               -0.26538177               18.39863521                0.37205939
               8.61928622                8.83036937               22.06907262                0.02790552               -2.92425345                1.00313107                0.08575558               -0.87654687               19.01762044                0.67405901
               9.59155293                8.73611496               22.13336864                0.33555138               -1.38357575               -0.05208976                0.18428006               -0.90325384                9.81242235                1.29199620
              10.59161471                8.65973715               22.00633721                0.75415077                0.08150576                0.07714124               -0.28555779               -0.02444063                0.11216887                0.56505259
              11.59318305                8.58415324               21.87635963                0.98160794                0.15683413                0.24855690               -0.76930754               -0.01100808               -0.02428553               -0.59961259
               1.84311769               10.44335509               22.05907765                1.00000000                0.03542067               -0.04477164                0.06658802                0.03712818                0.39416278                0.59911109
               2.84347190               10.34830379               21.92326057                0.83161088                0.08568770                0.07075152               -0.29288356                0.05665901                0.75438616               -0.44146708
               3.84483144               10.25280762               21.79460249                0.51388886               -1.45126973                0.17864565               -0.64075457                1.43171127               10.42853586               -0.92900981
               4.81444650               10.18444015               21.85227020                0.36488990               -2.78303841                1.28188450               -0.48140490                1.05324279               19.49840472                0.03638270
               5.78917068               10.10416421               21.90586331                0.35610078               -2.50694160                1.16705215               -0.33416409                0.28914517               19.35513085                0.03525918
               6.76430767               10.02088388               21.96155568                0.37419701               -2.56967942                1.18822824               -0.17023103                0.10995587               19.59185449                0.11602640
               7.73777709                9.93415952               22.02083241                0.41719674               -2.84862172                1.18160303               -0.01274439               -0.08745171               20.03383818                0.21720167
               8.70733524                9.84365668               22.08646812                0.52254139               -3.52525395                1.32873092                0.14096240               -1.12071453               20.80954839                0.39443915
               9.66727201                9.73564720               22.16272879                0.68467296               -2.04226943               -0.04677648                0.26044953               -1.59205434               11.23947873                0.79890870
              10.66648985                9.66037744               22.03904367                0.90337106                0.02564250                0.06402900               -0.19612506                0.02865098                0.78691908                0.46800778
              11.66778486                9.58646993               21.90601842                0.98688183                0.12950117                0.23166905               -0.69161513                0.06943087                0.33248006               -0.49880505
               0.91055950                0.50433721               23.34887280                1.00000000               -0.34947827               -0.37903648                1.32260506               -0.06639606               -0.80376434                0.83598216
               1.90706472                0.39205277               23.27044158                1.00000000               -0.29221375               -0.30074625                1.06197512               -0.05302865               -1.02576309                0.06588686
               2.90471522                0.27951593               23.18753760                1.00000000               -0.16169878               -0.22243894                0.78715995               -0.04168567               -0.97568799               -0.20985961
               3.90383074                0.16790574               23.11010541                0.62503064                0.30025217               -0.17486899                0.52332327                0.45573156               -0.04548052               -0.66004068
               4.91072027                0.06787661               23.04583503                0.71437474                0.44656118               -0.05636560                0.22620345               -0.07808581                0.41052888                0.17979670
               5.91276196               -0.02358877               22.97790979                0.79806486                0.14717459                0.02767102               -0.05453518               -0.00280277                0.04730288                0.10158787
               6.91366376               -0.11346901               22.90638407                0.77495983                0.07885924                0.10208853               -0.33240033                0.00809813               -0.14865231               -0.06440703
               7.91433915               -0.20365426               22.83445232                0.86974487                0.09530924                0.19078781               -0.62183487                0.02352551               -0.39086308                0.08077907
               8.91556994               -0.29610008               22.75787548                1.00000000                0.19728319                0.28213490               -0.91026213                0.01027385               -0.73597453                0.46795631
               9.91828481               -0.39022172               22.67888350                1.00000000                0.32879761                0.35197667               -1.19274968               -0.04136239               -0.78484794                0.00730637
              10.92214590               -0.48458576               22.60132918                1.00000000                0.38610833                0.43189677               -1.46107405               -0.05654310               -0.71666317               -0.72743459
               1.02217998                1.50054684               23.31790990                1.00000000               -0.32349124               -0.35996729                1.19931617               -0.02614196               -0.10903397                1.13605202
               2.01894507                1.38904530               23.23909951                1.00000000               -0.29040493               -0.27980800                0.94014894               -0.00893189               -0.08334554                0.09294241
               3.01637188                1.27729154               23.16076107                0.83726001               -0.23686760               -0.20011422                0.67126816                0.01822876                0.13098991               -0.58255847
               4.01420772                1.16615705               23.08619580                0.17798148               -0.53426096               -0.16374421                0.39506211                0.64461413                1.64641051               -1.07040956
               5.00568666                1.06731296               23.03810312                0.34287890               -0.54004832                0.06819042                0.15492985               -0.10164939                2.35835846                0.97630136
               6.00340675                0.97668794               22.97731870                0.44187927               -0.09545882                0.08944731               -0.10379991                0.15054179                1.50244819                0.39286485
               7.00377749                0.88755187               22.91201020                0.33303904                0.12415942                0.06850415               -0.36316056                0.19826808                1.40206620               -0.37687430
               8.00588994                0.79825362               22.84927542                0.47701309                0.25894640                0.18869485               -0.61581252                0.21470940                1.39716196                0.59899988
               9.00895641                0.70672127               22.78408354                1.00000000                0.31120461                0.26983266               -0.87005802                0.09538045                0.71303871                0.68277616
              10.01211403                0.61329805               22.70786296                1.00000000                0.34940448                0.34337036               -1.13667907                0.00198732                0.09338681                0.09389688
              11.01594450                0.51973321               22.63033321                1.00000000                0.38304738                0.42204126               -1.40417670               -0.01434886                0.02533412               -0.86279239
               1.13303974                2.49713786               23.29291040                1.00000000               -0.28983600               -0.32792653                1.08795094               -0.01898769                0.03966480                1.44524207
               2.13014138                2.38645661               23.20825804                1.00000000               -0.25358419               -0.24400997                0.82127862                0.00570302                0.18558097                0.06741585
               3.12796805                2.27551365               23.12648720                0.47960454               -0.17198851               -0.16781174                0.56629672                0.04119880                0.79675748               -1.32390349
               4.12670161                2.16463085               23.05404245                0.00010000               -1.49058346               -0.14767960                0.28418842                0.89718951                4.49736283               -1.97354424
               5.09815639                2.06924042               23.04629290                0.00010000               -1.55838623                0.15551731                0.08293531                1.68968082                5.00323861               -1.27348610
               6.09553388                1.97820018               22.98255822                0.00010000               -0.10464711               -0.06970779               -0.14546167                1.42180180                1.82959383               -0.40506357
               7.09606344                1.88790107               22.91141154                0.00010000                0.19650280               -0.14870382               -0.37600810                1.18134899                3.16355791                0.35518244
               8.09946394                1.80011964               22.87450682                0.00010000                0.31848417               -0.10705040               -0.61620434                0.79827268                3.68839105                0.88560121
               9.10243313                1.70929658               22.81466759                0.49528652                0.29243410                0.26258529               -0.81482676                0.15871408                1.72428708                1.35794208
              10.10531262                1.61664569               22.73864528                1.00000000                0.32777333                0.32968306               -1.07508296                0.02092198                0.61922118                0.60024765
              11.10898859                1.52385507               22.65669703                1.00000000                0.36759716                0.40809873               -1.35842718               -0.00879298                0.32203794               -0.87508114
               1.24316274                3.49398831               23.26810382                1.00000000               -0.24793957               -0.30368373                0.97511405               -0.01544721                0.06313331                1.40135182
               2.24068334                3.38416511               23.17636445                1.00000000               -0.20705640               -0.21319279                0.69947043                0.00586320                0.07581578               -0.03793233
               3.23902161                3.27393531               23.08482863                0.28454303               -0.11293053               -0.12944784                0.42720429                0.00394078                1.02079823               -1.59377013
               4.23842473                3.16320346               23.01196870                0.00010000               -0.65553277               -0.09960546                0.15958740                0.92267091                4.68694704               -2.62884557
               5.22591095                3.07042330               22.99366634                0.00010000               -1.26212981                0.04852729                0.00361638                2.43710958                6.95086879               -3.09806029
               6.21318214                2.97529379               22.96605857                0.00010000               -1.02129744               -0.07404655               -0.15728591                2.01600437                6.14174380               -1.14514857
               7.20548501                2.88457780               22.93142956                0.00010000               -0.63611239               -0.15204808               -0.32936044                1.68951348                5.69920337                0.91167295
               8.20045989                2.79611261               22.89507543                0.00010000               -0.49401790               -0.17908161               -0.51218128                1.28538476                5.39358424                1.12209211
               9.19560465                2.71197298               22.85440225                0.24945364               -0.12429545                0.21348068               -0.72393912                0.44492178                3.37792589                2.54617480
              10.19797398                2.61989171               22.77779469                1.00000000                0.28726184                0.30343020               -0.98452578                0.00733750                0.79820406                0.97008018
              11.20134988                2.52789518               22.68544570                1.00000000                0.33759057                0.40416193               -1.30535498               -0.01436125                0.01344719               -0.61188212
               1.35237721                4.49106419               23.24221029                1.00000000               -0.20655639               -0.27614623                0.85373479               -0.02076728                0.08409178                1.26682316
               2.35031165                4.38219275               23.14337589                0.91418507               -0.16843462               -0.17509810                0.56944614                0.00010355                0.11430850               -0.16277881
               3.34900852                4.27292469               23.04509214                0.17314544               -0.08223080               -0.07497118                0.29543880               -0.03045937                1.13844657               -1.49046183
               4.34866703                4.16263875               22.96672669                0.00010000               -0.71001358                0.07108398               -0.00432184                0.72496608                6.00986890               -2.29042392
               5.33480825                4.07021097               22.96566037                0.00010000               -1.34837767                0.08665825               -0.09977514                1.40648823                9.45863326               -1.40804057
               6.32169948                3.97671925               22.95653892                0.00010000               -1.28866795                0.19967927               -0.18194835                1.27392475                8.77523898               -0.50997914
               7.30903489                3.88486011               22.94203917                0.00010000               -1.19615109                0.14797591               -0.28728264                1.11754621                8.36966331                0.55589698
               8.29777646                3.79653801               22.92491685                0.00010000               -1.07412104                0.12579444               -0.41892631                1.03869562                8.28876256                1.64838142
               9.28755247                3.71356619               22.90884528                0.22758442               -0.41196450                0.12592064               -0.58416520                0.44322399                4.51277659                3.01766863
              10.28953717                3.62271429               22.81605745                0.89262477                0.25709747                0.26241625               -0.90077578                0.00585500                0.37388474                0.95414164
              11.29269442                3.53193831               22.71698893                1.00000000                0.31572507                0.39938650               -1.23635791               -0.01791257                0.06449958               -0.45203840
               1.46049027                5.48846539               23.21469957                1.00000000               -0.16653567               -0.23766416                0.72329241               -0.02485411                0.12131066                1.10484717
               2.45882491                5.38066314               23.10895006                0.74096533               -0.12619190               -0.12903248                0.42144611               -0.00554183                0.23677931               -0.35883761
               3.45796643                5.27243589               23.00545390                0.11733689               -0.15935665               -0.02193784                0.13289476                0.03907698                1.82940530               -1.68986737
               4.45563778                5.16462514               22.93155079                0.00010000               -0.90031058                0.32702209               -0.28366331                0.50220709                7.79674466               -0.88518832
               5.43996022                5.07215647               22.94691155                0.00010000               -1.58131442                0.30759565               -0.21528401                1.09388405               11.76002603               -0.60036719
               6.42401149                4.97928737               22.95288967                0.00010000               -1.59715228                0.35162838               -0.20688459                0.85078823               11.07934461               -0.01267239
               7.40801717                4.88753732               22.95509823                0.00010000               -1.57418833                0.33965688               -0.24526714                0.71299955               10.81978644                0.76772412
               8.39252772                4.79862850               22.95613660                0.00010000               -1.48621637                0.24462103               -0.31828665                0.70709170               10.82232283                1.68486888
               9.37829284                4.71449139               22.95841462                0.23463321               -0.64043792                0.07104772               -0.42031444                0.31291717                5.60713255                2.61822470
              10.37971896                4.62514003               22.85491662                0.79233135                0.21253804                0.22475282               -0.77637613                0.00880446                0.19972621                0.96055431
              11.38254360                4.53588291               22.74882498                1.00000000                0.28246411                0.38368083               -1.15252587               -0.01970540                0.07579462               -0.46244356
               1.56748462                6.48631090               23.18554430                1.00000000               -0.12543063               -0.19173108                0.58720705               -0.02474778                0.06878472                0.96068720
               2.56623031                6.37961210               23.07199607                0.63112926               -0.08282779               -0.08217921                0.27129775               -0.00515141                0.23272037               -0.53922595
               3.56582806                6.27248594               22.96167244                0.08844149               -0.36198627                0.02860037               -0.03296626                0.21057882                3.56291908               -2.02398580
               4.55899059                6.16917919               22.91472959                0.00010000               -1.19021863                0.49809267               -0.52600227                0.48207354               10.13467907                0.11599831
               5.54202369                6.07636288               22.93512720                0.00010000               -1.78280966                0.52174109               -0.30143919                0.84802104               13.34535331               -0.05789504
               6.52333440                5.98375182               22.95337573                0.00010000               -1.90349707                0.55184044               -0.21901726                0.59554835               13.12789536                0.30318008
               7.50395375                5.89165325               22.97006738                0.00010000               -1.91850896                0.49246892               -0.19818871                0.37286280               13.03926720                0.88853128
               8.48496422                5.80143043               22.98689119                0.00010000               -1.83272357                0.31323304               -0.21540730                0.30659410               13.11657821                1.61373349
               9.46729928                5.71498714               23.00519509                0.25217461               -0.83212422                0.02946266               -0.25978427                0.10001692                6.69052095                2.39264608
              10.46832173                5.62720935               22.89331009                0.73336047                0.17576337                0.18848376               -0.65555650                0.00685625                0.11983555                0.89272408
              11.47081455                5.53961192               22.77996290                1.00000000                0.24928148                0.35841858               -1.05735390               -0.01605967                0.05361923               -0.52404885
               1.67339292                7.48463077               23.15511546                1.00000000               -0.08460661               -0.14521023                0.45120084               -0.02355302                0.02932790                0.87261712
               2.67254685                7.37901956               23.03390674                0.57475263               -0.03909991               -0.03715272                0.12460690               -0.00281100                0.16078290               -0.60956956
               3.67261092                7.27300789               22.91527424                0.07262445               -0.55722753                0.07383973               -0.19805542                0.40290048                5.45034198               -2.20585153
               4.66140230                7.17458699               22.89985899                0.00010000               -1.51314551                0.57297509               -0.54552244                0.69522822               12.76500619                0.03289724
               5.64234801                7.08259129               22.92720342                0.00010000               -2.03851061                0.72741219               -0.33297923                0.75875464               14.92956448                0.16307859
               6.62063209                6.99032418               22.95602503                0.00010000               -2.22760968                0.78169552               -0.21179246                0.40077572               15.00712586                0.42630472
               7.59779581                6.89738670               22.98560704                0.00010000               -2.26531900                0.68018566               -0.14689360                0.03604924               15.10661877                0.87351947
               8.57532571                6.80489316               23.01684345                0.00010000               -2.16407764                0.40082564               -0.11662416               -0.16305438               15.29901751                1.48619763
               9.55451426                6.71508064               23.05043700                0.27564224               -1.00471988               -0.00821547               -0.11229148               -0.16839915                7.75874112                2.24152920
              10.55523131                6.62890971               22.93079227                0.70480236                0.14514996                0.15115505               -0.53700472                0.00030639                0.06909163                0.80368579
              11.55741726                6.54305129               22.81033622                1.00000000                0.21859511                0.32774441               -0.96402321               -0.01303473                0.03655690               -0.59304754
               1.77823598                8.48340670               23.12414992                1.00000000               -0.04390081               -0.10124394                0.31722813               -0.02258129                0.01108853                0.84748578
               2.77779697                8.37886905               22.99549082                0.56679022                0.00413333                0.00694070               -0.01930768               -0.00065535                0.06124746               -0.62577525
               3.77831864                8.27396273               22.86778268                0.05947990               -0.72426069                0.11675959               -0.35880401                0.60441455                7.17372878               -2.14619489
               4.76331175                8.18063869               22.88137209                0.00010000               -1.84285249                0.68961203               -0.49369005                0.95928847               15.46780546               -0.09259739
               5.74146159                8.09091113               22.91972837                0.00010000               -2.33786241                0.95757698               -0.32192201                0.72586887               16.70426709                0.15994441
               6.71655451                7.99938573               22.95888335                0.00010000               -2.56779192                1.01419729               -0.19298713                0.25524300               16.82259194                0.37953133
               7.69010575                7.90525696               23.00026879                0.00010000               -2.62726631                0.94035777               -0.09641986               -0.24853791               17.08024113                0.70889827
               8.66400918                7.80944694               23.04511531                0.01030302               -2.50955024                0.57310867               -0.02645378               -0.71195721               17.45100266                1.22418077
               9.63991475                7.71482283               23.09424780                0.30363978               -1.18259811               -0.03616279                0.02045876               -0.51316179                8.85781533                2.01964168
              10.64035722                7.63023245               22.96734553                0.70619339                0.11779736                0.11621018               -0.42647235               -0.01100392                0.04057762                0.73217799
              11.64227070                7.54616681               22.83986086                1.00000000                0.19134795                0.29381865               -0.87720756               -0.01015019                0.02088462               -0.66828820
               1.88201660                9.48260589               23.09315861                1.00000000               -0.00388825               -0.06060111                0.18575575               -0.02198279               -0.00789116                0.72551884
               2.88197771                9.37915837               22.95703045                0.59054599                0.04564854                0.05049724               -0.16068230                0.00050349                0.07630675               -0.53894791
               3.88292957                9.27534308               22.82253442                0.02652600               -0.91690205                0.15788849               -0.50707472                0.86661980                8.94813781               -1.48720130
               4.86363967                9.18837923               22.86383900                0.00010000               -2.24056096                1.03530383               -0.45421495                0.94363085               18.03717615                0.02347657
               5.83811835                9.10174283               22.91158231                0.00010000               -2.61242808                1.13345499               -0.31413349                0.54719539               18.38239204                0.08957674
               6.81139111                9.01060813               22.96042837                0.00010000               -2.76772530                1.16647181               -0.17931800                0.14198559               18.56248611                0.21792036
               7.78276384                8.91619385               23.01240440                0.00010000               -2.99352105                1.15189606               -0.05637486               -0.31958150               18.95483203                0.40061941
               8.75152069                8.81635534               23.06978196                0.03041811               -2.96491620                1.02893296                0.05572312               -0.94748618               19.57784655                0.71775898
               9.72346552                8.71435739               23.13496775                0.33363815               -1.39267174               -0.03819811                0.13366467               -0.95558140               10.10312331                1.34474033
              10.72366726                8.63123391               23.00327714                0.73512534                0.09400077                0.08880017               -0.32749894               -0.02602312                0.11987466                0.59292212
              11.72534553                8.54892766               22.86850706                0.98220061                0.16782775                0.25927808               -0.80111040               -0.00971807               -0.02295009               -0.61359511
               1.98469135               10.48219468               23.05968543                1.00000000                0.03784904               -0.04112102                0.05452871                0.03590681                0.39763235                0.60516130
               2.98506984               10.37987899               22.92031375                0.83103443                0.08694150                0.07206192               -0.29703998                0.05550377                0.76385042               -0.45027939
               3.98643018               10.27712050               22.78821506                0.51339398               -1.46426085                0.17774150               -0.63726201                1.42334999               10.69496838               -0.94139032
               4.95578462               10.20134477               22.84746248                0.36530329               -2.81267885                1.29655349               -0.47906623                1.03748140               20.04185788                0.08998828
               5.93017660               10.11358023               22.90249578                0.35629988               -2.54207131                1.18373943               -0.33838257                0.27434538               19.92185618                0.05417087
               6.90494320               10.02271516               22.95978427                0.37401002               -2.61048437                1.21070349               -0.18421631                0.09094152               20.18383316                0.12612591
               7.87796692                9.92829488               23.02059068                0.41655293               -2.90236398                1.21010325               -0.03620534               -0.11417073               20.64196170                0.22722102
               8.84689592                9.83002560               23.08772344                0.52441496               -3.60211854                1.36702641                0.11029479               -1.17427774               21.41554601                0.41496498
               9.80592455                9.71405887               23.16505768                0.68411795               -2.08147170               -0.02985154                0.20316626               -1.65495467               11.57035605                0.83063779
              10.80526648                9.63200845               23.03684554                0.89259603                0.03821482                0.07745400               -0.24478005                0.02459781                0.82017491                0.48852630
              11.80668884                9.55135237               22.89891360                0.98681306                0.14223575                0.24247133               -0.72935079                0.06872284                0.34711325               -0.51478200
               0.98217559                0.54435179               24.36206433                1.00000000               -0.34783932               -0.37715192                1.31577888               -0.06582410               -0.81988554                0.85088902
               1.97869719                0.42468825               24.28102885                1.00000000               -0.29140775               -0.29885144                1.05581050               -0.05206548               -1.04916872                0.07073666
               2.97634743                0.30477039               24.19537824                1.00000000               -0.16282133               -0.22062705                0.78187156               -0.04126598               -1.00158592               -0.21010882
               3.97544077                0.18572708               24.11530292                0.62599479                0.28790211               -0.17354869                0.51807720                0.43703701               -0.08302289               -0.68295227
               4.98210547                0.07782232               24.04808082                0.71532906                0.43470450               -0.05618451                0.22383791               -0.08050480                0.36056208                0.19077351
               5.98413486               -0.02170061               23.97737100                0.79872274                0.14880576                0.02725254               -0.05322830               -0.00573343                0.00522008                0.10811764
               6.98508159               -0.11959656               23.90308555                0.77524759                0.08648398                0.10083295               -0.32795756                0.00677333               -0.19543701               -0.06684142
               7.98586454               -0.21766796               23.82827732                0.86996552                0.10483588                0.18858660               -0.61411783                0.01943411               -0.44255673                0.08665546
               8.98717831               -0.31776908               23.74883037                1.00000000                0.20164317                0.27830359               -0.89982648                0.00695047               -0.78362085                0.47985215
               9.98989740               -0.41940994               23.66702743                1.00000000                0.32734929                0.34863343               -1.17956196               -0.04045305               -0.82178353                0.00690315
              10.99372529               -0.52128540               23.58680010                1.00000000                0.38278926                0.42880659               -1.44597215               -0.05429079               -0.74592220               -0.75431103
               1.10118088                1.54058027               24.32986902                1.00000000               -0.32136411               -0.35835711                1.19247579               -0.02544685               -0.11221794                1.15671405
               2.09796724                1.42169974               24.24846807                1.00000000               -0.28827608               -0.27795398                0.93388323               -0.00812097               -0.09095144                0.09921841
               3.09541536                1.30256412               24.16745069                0.84596754               -0.23410329               -0.19809972                0.66676114                0.01674748                0.11601714               -0.57887841
               4.09328517                1.18399160               24.09014803                0.18518831               -0.52005426               -0.16131992                0.39430644                0.61929632                1.64438759               -1.08862801
               5.08501427                1.07726047               24.03962620                0.34983032               -0.52491058                0.06538929                0.15042681               -0.10753788                2.36881759                0.98634997
               6.08278696                0.97857191               23.97626873                0.44963233               -0.09406387                0.08777293               -0.10586126                0.13673578                1.50631532                0.40310290
               7.08313300                0.88141177               23.90838146                0.34161216                0.11790870                0.07380411               -0.36260713                0.18699831                1.40951266               -0.37040886
               8.08514514                0.78421791               23.84313117                0.48328897                0.24929046                0.18737570               -0.61336906                0.19640903                1.40818302                0.60185158
               9.08811880                0.68501396               23.77540853                1.00000000                0.30529481                0.26735885               -0.86540537                0.08775196                0.71798483                0.70224650
              10.09125103                0.58407639               23.69653125                1.00000000                0.34695173                0.34065571               -1.13025732                0.00247265                0.09208487                0.09674205
              11.09505784                0.48300267               23.61633707                1.00000000                0.38068079                0.42073994               -1.39575772               -0.01233270                0.02408868               -0.89452253
               1.21942771                2.53718465               24.30375392                1.00000000               -0.28767826               -0.32687262                1.08061445               -0.01800409                0.04094700                1.47066733
               2.21655093                2.41912917               24.21644042                1.00000000               -0.25185907               -0.24216504                0.81520963                0.00671709                0.19251861                0.07343687
               3.21439053                2.30080839               24.13211212                0.49085821               -0.17102929               -0.16505914                0.55971438                0.03912035                0.79647969               -1.33151086
               4.21313034                2.18250068               24.05685059                0.00010000               -1.45080642               -0.14491982                0.27834762                0.86444445                4.52537327               -1.99343711
               5.18537440                2.07913010               24.04708315                0.00010000               -1.52060322                0.14473279                0.07552263                1.61778641                5.07716627               -1.26630847
               6.18271828                1.98005485               23.98107543                0.00010000               -0.10994185               -0.07168905               -0.15058235                1.35835861                1.89022424               -0.37586565
               7.18317556                1.88187952               23.90762971                0.00010000                0.17361255               -0.14414437               -0.37984496                1.11957098                3.21857876                0.39968947
               8.18619053                1.78607956               23.86833077                0.00010000                0.29496517               -0.10396178               -0.61912031                0.75153570                3.76239276                0.93789456
               9.18907486                1.68757810               23.80650718                0.49937746                0.28838104                0.25958145               -0.81730453                0.14186727                1.78780804                1.40257212
              10.19195815                1.58740317               23.72789393                1.00000000                0.32756101                0.32645992               -1.07521938                0.01716607                0.64093649                0.62028641
              11.19562608                1.48712940               23.64312610                1.00000000                0.36679378                0.41030716               -1.35580668               -0.00818965                0.33243945               -0.90861348
               1.33693174                3.53404282               24.27781387                1.00000000               -0.24539083               -0.30298953                0.96684793               -0.01448819                0.06748321                1.42137105
               2.33447783                3.41685644               24.18333011                1.00000000               -0.20527422               -0.21132977                0.69359887                0.00704737                0.08217844               -0.03779800
               3.33282626                3.29926294               24.08908775                0.29391118               -0.11127395               -0.12652196                0.42448700                0.00113345                1.02932311               -1.61360107
               4.33225235                3.18109320               24.01352749                0.00010000               -0.65052090               -0.10055615                0.15379633                0.88382145                4.75140297               -2.66639623
               5.31981584                3.08015513               23.99368255                0.00010000               -1.25238196                0.03903395               -0.00023552                2.33319680                7.07912636               -3.10539471
               6.30720471                2.97713813               23.96445416                0.00010000               -1.01580663               -0.07837552               -0.16314583                1.92369715                6.27104072               -1.10402570
               7.29949971                2.87852888               23.92810117                0.00010000               -0.63637221               -0.15738697               -0.33666211                1.59938637                5.82577620                0.98677373
               8.29447727                2.78213867               23.88990683                0.00010000               -0.49335844               -0.17923001               -0.52164452                1.22156317                5.50742052                1.22254087
               9.28963254                2.69020559               23.84711262                0.24791234               -0.12171074                0.20024235               -0.73361523                0.41244229                3.46184659                2.63171252
              10.29204306                2.59060559               23.76790926                1.00000000                0.29045249                0.30034682               -0.99200339               -0.00001294                0.82870898                1.00021312
              11.29544159                2.49120881               23.67237090                1.00000000                0.33985317                0.40859462               -1.30903992               -0.01309349                0.01410373               -0.63455777
               1.45351070                4.53112486               24.25070001                1.00000000               -0.20389449               -0.27533707                0.84425450               -0.02028438                0.09180790                1.27788231
               2.45147175                4.41490258               24.14904163                0.90501483               -0.16671317               -0.17303156                0.56354694                0.00043568                0.12724770               -0.17570478
               3.45017644                4.29827796               24.04803814                0.17879447               -0.07785889               -0.07214332                0.29343993               -0.03802249                1.14520888               -1.52249484
               4.44991458                4.18048956               23.96672365                0.00010000               -0.70915177                0.06130066                0.00245223                0.68863351                6.09904078               -2.39510067
               5.43599340                4.07991078               23.96467893                0.00010000               -1.35480561                0.08389452               -0.09719671                1.33224811                9.66499718               -1.43190762
               6.42281846                3.97848734               23.95469783                0.00010000               -1.29153259                0.19395026               -0.18631339                1.19831365                8.98771047               -0.47571855
               7.41016275                3.87873178               23.93911987                0.00010000               -1.19366909                0.14030695               -0.29713473                1.04088250                8.57039423                0.62848588
               8.39894508                3.78249496               23.92065366                0.00010000               -1.06529768                0.11699934               -0.43405123                0.96337501                8.47163628                1.74604584
               9.38885679                3.69158295               23.90289574                0.22461762               -0.39952070                0.10599826               -0.60533201                0.40698983                4.61795959                3.13685956
              10.39095467                3.59341011               23.80696200                0.87287400                0.26504882                0.26093019               -0.91751591                0.00375075                0.39778318                1.00119602
              11.39415777                3.49530129               23.70456826                1.00000000                0.32031033                0.40662772               -1.24686881               -0.01888649                0.07922565               -0.45989739
               1.56897061                5.52853608               24.22187896                1.00000000               -0.16371592               -0.23637619                0.71264294               -0.02476073                0.12317257                1.10854330
               2.56733345                5.41339581               24.11313444                0.73316719               -0.12458902               -0.12645772                0.41519310               -0.00591887                0.24551644               -0.38162069
               3.56647883                5.29782007               24.00677986                0.12156470               -0.14706249               -0.01833675                0.13174370                0.02069725                1.78653233               -1.73852479
               4.56439220                5.18231921               23.92884725                0.00010000               -0.90079003                0.31210614               -0.25747969                0.46364033                7.92407532               -1.02898210
               5.54846302                5.08183302               23.94480327                0.00010000               -1.60211052                0.30637289               -0.20613773                1.02471535               12.10235484               -0.61573989
               6.53234999                4.98101714               23.95080624                0.00010000               -1.60766444                0.34916590               -0.20985950                0.77748464               11.38433536                0.02567153
               7.51630974                4.88133502               23.95258832                0.00010000               -1.57281911                0.33325352               -0.25733733                0.63534337               11.10066310                0.84013947
               8.50089360                4.78447866               23.95285516                0.00010000               -1.47262762                0.23437426               -0.33858496                0.62647103               11.08746957                1.78449341
               9.48685718                4.69232555               23.95406602                0.23146941               -0.62469386                0.05647092               -0.44947633                0.27481817                5.75072642                2.74540559
              10.48839973                4.59582419               23.84704149                0.77466339                0.22121508                0.22411134               -0.79790181                0.01080421                0.21124504                1.02518384
              11.49128149                4.49934136               23.73721900                1.00000000                0.28817582                0.39406121               -1.16757633               -0.02032746                0.07698283               -0.45691129
               1.68329602                6.52639733               24.19135875                1.00000000               -0.12266358               -0.18981363                0.57567020               -0.02470728                0.06801563                0.96156335
               2.68206938                6.41237342               24.07467925                0.62495769               -0.08145212               -0.07929778                0.26510960               -0.00570542                0.23791672               -0.56101264
               3.68166698                6.29791122               23.96134141                0.09159915               -0.34474747                0.03273290               -0.03362582                0.18239356                3.48676202               -2.07346878
               4.67517443                6.18673168               23.90963857                0.00010000               -1.19385975                0.48959865               -0.48862006                0.42273548               10.31268846                0.09514808
               5.65778978                6.08603824               23.93216626                0.00010000               -1.81541399                0.52271705               -0.28884920                0.77725707               13.81366745               -0.03525555
               6.63886615                5.98547065               23.95117109                0.00010000               -1.91908435                0.55181083               -0.22169388                0.51613573               13.51478329                0.35290740
               7.61940809                5.88539685               23.96801669                0.00010000               -1.91910924                0.48837488               -0.21257412                0.28893687               13.39633611                0.96101021
               8.60048397                5.78718244               23.98461821                0.00010000               -1.82002343                0.30546033               -0.24001446                0.21781594               13.46072794                1.70847093
               9.58300763                5.69271237               24.00242972                0.24935002               -0.81645130                0.02219311               -0.29372134                0.05574595                6.86823468                2.50876012
              10.58415494                5.59789233               23.88662111                0.71729230                0.18546259                0.18948396               -0.68178983                0.00921054                0.12431185                0.95213149
              11.58671688                5.50318252               23.76929344                1.00000000                0.25619345                0.36975606               -1.07555377               -0.01602070                0.05525402               -0.51413056
               1.79652427                7.52473980               24.15956769                1.00000000               -0.08188242               -0.14264286                0.43913798               -0.02350454                0.02865900                0.87441123
               2.79570545                7.41180985               24.03512432                0.57016959               -0.03779179               -0.03444080                0.11863104               -0.00302467                0.16215932               -0.62787867
               3.79576844                7.29847473               23.91329489                0.07467278               -0.54927815                0.07726323               -0.19814537                0.37155419                5.44627462               -2.25173641
               4.78471989                7.19211119               23.89453549                0.00010000               -1.52496214                0.57330609               -0.51083744                0.61802575               13.02203664                0.15136967
               5.76526920                7.09228736               23.92392380                0.00010000               -2.07028995                0.73004010               -0.32017009                0.68493369               15.42675482                0.22643081
               6.74331409                6.99205335               23.95388529                0.00010000               -2.24462544                0.78410202               -0.21570605                0.31862875               15.45241699                0.48398205
               7.72037669                6.89110252               23.98405651                0.00010000               -2.26898393                0.67959145               -0.16381349               -0.05241158               15.52928726                0.94139374
               8.69793441                6.79058787               24.01553923                0.00010000               -2.15572378                0.39783609               -0.14518960               -0.25691898               15.71326595                1.56997797
               9.67726221                6.69276942               24.04912210                0.27330581               -0.99103101               -0.00806477               -0.15149607               -0.21753317                7.97001092                2.34114670
              10.67811379                6.59961387               23.92526715                0.68940356                0.15592470                0.15504843               -0.56805258                0.00137824                0.07069634                0.85591254
              11.68038070                6.50673649               23.80058432                1.00000000                0.22669159                0.33898340               -0.98568255               -0.01237014                0.03743693               -0.58813199
               1.90868583                8.52354447               24.12726120                1.00000000               -0.04118632               -0.09810670                0.30481020               -0.02252000                0.01059219                0.85139475
               2.90827397                8.41168461               23.99527116                0.56371111                0.00554495                0.00922681               -0.02499076               -0.00057682                0.05937965               -0.64104404
               3.90879673                8.29945648               23.86420055                0.06028783               -0.72758247                0.11850193               -0.35801548                0.57407375                7.27685292               -2.18243034
               4.89372232                8.19819781               23.87655699                0.00010000               -1.86252209                0.69446336               -0.46133983                0.88753345               15.82381460                0.04670418
               5.87154629                8.10063904               23.91654057                0.00010000               -2.36493734                0.96152303               -0.31303318                0.66226296               17.20217727                0.23239401
               6.84642357                8.00115269               23.95691841                0.00010000               -2.58604673                1.02028665               -0.19959672                0.18344721               17.30770503                0.43073879
               7.81982535                7.89898868               23.99921128                0.00010000               -2.63724391                0.94657327               -0.11553481               -0.33045820               17.55975298                0.76327382
               8.79367869                7.79513916               24.04469528                0.01170577               -2.50971970                0.57642760               -0.05846597               -0.80461081               17.92787016                1.29573981
               9.76963096                7.69255107               24.09422792                0.30168021               -1.17316258               -0.02847623               -0.02563027               -0.56439312                9.10178433                2.10083615
              10.77021544                7.60099330               23.96289922                0.69002573                0.12966446                0.12408526               -0.46331616               -0.01148943                0.04270340                0.77323832
              11.77222425                7.50996218               23.83095640                1.00000000                0.20088069                0.30460563               -0.90336649               -0.00893657                0.02162774               -0.67281488
               2.01979361                9.52277767               24.09495411                1.00000000               -0.00117025               -0.05698987                0.17300809               -0.02193432               -0.00870713                0.73081534
               3.01978190                9.41199439               23.95539898                0.58813225                0.04715554                0.05234998               -0.16607466                0.00062046                0.07573901               -0.55012584
               4.02073672                9.30084477               23.81747590                0.02575053               -0.92469521                0.15810247               -0.50507328                0.83957093                9.14853772               -1.50754253
               5.00128800                9.20600045               23.85936864                0.00010000               -2.25885758                1.03975827               -0.43583767                0.89768382               18.48913017                0.11353519
               5.97555956                9.11151782               23.90844685                0.00010000               -2.63273037                1.13908235               -0.31143358                0.50991758               18.89181456                0.13337955
               6.94863339                9.01245909               23.95858304                0.00010000               -2.78892555                1.17709478               -0.18959568                0.09910128               19.08719646                0.24694637
               7.91978105                8.91003398               24.01173627                0.00010000               -3.01767942                1.16713479               -0.07751026               -0.37454329               19.49171300                0.43042499
               8.88827980                8.80211642               24.07018708                0.03331014               -2.98304220                1.04669209                0.02555749               -1.01668107               20.11186401                0.76588164
               9.86012021                8.69219989               24.13604194                0.33194632               -1.39034575               -0.02354853                0.07951041               -1.00473831               10.37655318                1.39468153
              10.86047289                8.60209558               23.99978723                0.71603657                0.10719991                0.10089357               -0.37145317               -0.02746552                0.12690870                0.61979901
              11.86226421                8.51282860               23.86033742                0.98258978                0.17913202                0.26995184               -0.83280048               -0.00835996               -0.02137379               -0.62624580
               2.12981370               10.52240468               24.06016822                1.00000000                0.04055753               -0.03729916                0.04161310                0.03470281                0.40085311                0.61077757
               3.13021928               10.41273161               23.91731977                0.83047853                0.08841901                0.07372197               -0.30232444                0.05443033                0.77300820               -0.45864518
               4.13158208               10.30261853               23.78185725                0.51273764               -1.46081698                0.17737685               -0.63492885                1.39760475               10.95741660               -0.95244242
               5.10100294               10.21899297               23.84268888                0.36569392               -2.81480403                1.29925185               -0.47485115                1.01160167               20.57347178                0.13590592
               6.07528600               10.12342069               23.89909566                0.35649084               -2.55567537                1.19028689               -0.34092438                0.25772470               20.47089197                0.07220781
               7.04988943               10.02469459               23.95787136                0.37382040               -2.63044237                1.22355029               -0.19861137                0.07113838               20.75628827                0.13635234
               8.02267715                9.92233138               24.02010830                0.41588875               -2.93551347                1.22973939               -0.06062805               -0.14146919               21.23224285                0.23814411
               8.99117916                9.81607300               24.08867401                0.52653996               -3.65600610                1.39565869                0.08094586               -1.22262802               21.99271310                0.43946511
               9.94955703                9.69208010               24.16679212                0.68374032               -2.10708689               -0.01197913                0.14170453               -1.70940933               11.87920017                0.85976839
              10.94903742                9.60301117               24.03414807                0.88184866                0.05169855                0.09155965               -0.29601435                0.02050952                0.85202484                0.50787407
              11.95059100                9.51536122               23.89143140                0.98671385                0.15535802                0.25326228               -0.76727058                0.06768434                0.36174314               -0.52978424
               1.05623274                0.58574561               25.37518838                1.00000000               -0.34653084               -0.37540696                1.30930071               -0.06517687               -0.83561297                0.86528689
               2.05276743                0.45858906               25.29155779                1.00000000               -0.29116520               -0.29709520                1.05041274               -0.05114377               -1.07211162                0.07537172
               3.05040943                0.33116886               25.20317504                1.00000000               -0.16498648               -0.21887593                0.77810632               -0.04134691               -1.02717514               -0.21038117
               4.04946770                0.20455647               25.12046695                0.62669718                0.27269966               -0.17196481                0.51550200                0.41684880               -0.11976972               -0.70415397
               5.05586343                0.08860132               25.05031179                0.71564863                0.41969665               -0.05636922                0.22316395               -0.08102692                0.31324378                0.20070671
               6.05786163               -0.01922186               24.97684522                0.79853594                0.14926366                0.02674357               -0.05171291               -0.00833275               -0.03413150                0.11446525
               7.05884870               -0.12539765               24.89982492                0.77496246                0.09407825                0.09971924               -0.32465334                0.00530911               -0.23981274               -0.06889240
               8.05974320               -0.23162885               24.82216996                0.86962938                0.11493588                0.18660595               -0.60837395                0.01524724               -0.49196864                0.09219290
               9.06114742               -0.33965936               24.73987895                1.00000000                0.20681084                0.27487576               -0.89165305                0.00373948               -0.82909211                0.49192253
              10.06387942               -0.44909130               24.65529226                1.00000000                0.32673508                0.34576876               -1.16870871               -0.03955090               -0.85692725                0.00675388
              11.06768212               -0.55874593               24.57240973                1.00000000                0.38027050                0.42626846               -1.43341305               -0.05221209               -0.77382056               -0.77965008
               1.18273752                1.58199154               25.34175941                1.00000000               -0.31931473               -0.35696228                1.18568896               -0.02469579               -0.11536756                1.17655056
               2.17954437                1.45561811               25.25777717                1.00000000               -0.28626270               -0.27628793                0.92819015               -0.00726612               -0.09830778                0.10536576
               3.17701226                1.32898010               25.17409629                0.85418016               -0.23122065               -0.19612405                0.66244105                0.01483762                0.10197587               -0.57543764
               4.17491996                1.20283682               25.09408193                0.19188171               -0.50349692               -0.15869062                0.39187356                0.59139387                1.64140867               -1.10685553
               5.16694232                1.08803763               25.04111165                0.35586341               -0.50710797                0.06282883                0.14692500               -0.10898995                2.37823878                0.99493799
               6.16477780                0.98104558               24.97520148                0.45626182               -0.09185164                0.08596466               -0.10744822                0.12460373                1.51153992                0.41333260
               7.16510529                0.87559954               24.90475805                0.34948574                0.11243649                0.07864016               -0.36225855                0.17613021                1.41799121               -0.36373888
               8.16702653                0.77023721               24.83700804                0.48888285                0.24053724                0.18653647               -0.61177334                0.17904947                1.41972428                0.60430118
               9.16991604                0.66308939               24.76677543                1.00000000                0.30003321                0.26516468               -0.86178485                0.08039477                0.72324631                0.72122772
              10.17302719                0.55436639               24.68525781                1.00000000                0.34492992                0.33823509               -1.12507286                0.00301871                0.09099606                0.10006720
              11.17681463                0.44551676               24.60241806                1.00000000                0.37874438                0.41974511               -1.38873624               -0.01041795                0.02314671               -0.92411754
               1.30848568                2.57860636               25.31452269                1.00000000               -0.28521300               -0.32609511                1.07303257               -0.01718611                0.04236619                1.49479835
               2.30563355                2.45306330               25.22456223                1.00000000               -0.24991019               -0.24050893                0.80928153                0.00743388                0.19889927                0.07962960
               3.30348747                2.32724638               25.13768149                0.50260576               -0.16977523               -0.16214163                0.55470530                0.03588950                0.79476436               -1.33739182
               4.30223804                2.20138266               25.05960940                0.00010000               -1.40063005               -0.14171755                0.27336817                0.82747758                4.54972110               -2.01210914
               5.27547487                2.08985790               25.04780335                0.00010000               -1.47231206                0.13409986                0.06873395                1.53696342                5.14995247               -1.25694381
               6.27279180                1.98249744               24.97954658                0.00010000               -0.11475981               -0.07273542               -0.15486672                1.28618907                1.95153661               -0.34525690
               7.27317968                1.87617515               24.90381464                0.00010000                0.15212645               -0.13882092               -0.38280584                1.05235034                3.27314274                0.44412088
               8.27583433                1.77210188               24.86212442                0.00010000                0.27232258               -0.09983341               -0.62271405                0.70195536                3.83444752                0.98911940
               9.27862613                1.66564393               24.79832150                0.50263904                0.28390487                0.25646331               -0.81994696                0.12473215                1.85013704                1.44599997
              10.28151243                1.55767341               24.71714089                1.00000000                0.32734530                0.32307538               -1.07537607                0.01338686                0.66252803                0.64062524
              11.28517304                1.44964897               24.62958089                1.00000000                0.36606063                0.41225578               -1.35320315               -0.00774078                0.34279976               -0.93961585
               1.43347991                3.57546964               25.28744078                1.00000000               -0.24268779               -0.30248092                0.95836412               -0.01394737                0.07214959                1.43973102
               2.43105303                3.45080793               25.19023643                1.00000000               -0.20346067               -0.20944874                0.68765221                0.00762776                0.08924487               -0.03739553
               3.42941070                3.32573727               25.09331837                0.30326179               -0.10975252               -0.12318493                0.42179997               -0.00311298                1.03663046               -1.63063418
               4.42885798                3.20000247               25.01504463                0.00010000               -0.64219411               -0.09828446                0.15121276                0.83756892                4.81542545               -2.69873132
               5.41656681                3.09071963               24.99366163                0.00010000               -1.23368262                0.02970974               -0.00360607                2.21237677                7.20424464               -3.10561507
               6.40418433                2.97959087               24.96279565                0.00010000               -1.00094787               -0.08223212               -0.16849325                1.81622180                6.39615904               -1.05966368
               7.39654786                2.87282312               24.92469632                0.00010000               -0.62937392               -0.16162302               -0.34447098                1.49784669                5.94734934                1.06249288
               8.39159685                2.76824054               24.88464254                0.00010000               -0.48543541               -0.17956433               -0.53135876                1.14972567                5.61711445                1.32175547
               9.38683915                2.66821866               24.83972994                0.24593322               -0.11534832                0.18530281               -0.74250230                0.37822764                3.54339376                2.71379274
              10.38928988                2.56082790               24.75795462                1.00000000                0.29347680                0.29662858               -0.99815285               -0.00744512                0.85832255                1.02914398
              11.39270868                2.45376187               24.65926490                1.00000000                0.34188001                0.41216393               -1.31138400               -0.01193426                0.01438908               -0.65526240
               1.55753014                4.57255674               25.25909538                1.00000000               -0.20116645               -0.27460596                0.83467490               -0.02009926                0.09980577                1.28711198
               2.55551847                4.44887433               25.15464683                0.89608238               -0.16497321               -0.17074129                0.55738550                0.00036169                0.14071481               -0.18864508
               3.55423067                4.32478268               25.05096094                0.18410097               -0.07557083               -0.06875738                0.29107738               -0.04418963                1.15458975               -1.55282876
               4.55400706                4.19941697               24.96677573                0.00010000               -0.70483321                0.05640530                0.00747072                0.64536537                6.18887512               -2.48613817
               5.54013401                4.09045210               24.96371643                0.00010000               -1.34971548                0.08173566               -0.09544990                1.24586674                9.86228437               -1.44654119
               6.52701275                3.98085279               24.95281265                0.00010000               -1.28235338                0.18683370               -0.19101356                1.11097091                9.19018668               -0.43736395
               7.51448694                3.87294269               24.93609648                0.00010000               -1.17897223                0.13100840               -0.30790698                0.95457244                8.76124770                0.70254904
               8.50343330                3.76851059               24.91623583                0.00010000               -1.04418111                0.10566376               -0.44973930                0.88049296                8.64449396                1.84274423
               9.49360332                3.66934999               24.89673864                0.22130687               -0.38064938                0.08234349               -0.62553876                0.36886404                4.71766696                3.25149192
              10.49582032                3.56360598               24.79770713                0.85308605                0.27315434                0.25783492               -0.93230861                0.00216293                0.42185158                1.04792176
              11.49906641                3.45789225               24.69205155                1.00000000                0.32460914                0.41288171               -1.25524858               -0.02039478                0.09465197               -0.46515810
               1.68044275                5.56997752               25.22895243                1.00000000               -0.16084214               -0.23516550                0.70195872               -0.02475137                0.12491411                1.11058170
               2.67883433                5.44739311               25.11725392                0.72540949               -0.12292452               -0.12361822                0.40848172               -0.00639431                0.25449447               -0.40425881
               3.67798426                5.32436212               25.00808877                0.12525335               -0.13692308               -0.01405727                0.12964199                0.00553937                1.75550070               -1.78537700
               4.67609587                5.20113058               24.92640120                0.00010000               -0.89679692                0.29884702               -0.23225600                0.42023396                8.05084710               -1.15418015
               5.66004832                5.09235434               24.94278879                0.00010000               -1.60913579                0.30425724               -0.19686004                0.94137371               12.42474765               -0.62305437
               6.64391315                4.98332754               24.94869248                0.00010000               -1.60334077                0.34390570               -0.21316908                0.69279150               11.67310539                0.06783796
               7.62798151                4.87544329               24.94995149                0.00010000               -1.55568716                0.32312847               -0.27054063                0.54863365               11.36693910                0.91401358
               8.61279941                4.77035381               24.94936490                0.00010000               -1.44302340                0.22025930               -0.35991022                0.53773414               11.33804066                1.88356593
               9.59912104                4.66986553               24.94942509                0.22797531               -0.60042667                0.03781354               -0.47864772                0.23442710                5.88743468                2.87070285
              10.60079088                4.56598460               24.83895858                0.75692173                0.23036001                0.22101683               -0.81765261                0.01389514                0.22338063                1.09116275
              11.60372824                4.46201951               24.72547345                1.00000000                0.29373633                0.40358704               -1.18013063               -0.02108162                0.07785308               -0.44736413
               1.80220393                6.56785343               25.19705771                1.00000000               -0.11979452               -0.18804869                0.56403114               -0.02464250                0.06717106                0.96119951
               2.80100599                6.44640197               25.07729826                0.61873591               -0.07999712               -0.07615135                0.25845585               -0.00616961                0.24314779               -0.58229782
               3.80060399                6.32450153               24.96099992                0.09407669               -0.32932377                0.03759553               -0.03508644                0.15664637                3.42904702               -2.12102813
               4.79441951                6.20539391               24.90495719                0.00010000               -1.19197358                0.47826894               -0.44503532                0.35769783               10.49190647                0.08425248
               5.77676452                6.09653724               24.92935022                0.00010000               -1.83199394                0.51956267               -0.27331921                0.69109862               14.25413731               -0.00753088
               6.75777963                5.98773091               24.94894185                0.00010000               -1.91655860                0.54644778               -0.22420161                0.42512926               13.88069555                0.40532390
               7.73843335                5.87940526               24.96581590                0.00010000               -1.90069447                0.47883427               -0.22816933                0.19654906               13.73512824                1.03474562
               8.71976574                5.77291578               24.98209090                0.00010000               -1.78861340                0.29309210               -0.26610028                0.12135099               13.78759149                1.80316454
               9.70266108                5.67010626               24.99932066                0.24623342               -0.79107497                0.01199216               -0.32842757                0.00880273                7.03727264                2.62413916
              10.70394424                5.56802631               24.87967430                0.70107169                0.19569414                0.18826224               -0.70691541                0.01249394                0.12868978                1.01247121
              11.70657496                5.46596399               24.75845182                1.00000000                0.26307172                0.38030909               -1.09158447               -0.01606086                0.05669009               -0.50009730
               1.92285284                7.56621654               25.16389822                1.00000000               -0.07899995               -0.14026294                0.42683041               -0.02344776                0.02793542                0.87533879
               2.92206284                7.44587008               25.03627936                0.56540215               -0.03637981               -0.03142263                0.11209605               -0.00316449                0.16343473               -0.64563050
               3.92212525                7.32511403               24.91131133                0.07598867               -0.54243617                0.08157920               -0.19891421                0.33958769                5.46088491               -2.29572553
               4.91121412                7.21069596               24.88964224                0.00010000               -1.52959728                0.56728542               -0.46162196                0.53300405               13.27923045                0.27165137
               5.89153330                7.10274560               24.92080002                0.00010000               -2.08331977                0.72493619               -0.30270794                0.59698724               15.89380843                0.29091008
               6.86954772                6.99425650               24.95171091                0.00010000               -2.24028384                0.77859241               -0.21906182                0.22663188               15.87408236                0.54295963
               7.84672762                6.88501997               24.98233077                0.00010000               -2.25111455                0.67187089               -0.18192215               -0.14751227               15.93112986                1.01073699
               8.82452543                6.77621566               25.01393966                0.00010000               -2.12705325                0.38990540               -0.17550316               -0.35651993               16.10746842                1.65425321
               9.80418656                6.67010537               25.04740708                0.27077640               -0.96712048               -0.00932664               -0.19198987               -0.26901996                8.17052367                2.43889225
              10.80518302                6.56974984               24.91943122                0.67379262                0.16725556                0.15754139               -0.59897303                0.00294375                0.07157702                0.90838488
              11.80753167                6.46962569               24.79062256                1.00000000                0.23486466                0.34967105               -1.00591413               -0.01171869                0.03811692               -0.58003918
               2.04242790                8.56504818               25.13024612                1.00000000               -0.03826924               -0.09506851                0.29194705               -0.02247180                0.01008352                0.85458115
               3.04204521                8.44577351               24.99499101                0.56044857                0.00709806                0.01185822               -0.03139383               -0.00035942                0.05742704               -0.65576266
               4.04256987                8.32613312               24.86062237                0.06037336               -0.72985937                0.12107511               -0.35793318                0.53857589                7.39656683               -2.21661786
               5.02744803                8.21673962               24.87214529                0.00010000               -1.87130730                0.69110466               -0.41481091                0.80700290               16.17689715                0.17857176
               6.00514372                8.11103596               24.91346771                0.00010000               -2.37050657                0.95548677               -0.29988812                0.58850404               17.66928573                0.30237338
               6.98003789                8.00330276               24.95489142                0.00010000               -2.58098874                1.01688032               -0.20574226                0.10523017               17.76944723                0.48224183
               7.95352395                7.89284268               24.99795810                0.00010000               -2.62439745                0.94426794               -0.13548823               -0.41612183               18.01709319                0.81965204
               8.92754994                7.78071388               25.04394599                0.01324511               -2.48887265                0.57392882               -0.09201547               -0.89980386               18.38084093                1.37141679
               9.90374649                7.66991972               25.09373520                0.29969133               -1.15335691               -0.02092774               -0.07377782               -0.61634299                9.33208196                2.17863033
              10.90448281                7.57117714               24.95807920                0.67366164                0.14212041                0.13156027               -0.50106464               -0.01176924                0.04388339                0.81339807
              11.90658890                7.47295741               24.82179353                1.00000000                0.21060942                0.31510248               -0.92894047               -0.00767268                0.02221350               -0.67528443
               2.16095273                9.56431517               25.09661877                1.00000000                0.00179818               -0.05330799                0.15959612               -0.02192227               -0.00949591                0.73550496
               3.16097071                9.44610724               24.95370896                0.58559955                0.04889629                0.05454951               -0.17239403                0.00080603                0.07528804               -0.56085791
               4.16193066                9.32753553               24.81243295                0.02443957               -0.92596923                0.15879131               -0.50384161                0.80251733                9.35583285               -1.52614428
               5.14245133                9.22451805               24.85512225                0.00010000               -2.25952069                1.03413987               -0.41073474                0.84437139               18.93441417                0.18933619
               6.11674024                9.12185533               24.90535364                0.00010000               -2.63028564                1.13453950               -0.30645906                0.46721485               19.37704015                0.17446167
               7.08984562                9.01459411               24.95663646                0.00010000               -2.78730923                1.17814073               -0.19987480                0.05342151               19.59060576                0.27596479
               8.06099406                8.90390533               25.01085420                0.00010000               -3.01966547                1.17355168               -0.09899369               -0.43073512               20.00898059                0.46194608
               9.02945231                8.78769423               25.07029311                0.03657297               -2.97988093                1.05635778               -0.00333942               -1.08510482               20.61696375                0.82056933
              10.00139644                8.66968682               25.13655796                0.33049151               -1.37711784               -0.00829242                0.02231985               -1.05125894               10.62952216                1.44088450
              11.00190995                8.57238105               24.99584808                0.69692428                0.12106168                0.11335551               -0.41726538               -0.02870965                0.13293559                0.64507423
              12.00381767                8.47592774               24.85185105                0.98273304                0.19077242                0.28056506               -0.86461506               -0.00692484               -0.01958898               -0.63762294
               2.27840532               10.56398202               25.06051769                1.00000000                0.04356579               -0.03331577                0.02788133                0.03350745                0.40372757                0.61587826
               3.27884098               10.44686450               24.91426726                0.82983002                0.09020442                0.07572588               -0.30876514                0.05337267                0.78185207               -0.46664657
               4.28020941               10.32930894               24.77551648                0.51186270               -1.44126619                0.17734117               -0.63360173                1.35577065               11.21736751               -0.96225939
               5.25001565               10.23742242               24.83796545                0.36606469               -2.78987227                1.29043659               -0.46981437                0.97732303               21.09484479                0.16852678
               6.22441196               10.13372675               24.89567729                0.35668100               -2.54796643                1.18714231               -0.34266549                0.23932956               21.00167822                0.08882782
               7.19905632               10.02686557               24.95581205                0.37362777               -2.63014219                1.22714644               -0.21374546                0.05041858               21.30842549                0.14686350
               8.17180912                9.91631371               25.01937812                0.41520156               -2.94949810                1.24083773               -0.08554238               -0.16972066               21.80572201                0.25051555
               9.14006636                9.80184104               25.08934236                0.52892092               -3.68873098                1.41468073                0.05494643               -1.26658608               22.53810071                0.47007635
              10.09803450                9.66975388               25.16789177                0.68354610               -2.11993327                0.00670574                0.07640559               -1.75603357               12.16129388                0.88545065
              11.09766770                9.57344425               25.03092525                0.87113479                0.06612653                0.10632040               -0.34985897                0.01651662                0.88197990                0.52557497
              12.09935703                9.47856871               24.88356819                0.98658272                0.16893322                0.26409782               -0.80579046                0.06638172                0.37631466               -0.54369469
               1.13272449                0.62851545               26.38825034                1.00000000               -0.34561903               -0.37384814                1.30343382               -0.06450036               -0.85065824                0.87895315
               2.12926830                0.49375693               26.30203711                1.00000000               -0.29148603               -0.29543128                1.04583964               -0.05017001               -1.09408655                0.07995716
               3.12689477                0.35872025               26.21094037                1.00000000               -0.16798428               -0.21713352                0.77538186               -0.04160871               -1.05163048               -0.21046909
               4.12590862                0.22441405               26.12561296                0.62723530                0.25486543               -0.17020162                0.51412854                0.39476122               -0.15508655               -0.72415740
               5.13199208                0.10023673               26.05254410                0.71555809                0.40152432               -0.05690606                0.22409848               -0.08015214                0.26735156                0.21025937
               6.13393910               -0.01612382               25.97633675                0.79778552                0.14842592                0.02610325               -0.04963290               -0.01064499               -0.07272789                0.12079413
               7.13496060               -0.13084068               25.89659249                0.77429851                0.10160158                0.09879493               -0.32220429                0.00374390               -0.28333557               -0.07065640
               8.13597113               -0.24550026               25.81610984                0.86871293                0.12567817                0.18497386               -0.60462524                0.01096635               -0.53973485                0.09720003
               9.13747416               -0.36172358               25.73099731                1.00000000                0.21284677                0.27195490               -0.88590082                0.00069420               -0.87240042                0.50414595
              10.14022807               -0.47920597               25.64365326                1.00000000                0.32698880                0.34350775               -1.16042451               -0.03854735               -0.89021287                0.00682050
              11.14401394               -0.59689504               25.55813184                1.00000000                0.37858683                0.42441996               -1.42355842               -0.05027154               -0.80037632               -0.80342690
               1.26683801                1.62477697               26.35358280                1.00000000               -0.31738066               -0.35581008                1.17912954               -0.02386277               -0.11852508                1.19539267
               2.26366420                1.49080262               26.26703188                1.00000000               -0.28439434               -0.27472108                0.92295738               -0.00631240               -0.10571364                0.11154618
               3.26115012                1.35654891               26.18069951                0.86242478               -0.22831076               -0.19408842                0.65830105                0.01266476                0.08788088               -0.57137060
               4.25909799                1.22271204               26.09798551                0.19821685               -0.48453132               -0.15591282                0.38856479                0.56065175                1.63760824               -1.12434228
               5.25145950                1.09966767               26.04256470                0.36117479               -0.48633144                0.06022588                0.14413762               -0.10653180                2.38739863                1.00308511
               6.24937136                0.98413721               25.97411976                0.46202267               -0.08866187                0.08396779               -0.10862711                0.11391078                1.51778522                0.42377189
               7.24968626                0.87014727               25.90113629                0.35687158                0.10754449                0.08321769               -0.36234173                0.16561209                1.42704412               -0.35682018
               8.25152225                0.75634947               25.83089571                0.49387546                0.23238496                0.18638571               -0.61134231                0.16250925                1.43162099                0.60549236
               9.25433396                0.64099597               25.75817284                1.00000000                0.29530386                0.26335853               -0.85942745                0.07333003                0.72888802                0.73948800
              10.25742833                0.52422911               25.67402979                1.00000000                0.34331677                0.33624195               -1.12129239                0.00372173                0.09018243                0.10396078
              11.26120029                0.40734916               25.58856235                1.00000000                0.37719675                0.41926385               -1.38318264               -0.00858800                0.02258530               -0.95131076
               1.40019594                2.62139925               26.32521457                1.00000000               -0.28258315               -0.32561152                1.06529585               -0.01640336                0.04368178                1.51773800
               2.39737011                2.48826251               26.23262605                1.00000000               -0.24786475               -0.23893445                0.80356623                0.00800817                0.20480594                0.08609842
               3.39523865                2.35483848               26.14320622                0.51501389               -0.16836075               -0.15890550                0.55053494                0.03169165                0.79131346               -1.34109196
               4.39400289                2.22129580               26.06231795                0.00010000               -1.34011881               -0.13798978                0.26817370                0.78611913                4.57079215               -2.02743299
               5.36843627                2.10144125               26.04845783                0.00010000               -1.41325872                0.12310399                0.06310536                1.44749744                5.22099663               -1.24556930
               6.36573772                1.98555553               25.97797809                0.00010000               -0.11878467               -0.07292129               -0.15818771                1.20521352                2.01330248               -0.31381365
               7.36606058                1.87082367               25.89997360                0.00010000                0.13174504               -0.13251805               -0.38538581                0.97927344                3.32629071                0.48780829
               8.36837262                1.75822745               25.85587649                0.00010000                0.25002773               -0.09435517               -0.62801900                0.64918033                3.90431351                1.03840532
               9.37106113                1.64354359               25.79010824                0.50504447                0.27883457                0.25341703               -0.82300802                0.10728920                1.91189892                1.48793847
              10.37394931                1.52751887               25.70638640                1.00000000                0.32704719                0.31965606               -1.07557696                0.00964332                0.68426077                0.66174010
              11.37760207                1.41149023               25.61606204                1.00000000                0.36527625                0.41418737               -1.35060813               -0.00743758                0.35327645               -0.96734222
               1.53278342                3.61826474               26.29698115                1.00000000               -0.23982888               -0.30219029                0.94956421               -0.01368223                0.07686450                1.45688526
               2.53038513                3.48602393               26.19708316                1.00000000               -0.20163787               -0.20751589                0.68167853                0.00782267                0.09672039               -0.03663979
               3.52875067                3.35337080               26.09752374                0.31237498               -0.10837664               -0.11937513                0.41944128               -0.00854999                1.04377966               -1.64529086
               4.52821760                3.21995224               26.01655174                0.00010000               -0.63004796               -0.09427851                0.15098740                0.78463172                4.87667462               -2.72399904
               5.51614971                3.10212975               25.99361043                0.00010000               -1.20621988                0.02057755               -0.00632273                2.07462203                7.32537035               -3.10039742
               6.50409320                2.98267879               25.96108429                0.00010000               -0.97749480               -0.08561527               -0.17370757                1.69357953                6.51607559               -1.01344973
               7.49659981                2.86749691               25.92121176                0.00010000               -0.61536324               -0.16480367               -0.35279397                1.38437676                6.06361657                1.13729315
               8.49178594                2.75446237               25.87927965                0.00010000               -0.47057433               -0.17999874               -0.54162049                1.06937895                5.72331157                1.41910446
               9.48718832                2.64606431               25.83226258                0.24349634               -0.10556976                0.16870247               -0.75059717                0.34187771                3.62356013                2.79201567
              10.48967454                2.53062223               25.74794620                1.00000000                0.29602409                0.29228577               -1.00244419               -0.01509643                0.88742857                1.05730161
              11.49310881                2.41563290               25.64614322                1.00000000                0.34342620                0.41496750               -1.31191846               -0.01093736                0.01423093               -0.67324215
               1.66440392                4.61535544               26.26739351                1.00000000               -0.19834198               -0.27396775                0.82479728               -0.02020106                0.10792509                1.29507073
               2.66242050                4.48411219               26.16018934                0.88718391               -0.16322929               -0.16823617                0.55103834               -0.00013052                0.15452090               -0.20151672
               3.66113933                4.35245098               26.05385969                0.18891433               -0.07419579               -0.06486296                0.28867933               -0.05055368                1.16604824               -1.58188426
               4.66093658                4.21941023               25.96687306                0.00010000               -0.69685827                0.05509555                0.01188636                0.59466701                6.27907039               -2.56412296
               5.64720217                4.10185280               25.96276993                0.00010000               -1.33472145                0.08041968               -0.09400550                1.14749954               10.05192663               -1.45341723
               6.63424215                3.98384323               25.95087756                0.00010000               -1.26188207                0.17829551               -0.19630070                1.01154967                9.38240277               -0.39569479
               7.62196453                3.86752760               25.93296173                0.00010000               -1.15246767                0.11994808               -0.31950918                0.85802675                8.94225927                0.77695537
               8.61119280                3.75462748               25.91165887                0.00010000               -1.01128481                0.09162644               -0.46594735                0.78924554                8.80826129                1.93742095
               9.60173883                3.64691764               25.89038497                0.21762231               -0.35570075                0.05466396               -0.64448945                0.32804890                4.81318659                3.36048227
              10.60407879                3.53336458               25.78831582                0.83330328                0.28115715                0.25290277               -0.94426486                0.00081931                0.44652557                1.09381958
              11.60736197                3.41978958               25.67946329                1.00000000                0.32831871                0.41804536               -1.26063225               -0.02249953                0.11054098               -0.46758555
               1.79486591                5.61278538               26.23591813                1.00000000               -0.15789179               -0.23399586                0.69106135               -0.02489681                0.12640789                1.11137316
               2.79328699                5.48265921               26.12130407                0.71766945               -0.12121758               -0.12050814                0.40138353               -0.00711053                0.26353120               -0.42668656
               3.79244156                5.35207354               26.00937270                0.12834522               -0.12889347               -0.00914399                0.12687345               -0.00776976                1.73617074               -1.83076833
               4.79070912                5.22105415               25.92420213                0.00010000               -0.88874304                0.28827339               -0.20852407                0.36951401                8.17959105               -1.25841071
               5.77466670                5.10373814               25.94086607                0.00010000               -1.60298615                0.30117983               -0.18788216                0.84381185               12.72847027               -0.62123915
               6.75864940                4.98624470               25.94654286                0.00010000               -1.58452981                0.33577393               -0.21715253                0.59649773               11.94540895                0.11362225
               7.74297610                4.86989587               25.94717750                0.00010000               -1.52342927                0.30924438               -0.28481646                0.45236425               11.61845740                0.98852423
               8.72818081                4.75629490               25.94565696                0.00010000               -1.39819519                0.20217495               -0.38209190                0.43999762               11.57436602                1.98110296
               9.71501220                4.64715759               25.94449306                0.22410485               -0.56809149                0.01477639               -0.50768414                0.19081200                6.01812929                2.99278857
              10.71681898                4.53568028               25.83068844                0.73910531                0.23983079                0.21522663               -0.83504780                0.01775108                0.23675348                1.15723358
              11.71980881                4.42399381               25.71361639                1.00000000                0.29898289                0.41209347               -1.18951568               -0.02196416                0.07834809               -0.43426773
               1.92415834                6.61067553               26.20263937                1.00000000               -0.11682130               -0.18636093                0.55218535               -0.02460962                0.06626440                0.95975344
               2.92299013                6.48170203               26.07984837                0.61240248               -0.07846755               -0.07273550                0.25135992               -0.00666921                0.24840639               -0.60302928
               3.92258899                6.35226810               25.96063968                0.09586611               -0.31639318                0.04321088               -0.03732621                0.13276830                3.39298447               -2.16680115
               4.91666226                6.22517570               25.90073786                0.00010000               -1.18505640                0.46509755               -0.39715561                0.28574937               10.67432161                0.08961924
               5.89888786                6.10787640               25.92669987                0.00010000               -1.83239403                0.51249625               -0.25643385                0.58965063               14.66470092                0.02676386
               6.88001438                5.99055871               25.94668706                0.00010000               -1.89631277                0.53591418               -0.22707655                0.32258393               14.22438432                0.46033776
               7.86096161                5.87371249               25.96345330                0.00010000               -1.86416739                0.46395967               -0.24497352                0.09533498               14.05505737                1.10923403
               8.84273104                5.75867097               25.97929621                0.00010000               -1.73959595                0.27614705               -0.29338944                0.01636658               14.09701449                1.89714661
               9.82616969                5.64721316               25.99586116                0.24274978               -0.75667276               -0.00124287               -0.36368002               -0.04164687                7.19802861                2.73807938
              10.82759758                5.53766911               25.87248280                0.68465218                0.20629716                0.18481895               -0.73064942                0.01645742                0.13343327                1.07243872
              11.83029563                5.42803145               25.74746175                1.00000000                0.26980498                0.39000921               -1.10530467               -0.01618870                0.05789213               -0.48284009
               2.05232071                7.60905817               26.16810430                1.00000000               -0.07596783               -0.13799901                0.41422599               -0.02339756                0.02718687                0.87537140
               3.05156103                7.48120450               26.03736624                0.56048083               -0.03487285               -0.02811368                0.10501817               -0.00321388                0.16471675               -0.66284261
               4.05162326                7.35293776               25.90931661                0.07654358               -0.53726118                0.08672052               -0.20040966                0.30681974                5.50095963               -2.33781623
               5.04081581                7.23035610               25.88530305                0.00010000               -1.52732801                0.55567666               -0.40215398                0.44014822               13.54015972                0.39630529
               6.02107670                7.11398807               25.91786965                0.00010000               -2.07754125                0.71282465               -0.28259990                0.49524443               16.32575652                0.35641247
               6.99926499                6.99696298               25.94950406                0.00010000               -2.21530816                0.76566372               -0.22259771                0.12473691               16.27023228                0.60296418
               7.97677053                6.87917506               25.98041807                0.00010000               -2.21287599                0.65729024               -0.20124663               -0.24970519               16.31127593                1.08152019
               8.95500747                6.76181784               26.01202917                0.00010000               -2.07947070                0.37715379               -0.20719658               -0.46274801               16.48119879                1.73892809
               9.93518112                6.64713273               26.04528231                0.26799414               -0.93388120               -0.01201840               -0.23319267               -0.32357401                8.36015183                2.53419465
              10.93632984                6.53937666               25.91328769                0.65793666                0.17896208                0.15876454               -0.62952113                0.00492325                0.07179443                0.96005264
              11.93876036                6.43179400               25.78046604                1.00000000                0.24305179                0.35982769               -1.02485688               -0.01105453                0.03857334               -0.56958369
               2.17939773                8.60791555               26.13310014                1.00000000               -0.03514770               -0.09209853                0.27861373               -0.02244893                0.00959172                0.85694826
               3.17904625                8.48113975               25.99464328                0.55688687                0.00880223                0.01482401               -0.03849451               -0.00002931                0.05558663               -0.67001961
               4.17957378                8.35400251               25.85704188                0.05966213               -0.73156658                0.12450049               -0.35845456                0.49831497                7.53970777               -2.24873582
               5.16441492                8.23628923               25.86826077                0.00010000               -1.86939502                0.68054556               -0.35892668                0.71850826               16.53108831                0.29870201
               6.14218588                8.12213289               25.91054281                0.00010000               -2.35463968                0.94047016               -0.28472962                0.50461107               18.10094898                0.36851639
               7.11732213                8.00587198               25.95280357                0.00010000               -2.55366172                1.00473880               -0.21223613                0.02026816               18.20640373                0.53375823
               8.09111264                7.88685829               25.99650152                0.00010000               -2.59018595                0.93389095               -0.15620862               -0.50622243               18.45147561                0.87854894
               9.06551841                7.76621405               26.04285497                0.01487727               -2.44866269                0.56567994               -0.12656141               -0.99888222               18.80878048                1.45304566
              10.04213939                7.64697280               26.09275236                0.29762821               -1.12418159               -0.01358579               -0.12322346               -0.66975422                9.54771584                2.25216411
              11.04303478                7.54084441               25.95287793                0.65709716                0.15502419                0.13871761               -0.53945597               -0.01180620                0.04393086                0.85182087
              12.04523987                7.43522801               25.81237759                1.00000000                0.22050930                0.32537417               -0.95419228               -0.00633360                0.02260898               -0.67621322
               2.30542332                9.60721620               26.09814604                1.00000000                0.00501680               -0.04955718                0.14552545               -0.02195244               -0.01024760                0.73952599
               3.30547349                9.48150098               25.95195110                0.58261922                0.05083818                0.05711597               -0.17964862                0.00114272                0.07524355               -0.57129239
               4.30644008                9.35542777               25.80739906                0.02246580               -0.92089452                0.16018888               -0.50323221                0.75617514                9.57348462               -1.54308049
               5.28705560                9.24396702               25.85115395                0.00010000               -2.24269594                1.01939348               -0.38256878                0.78469004               19.37540074                0.24477023
               6.26158616                9.13279747               25.90231766                0.00010000               -2.60553246                1.12085236               -0.30114935                0.41889194               19.83626378                0.21172237
               7.23494495                9.01705776               25.95458554                0.00010000               -2.76410738                1.17043472               -0.21091334                0.00451963               20.07225850                0.30488821
               8.20630402                8.89785288               26.00975640                0.00010000               -3.00148151                1.17177756               -0.12058233               -0.48888361               20.50748932                0.49578223
               9.17491532                8.77313144               26.07012030                0.04018767               -2.95741683                1.05809879               -0.02946575               -1.15413743               21.09084792                0.88481684
              10.14715568                8.64686101               26.13648833                0.32925422               -1.35384047                0.00743513               -0.03724769               -1.09598976               10.85865548                1.48247896
              11.14783851                8.54215101               25.99144192                0.67779296                0.13554028                0.12619625               -0.46480686               -0.02968539                0.13765684                0.66812970
              12.14986648                8.43830148               25.84304512                0.98260677                0.20279772                0.29125260               -0.89703745               -0.00537563               -0.01760457               -0.64786683
               2.43038912               10.60692440               26.06072585                1.00000000                0.04684100               -0.02917922                0.01336117                0.03234741                0.40619117                0.62044186
               3.43085753               10.48228207               25.91114447                0.82893077                0.09210585                0.07810985               -0.31643024                0.05249868                0.79072116               -0.47444126
               4.43223124               10.35720629               25.76918522                0.51068491               -1.40592541                0.17785144               -0.63323099                1.29886685               11.47575003               -0.97090078
               5.40273902               10.25667710               25.83329259                0.36641527               -2.73791322                1.27100824               -0.46583472                0.93552523               21.60676213                0.18307125
               6.37747297               10.14454994               25.89224235                0.35686744               -2.51909558                1.17524645               -0.34523196                0.21886004               21.51421177                0.10362312
               7.35235711               10.02928068               25.95359645                0.37343251               -2.61058451                1.22229214               -0.23027327                0.02841181               21.84026507                0.15784923
               8.32526128                9.91029384               26.01839745                0.41449285               -2.94647911                1.24409616               -0.11062494               -0.19950568               22.36479206                0.26497485
               9.29342753                9.78737603               26.08977294                0.53154797               -3.70306329                1.42445865                0.03442822               -1.30739585               23.04894131                0.50966020
              10.25120002                9.64712150               26.16832023                0.68354705               -2.12134636                0.02604871                0.00772974               -1.79595086               12.41137025                0.90688780
              11.25100060                9.54336833               26.02715089                0.86049200                0.08157042                0.12173174               -0.40641199                0.01278756                0.90963722                0.54114438
              12.25283143                9.44105306               25.87531560                0.98640137                0.18308239                0.27515804               -0.84562675                0.06496709                0.39086649               -0.55640833
               1.21164604                0.67265976               27.40125705                1.00000000               -0.34503676               -0.37245919                1.29820017               -0.06382710               -0.86474262                0.89167495
               2.20819568                0.53019867               27.31247459                1.00000000               -0.29225370               -0.29385755                1.04198160               -0.04915797               -1.11471830                0.08459216
               3.20580097                0.38744119               27.21868267                1.00000000               -0.17167203               -0.21543580                0.77349126               -0.04199376               -1.07454398               -0.21034412
               4.20476224                0.24532824               27.13074952                0.62759001                0.23428537               -0.16832506                0.51365677                0.37067550               -0.18839969               -0.74363358
               5.21048668                0.11276531               27.05479376                0.71519493                0.37982272               -0.05797007                0.22687264               -0.07807585                0.22271162                0.21998530
               6.21235869               -0.01237200               26.97585256                0.79684605                0.14611081                0.02516752               -0.04678872               -0.01286279               -0.11200573                0.12745850
               7.21340889               -0.13589839               26.89338083                0.77352270                0.10924953                0.09804143               -0.32040667                0.00190454               -0.32751167               -0.07226497
               8.21454368               -0.25925658               26.81007745                0.86722301                0.13735522                0.18369916               -0.60257900                0.00641626               -0.58675724                0.10137307
               9.21615600               -0.38392750               26.72216093                1.00000000                0.21984756                0.26957264               -0.88235945               -0.00219753               -0.91393781                0.51637532
              10.21894063               -0.50970796               26.63208377                1.00000000                0.32807195                0.34204172               -1.15463119               -0.03732972               -0.92194788                0.00684337
              11.22271744               -0.63567549               26.54393857                1.00000000                0.37768048                0.42358287               -1.41634900               -0.04837376               -0.82598695               -0.82611790
               1.35346886                1.66893517               27.36534200                1.00000000               -0.31554775               -0.35484938                1.17282959               -0.02299155               -0.12168222                1.21309200
               2.35031338                1.52726010               27.27623632                1.00000000               -0.28263061               -0.27323405                0.91807417               -0.00530025               -0.11327283                0.11788637
               3.34781625                1.38528683               27.18726232                0.87107123               -0.22532271               -0.19204417                0.65432661                0.01028798                0.07327857               -0.56620333
               4.34580693                1.24364499               27.10185322                0.20414682               -0.46301041               -0.15302386                0.38475063                0.52694146                1.63351311               -1.14093433
               5.33855604                1.11218561               27.04399441                0.36585956               -0.46225087                0.05677371                0.14264887               -0.10086638                2.39714602                1.01199600
               6.33656191                0.98787967               26.97302894                0.46724007               -0.08429068                0.08143194               -0.10895844                0.10399041                1.52476946                0.43517167
               7.33687023                0.86508203               26.89751122                0.36407822                0.10302437                0.08771197               -0.36291740                0.15494721                1.43619410               -0.34969961
               8.33862240                0.74258041               26.82478119                0.49839218                0.22447420                0.18713093               -0.61228686                0.14642402                1.44367356                0.60419534
               9.34135971                0.61876823               26.74958688                1.00000000                0.29094650                0.26202312               -0.85854116                0.06651205                0.73488196                0.75662215
              10.34444133                0.49371246               26.66283197                1.00000000                0.34207603                0.33498785               -1.11923237                0.00476637                0.08962320                0.10824353
              11.34820123                0.36856034               26.57475440                1.00000000                0.37599024                0.41983748               -1.37948157               -0.00671892                0.02244292               -0.97640462
               1.49453636                2.66556277               27.33582860                1.00000000               -0.27983453               -0.32533857                1.05748674               -0.01566197                0.04477395                1.53951770
               2.49173801                2.52473399               27.24063356                1.00000000               -0.24572594               -0.23741262                0.79795076                0.00844959                0.21028221                0.09298688
               3.48962184                2.38360030               27.14869219                0.52825030               -0.16678631               -0.15544222                0.54678542                0.02676129                0.78571924               -1.34209038
               4.48840228                2.24226776               27.06497287                0.00010000               -1.26935850               -0.13388042                0.26260159                0.73991688                4.58916762               -2.03758082
               5.46423467                2.11390078               27.04906546                0.00010000               -1.34301011                0.11069839                0.06053549                1.34872533                5.29114671               -1.23199351
               6.46154208                1.98925663               26.97638282                0.00010000               -0.12137848               -0.07286304               -0.15984104                1.11488368                2.07543941               -0.28152063
               7.46180710                1.86585585               26.89610693                0.00010000                0.11219393               -0.12505864               -0.38840414                0.89920012                3.37735572                0.53017058
               8.46378596                1.74448604               26.84956404                0.00010000                0.22735461               -0.08700844               -0.63618304                0.59234871                3.97206019                1.08506123
               9.46635419                1.62131296               26.78186134                0.50657200                0.27289425                0.25070089               -0.82704234                0.08949267                1.97415781                1.52808451
              10.46924385                1.49699180               26.69562935                1.00000000                0.32665551                0.31660263               -1.07635412                0.00623928                0.70656710                0.68430585
              11.47288730                1.37272126               26.60256873                1.00000000                0.36434543                0.41677201               -1.34862725               -0.00715181                0.36422997               -0.99099117
               1.63481318                3.66242840               27.30643206                1.00000000               -0.23683399               -0.30207982                0.94057524               -0.01362369                0.08144424                1.47312646
               2.63244484                3.52251184               27.20387000                1.00000000               -0.19977405               -0.20554563                0.67562834                0.00771469                0.10445052               -0.03537383
               3.63081770                3.38217798               27.10170720                0.32116612               -0.10700292               -0.11521345                0.41729017               -0.01491931                1.05122213               -1.65761010
               4.63030479                3.24096738               27.01806438                0.00010000               -0.61380143               -0.08918192                0.15181288                0.72487657                4.93518006               -2.74179957
               5.61854167                3.11439958               26.99353518                0.00010000               -1.17001333                0.01136632               -0.00857284                1.91942061                7.44133972               -3.09050619
               6.60690452                2.98642241               26.95932150                0.00010000               -0.94584242               -0.08881515               -0.17889826                1.55541003                6.63018865               -0.96651994
               7.59962483                2.86258085               26.91764044                0.00010000               -0.59461286               -0.16699007               -0.36196399                1.25807742                6.17413911                1.21029121
               8.59501226                2.74084024               26.87381013                0.00010000               -0.44905116               -0.18021666               -0.55311407                0.97953591                5.82660905                1.51480474
               9.59064380                2.62378224               26.82471800                0.24060906               -0.09272228                0.15080925               -0.75874676                0.30300908                3.70381514                2.86605987
              10.59315782                2.50004451               26.73790574                1.00000000                0.29777360                0.28741659               -1.00418035               -0.02288992                0.91701397                1.08570298
              11.59659927                2.37689578               26.63302653                1.00000000                0.34414585                0.41730540               -1.30991466               -0.01012310                0.01357465               -0.68711111
               1.77409699                4.65952118               27.27559133                1.00000000               -0.19542705               -0.27346396                0.81474460               -0.02051755                0.11604022                1.30219709
               2.77214272                4.52062308               27.16566760                0.87826527               -0.16145363               -0.16557494                0.54453470               -0.00098003                0.16850482               -0.21418735
               3.77086791                4.38129603               27.05673452                0.19312220               -0.07322468               -0.06056144                0.28611929               -0.05735184                1.17931814               -1.60988422
               4.77067822                4.24048412               26.96701346                0.00010000               -0.68499325                0.05650941                0.01551923                0.53608054                6.36829369               -2.62905943
               5.75716805                4.11412811               26.96183632                0.00010000               -1.31046078                0.08000200               -0.09302598                1.03657688               10.23336427               -1.45273405
               6.74446901                3.98748033               26.94888664                0.00010000               -1.23086176                0.16840407               -0.20227791                0.89966626                9.56401547               -0.35144223
               7.73255081                3.86251605               26.92970629                0.00010000               -1.11468596                0.10706744               -0.33218564                0.75065522                9.11325995                0.85112309
               8.72217529                3.74088171               26.90691688                0.00010000               -0.96703565                0.07491476               -0.48316064                0.68860044                8.96390887                2.02959417
               9.71321010                3.62432915               26.88384885                0.21356967               -0.32513884                0.02314317               -0.66228533                0.28333843                4.90671661                3.46288941
              10.71567251                3.50274013               26.77882183                0.81357679                0.28861017                0.24588911               -0.95173824               -0.00084869                0.47276805                1.13823463
              11.71898230                3.38106737               26.66683891                1.00000000                0.33097933                0.42199532               -1.26123438               -0.02527482                0.12634404               -0.46706578
               1.91219903                5.65695912               27.24277365                1.00000000               -0.15486427               -0.23294224                0.68001652               -0.02516494                0.12755117                1.11129396
               2.91065038                5.51920035               27.12528159                0.70992814               -0.11947034               -0.11719347                0.39401234               -0.00806361                0.27244131               -0.44881482
               3.90980962                5.38096676               27.01062624                0.13076705               -0.12280324               -0.00372144                0.12360740               -0.01982511                1.72774341               -1.87486175
               4.90819432                5.24209757               26.92223072                0.00010000               -0.87663086                0.28006262               -0.18720556                0.31001965                8.31057727               -1.33838109
               5.89227700                5.11599962               26.93903115                0.00010000               -1.58422073                0.29704178               -0.17937512                0.73171072               13.01440538               -0.60971793
               6.87650991                4.98979049               26.94434943                0.00010000               -1.55202233                0.32480654               -0.22207308                0.48837356               12.20103140                0.16275358
               7.86123656                4.86472220               26.94425516                0.00010000               -1.47693664                0.29166627               -0.30033822                0.34612868               11.85517822                1.06322603
               8.84697117                4.74233854               26.94172306                0.00010000               -1.33922062                0.18023962               -0.40520606                0.33228925               11.79686638                2.07664592
               9.83445214                4.62424511               26.93927141                0.21982959               -0.52842760               -0.01252735               -0.53660894                0.14243578                6.14382281                3.11066316
              10.83640262                4.50496229               26.82225763                0.72121924                0.24935804                0.20678519               -0.84956042                0.02151958                0.25201619                1.22164403
              11.83943931                4.38533569               26.70168314                1.00000000                0.30366845                0.41950873               -1.19542522               -0.02303106                0.07842952               -0.41884270
               2.04911123                6.65486233               27.20810142                1.00000000               -0.11374262               -0.18479565                0.54015181               -0.02462873                0.06529530                0.95740795
               3.04797381                6.51827921               27.08232546                0.60604144               -0.07685219               -0.06910152                0.24389752               -0.00731184                0.25361736               -0.62314697
               4.04757419                6.38122161               26.96025340                0.09694765               -0.30640259                0.04943734               -0.04022018                0.11020891                3.38060552               -2.21069453
               5.04184575                6.24608538               26.89701407                0.00010000               -1.17324240                0.45007898               -0.34692955                0.20586466               10.86209369                0.11629613
               6.02410934                6.12006895               26.92422154                0.00010000               -1.81659299                0.50156476               -0.23925557                0.47307523               15.04414648                0.06846797
               7.00551389                5.99397646               26.94440032                0.00010000               -1.85919994                0.52043913               -0.23086643                0.20872352               14.54525603                0.51779828
               7.98692534                5.86834937               26.96091643                0.00010000               -1.81078634                0.44399787               -0.26313179               -0.01492459               14.35597743                1.18422836
               8.96929817                5.74448650               26.97622312                0.00010000               -1.67451411                0.25484593               -0.32174328               -0.09783903               14.38922247                1.99025842
               9.95343506                5.62407860               26.99204706                0.23885279               -0.71429219               -0.01735192               -0.39914625               -0.09658690                7.35115294                2.85055445
              10.95501232                5.50687584               26.86506131                0.66805410                0.21699211                0.17967352               -0.75298629                0.02057516                0.13903045                1.13103828
              11.95777490                5.38945754               26.73634573                1.00000000                0.27625780                0.39912444               -1.11725266               -0.01647212                0.05876861               -0.46346934
               2.18487270                7.65326320               27.17218274                1.00000000               -0.07278236               -0.13584625                0.40129904               -0.02337758                0.02643102                0.87452182
               3.18414487                7.51781831               27.03837972                0.55537767               -0.03325328               -0.02454706                0.09744938               -0.00331533                0.16601199               -0.67953126
               4.18420763                7.38195550               26.90730314                0.07633137               -0.53403004                0.09271676               -0.20259135                0.27265867                5.57106503               -2.37797343
               5.17346427                7.25109915               26.88159916                0.00010000               -1.51801051                0.53886923               -0.33692359                0.33992626               13.80763101                0.52604424
               6.15384742                7.12603091               26.91514802                0.00010000               -2.05301625                0.69446638               -0.26191557                0.38053470               16.71936944                0.42259885
               7.13240395                7.00019927               26.94725895                0.00010000               -2.17096955                0.74599863               -0.22712040                0.01323048               16.63998180                0.66371608
               8.11042803                6.87360216               26.97830583                0.00010000               -2.15593904                0.63629744               -0.22195145               -0.35935535               16.66951982                1.15393823
               9.08928517                6.74743546               27.00979573                0.00010000               -2.01484809                0.35985864               -0.23997534               -0.57637750               16.83466695                1.82433080
              10.07013107                6.62389807               27.04274322                0.26488010               -0.89249928               -0.01608097               -0.27459360               -0.38184511                8.53916929                2.62725741
              11.07143518                6.50855577               26.90684080                0.64183524                0.19076901                0.15917497               -0.65948016                0.00719898                0.07145012                1.01042603
              12.07394645                6.39331817               26.77012543                1.00000000                0.25112676                0.36982632               -1.04296548               -0.01041608                0.03876378               -0.55731802
               2.31953346                8.65214541               27.13581840                1.00000000               -0.03182583               -0.08916096                0.26476467               -0.02246565                0.00913361                0.85845598
               3.31921520                8.51778827               26.99422112                0.55295811                0.01065342                0.01809476               -0.04625767                0.00041084                0.05402796               -0.68392978
               4.31974653                8.38307594               26.85345328                0.05811542               -0.73231660                0.12875429               -0.35968736                0.45321794                7.71002772               -2.27895210
               5.30456887                8.25686276               26.86496676                0.00010000               -1.85633100                0.66412459               -0.30066458                0.62294013               16.88927723                0.40254111
               6.28261991                8.13395827               26.90777312                0.00010000               -2.31808059                0.91796617               -0.27021048                0.41100876               18.49503527                0.42947295
               7.25820726                8.00889644               26.95064670                0.00010000               -2.50589277                0.98498562               -0.22003797               -0.07174233               18.61829630                0.58502743
               8.23250205                7.88107532               26.99483392                0.00010000               -2.53662749                0.91614414               -0.17782070               -0.60158516               18.86289554                0.94069005
               9.20747471                7.75168367               27.04141477                0.01653689               -2.39121023                0.55185697               -0.16170978               -1.10330911               19.21135119                1.54319938
              10.18467785                7.62375698               27.09127073                0.29543768               -1.08692553               -0.00647688               -0.17305450               -0.72537390                9.74818148                2.32114308
              11.18573620                7.51005933               26.94729008                0.64032633                0.16819568                0.14574603               -0.57825092               -0.01158952                0.04265217                0.88804170
              12.18804176                7.39685407               26.80270968                1.00000000                0.23055645                0.33571098               -0.97966593               -0.00488986                0.02278810               -0.67591436
               2.45313766                9.65147999               27.09952928                1.00000000                0.00848947               -0.04570881                0.13076088               -0.02205526               -0.01096014                0.74290419
               3.45322256                9.51818021               26.95011599                0.57895203                0.05299182                0.06003341               -0.18782780                0.00157158                0.07591433               -0.58166071
               4.45419750                9.38453059               26.80236831                0.01972894               -0.90909066                0.16213407               -0.50323583                0.70155932                9.80260949               -1.55889030
               5.43504074                9.26438164               26.84747087                0.00010000               -2.20817875                0.99718990               -0.35692850                0.71922699               19.81353791                0.27540192
               6.41003392                9.14439024               26.89933065                0.00010000               -2.55943454                1.09957866               -0.29791073                0.36448870               20.26941776                0.24424044
               7.38385205                9.01989899               26.95241819                0.00010000               -2.72124150                1.15521543               -0.22372244               -0.04829649               20.53267950                0.33365276
               8.35560909                8.89192504               27.00844255                0.00010000               -2.96573620                1.16278875               -0.14235736               -0.54999901               20.98925299                0.53265421
               9.32453733                8.75847260               27.06970379                0.04410721               -2.91805832                1.05226389               -0.05161034               -1.22544050               21.53189728                0.96253039
              10.29724793                8.62376853               27.13581301                0.32822560               -1.32155126                0.02354293               -0.09833060               -1.13978997               11.06059515                1.51879662
              11.29810630                8.51147069               26.98655194                0.65868825                0.15056289                0.13949342               -0.51397365               -0.03036292                0.14079950                0.68847952
              12.30025918                8.40003239               26.83391030                0.98221668                0.21528813                0.30227616               -0.93081657               -0.00367025               -0.01546249               -0.65711379
               2.58569190               10.65123123               27.06078492                1.00000000                0.05041254               -0.02487554               -0.00195461                0.03119500                0.40818790                0.62456322
               3.58619603               10.51898894               26.90793866                0.82743460                0.09421899                0.08087259               -0.32536900                0.05171708                0.79984710               -0.48232588
               4.58757628               10.38631862               26.76285186                0.50912110               -1.35511342                0.17880341               -0.63403863                1.22875988               11.73249786               -0.97897451
               5.55909376               10.27680656               26.82864876                0.36674497               -2.65919745                1.24249187               -0.46534059                0.88686316               22.10920440                0.17683109
               6.53439234               10.15594985               26.88877265                0.35705435               -2.46936198                1.15596113               -0.35070678                0.19555057               22.00886373                0.11631632
               7.50970652               10.03200074               26.95120658                0.37323534               -2.57319357                1.21017570               -0.24914862                0.00450962               22.35255087                0.16948814
               8.48292846                9.90433110               27.01716562                0.41376612               -2.92920568                1.24060568               -0.13596746               -0.23165263               22.91310711                0.28222918
               9.45112241                9.77272895               27.09003092                0.53440231               -3.70222527                1.42563524                0.02098339               -1.34665487               23.52291736                0.56183018
              10.40888396                9.62422784               27.16804636                0.68373019               -2.11286664                0.04593083               -0.06374046               -1.83038398               12.62377514                0.92338584
              11.40886508                9.51284920               27.02279701                0.84993981                0.09804911                0.13785173               -0.46585123                0.00946498                0.93462314                0.55413414
              12.41084494                9.40289959               26.86665565                0.98617757                0.19798651                0.28671981               -0.88781514                0.06361459                0.40541399               -0.56787973
               1.29299457                0.71817905               28.41421435                1.00000000               -0.34462561               -0.37117876                1.29340890               -0.06325805               -0.87766741                0.90333284
               2.28954831                0.56792531               28.32287674                1.00000000               -0.29328079               -0.29239299                1.03864541               -0.04823618               -1.13365643                0.08934065
               3.28712895                0.41735408               28.22641019                1.00000000               -0.17593911               -0.21387485                0.77247573               -0.04258239               -1.09535683               -0.20998597
               4.28602953                0.26733398               28.13588610                0.62761083                0.21071578               -0.16639827                0.51461150                0.34471602               -0.21874589               -0.76288197
               5.29134327                0.12623515               28.05708155                0.71467926                0.35411928               -0.05992598                0.23170163               -0.07472598                0.17943697                0.23058121
               6.29311192               -0.00792740               27.97540097                0.79622216                0.14211021                0.02377839               -0.04330583               -0.01529382               -0.15301589                0.13479663
               7.29418547               -0.14054676               27.89018435                0.77304088                0.11719856                0.09739385               -0.31885196               -0.00040351               -0.37318255               -0.07396352
               8.29545589               -0.27288028               27.80405826                0.86518615                0.15018063                0.18270834               -0.60135858                0.00135648               -0.63370573                0.10434490
               9.29718909               -0.40624797               27.71335012                1.00000000                0.22777943                0.26759735               -0.88017093               -0.00508681               -0.95428304                0.52840812
              10.30001148               -0.54056549               27.62056063                1.00000000                0.32977618                0.34138915               -1.15055663               -0.03587635               -0.95270935                0.00627594
              11.30378461               -0.67504907               27.52980486                1.00000000                0.37731333                0.42399735               -1.41108327               -0.04639096               -0.85125408               -0.84876182
               1.44261573                1.71446726               28.37703939                1.00000000               -0.31372966               -0.35397498                1.16676677               -0.02224120               -0.12488408                1.22960564
               2.43947843                1.56500138               28.28539336                1.00000000               -0.28084698               -0.27183699                0.91336249               -0.00440346               -0.12111897                0.12447184
               3.43699879                1.41521533               28.19378604                0.88037979               -0.22211381               -0.19011458                0.65041798                0.00766922                0.05787714               -0.55964134
               4.43503616                1.26567000               28.10568052                0.20935018               -0.43860454               -0.15004791                0.38054872                0.49019977                1.63014754               -1.15655205
               5.42822670                1.12563589               28.04541768                0.36998350               -0.43431127                0.05127280                0.14369742               -0.09268149                2.40890120                1.02377277
               6.42634993                0.99231039               27.97194059                0.47244575               -0.07844091                0.07799771               -0.10788768                0.09422087                1.53224411                0.44825169
               7.42665788                0.86042718               27.89387794                0.37154549                0.09850637                0.09223089               -0.36379794                0.14387077                1.44469597               -0.34295049
               8.42832006                0.72894680               27.81864997                0.50255295                0.21614708                0.18900143               -0.61462014                0.13021728                1.45554347                0.59898153
               9.43098082                0.59642800               27.74100201                1.00000000                0.28666025                0.26110643               -0.85920181                0.05957412                0.74096580                0.77214053
              10.43405327                0.46284840               27.65164515                1.00000000                0.34117281                0.33483536               -1.11912735                0.00623403                0.08901245                0.11223749
              11.43780428                0.32919090               27.56097272                1.00000000                0.37510149                0.42236764               -1.37810170               -0.00458449                0.02257157               -1.00063902
               1.59148151                2.71109955               28.34636430                1.00000000               -0.27693434               -0.32513583                1.04982124               -0.01506338                0.04543579                1.56027235
               2.58871217                2.56248857               28.24858506                1.00000000               -0.24339000               -0.23594830                0.79215789                0.00864090                0.21515086                0.10045860
               3.58661371                2.41355179               28.15414193                0.54253400               -0.16495998               -0.15195340                0.54305613                0.02132001                0.77770020               -1.33999934
               4.58541297                2.26433303               28.06756998                0.00010000               -1.18822296               -0.12971670                0.25690226                0.68829401                4.60721852               -2.04182110
               5.56284925                2.12726061               28.04966854                0.00010000               -1.26039634                0.09564380                0.06322626                1.23961041                5.36262422               -1.21584092
               6.56020504                1.99363256               27.97478127                0.00010000               -0.12113888               -0.07329069               -0.16031127                1.01395166                2.13769301               -0.24839598
               7.56042648                1.86129786               27.89220551                0.00010000                0.09271845               -0.11619082               -0.39241577                0.81016379                3.42564198                0.57037313
               8.56205941                1.73089974               27.84315283                0.00010000                0.20262475               -0.07705886               -0.64795865                0.52984011                4.03786972                1.12857167
               9.56447897                1.59897416               27.77356739                0.50719005                0.26569241                0.24849955               -0.83282901                0.07098289                2.03819256                1.56597984
              10.56737326                1.46613121               27.68485932                1.00000000                0.32644717                0.31477031               -1.07925515                0.00385717                0.72979770                0.70894704
              11.57100792                1.33339828               27.58908949                1.00000000                0.36346543                0.42148037               -1.34942823               -0.00657198                0.37631810               -1.01008754
               1.73953643                3.70796454               28.31579265                1.00000000               -0.23374179               -0.30208778                0.93176939               -0.01367980                0.08568695                1.48875507
               2.73719901                3.56028241               28.21059572                1.00000000               -0.19778472               -0.20358541                0.66942252                0.00734776                0.11223866               -0.03335886
               3.73558073                3.41217627               28.10586955                0.32958588               -0.10528928               -0.11087713                0.41479372               -0.02203098                1.05905401               -1.66748046
               4.73509322                3.26307567               28.01958800                0.00010000               -0.59306775               -0.08351636                0.15208608                0.65800934                4.99089974               -2.75184281
               5.72371938                3.12754877               27.99343898                0.00010000               -1.12507557                0.00207705               -0.01091867                1.74579622                7.55111782               -3.07675947
               6.71259171                2.99084457               27.95750633                0.00010000               -0.90627033               -0.09230507               -0.18451907                1.40010236                6.73782070               -0.91982979
               7.70559397                2.85810337               27.91397248                0.00010000               -0.56755731               -0.16812576               -0.37220664                1.11670269                6.27839152                1.28108470
               8.70124057                2.72740562               27.86821737                0.00010000               -0.42124783               -0.17966614               -0.56623026                0.87818190                5.92656107                1.60953627
               9.69716901                2.60139799               27.81708764                0.23732002               -0.07671388                0.13239279               -0.76975256                0.26137079                3.78523742                2.93580432
              10.69970629                2.46914380               27.72786259                1.00000000                0.29848469                0.28230878               -1.00373099               -0.03033301                0.94910837                1.11562439
              11.70313871                2.33762051               27.61994492                1.00000000                0.34324200                0.41966944               -1.30396406               -0.00998986                0.01326708               -0.69435853
               1.88657218                4.70505779               28.28368840                1.00000000               -0.19247820               -0.27316826                0.80487842               -0.02086150                0.12404932                1.30877395
               2.88464740                4.55841686               28.17108003                0.86933779               -0.15961736               -0.16286793                0.53792598               -0.00196615                0.18247839               -0.22644234
               3.88337984                4.41133425               28.05958207                0.19664578               -0.07233725               -0.05594149                0.28304301               -0.06437986                1.19373485               -1.63668264
               4.88320066                4.26266270               27.96718345                0.00010000               -0.66917819                0.06051239                0.01642282                0.46952185                6.45418467               -2.67869568
               5.86999627                4.12730215               27.96090941                0.00010000               -1.27740822                0.08048991               -0.09272540                0.91202356               10.40561372               -1.44387469
               6.85765249                3.99178646               27.94683200                0.00010000               -1.18983958                0.15707549               -0.20942874                0.77437514                9.73449066               -0.30500986
               7.84619948                3.85793535               27.92631801                0.00010000               -1.06620352                0.09234430               -0.34621225                0.63160146                9.27397773                0.92472976
               8.83632842                3.72730642               27.90199566                0.00010000               -0.91156371                0.05579799               -0.50206187                0.57739958                9.11181632                2.11950224
               9.82796821                3.60162201               27.87713926                0.20915982               -0.28921671               -0.01126803               -0.68145151                0.23280207                5.00088893                3.55903857
              10.83054409                3.47177739               27.76928106                0.79394736                0.29432517                0.23649431               -0.95087252               -0.00445265                0.50225128                1.17987570
              11.83385471                3.34179167               27.65423860                1.00000000                0.33106226                0.42448144               -1.25397441               -0.02918832                0.14129274               -0.46348259
               2.03240106                5.70250118               28.24951846                1.00000000               -0.15178359               -0.23215970                0.66906751               -0.02541366                0.12833164                1.11050499
               3.03088323                5.55702505               28.12918432                0.70216868               -0.11768852               -0.11379509                0.38650095               -0.00903242                0.28116056               -0.47054492
               4.03004729                5.41105744               28.01184485                0.13250604               -0.11837341                0.00215310                0.11992433               -0.03032450                1.72902259               -1.91756974
               5.02851576                5.26428591               27.92045802                0.00010000               -0.86056018                0.27352399               -0.16791258                0.24182317                8.44292870               -1.38963342
               6.01283609                5.12915857               27.93727857                0.00010000               -1.55348724                0.29133679               -0.17155383                0.60442194               13.28314876               -0.58780153
               6.99744602                4.99398608               27.94210140                0.00010000               -1.50650288                0.31093484               -0.22837939                0.36819050               12.43964503                0.21498640
               7.98270603                4.85995025               27.94117074                0.00010000               -1.41720635                0.27055159               -0.31747546                0.22971891               12.07724360                1.13801055
               8.96910189                4.72852158               27.93755284                0.00010000               -1.26759721                0.15485286               -0.42955591                0.21394060               12.00627936                2.17057300
               9.95735409                4.60117263               27.93376088                0.21511375               -0.48271541               -0.04347877               -0.56543540                0.08692271                6.26613281                3.22493955
              10.95944758                4.47387369               27.81369723                0.70319548                0.25861465                0.19646583               -0.86194367                0.02364696                0.26997661                1.28295001
              11.96252638                4.34611014               27.68970788                1.00000000                0.30788015                0.42640534               -1.20016078               -0.02398268                0.07813301               -0.40268276
               2.17701616                6.70041460               28.21344241                1.00000000               -0.11056693               -0.18347778                0.52802152               -0.02464860                0.06427973                0.95418086
               3.17591049                6.55614096               28.08472632                0.59962645               -0.07518407               -0.06534197                0.23619051               -0.00798194                0.25876716               -0.64261478
               4.17551248                6.41137731               27.95983528                0.09735812               -0.29872516                0.05604851               -0.04346801                0.08850235                3.39296655               -2.25276373
               5.16993599                6.26813318               27.89379927                0.00010000               -1.15639696                0.43191936               -0.29487498                0.11796817               11.05554759                0.16817887
               6.15238454                6.13312888               27.92191476                0.00010000               -1.78556878                0.48649518               -0.22249911                0.34200872               15.39147065                0.11772311
               7.13422462                5.99800515               27.94206973                0.00010000               -1.80630920                0.50024211               -0.23620268                0.08391430               14.84285173                0.57755324
               8.11625836                5.86334638               27.95819066                0.00010000               -1.74198821                0.41930401               -0.28301233               -0.13417757               14.63820184                1.25979434
               9.09938485                5.73040348               27.97286134                0.00010000               -1.59519028                0.22956125               -0.35120830               -0.22162067               14.66514318                2.08292723
              10.08435455                5.60075244               27.98787824                0.23447261               -0.66526637               -0.03592114               -0.43456663               -0.15657169                7.49802974                2.96261620
              11.08607952                5.47570671               27.85742307                0.65113934                0.22738049                0.17413581               -0.77404573                0.02481986                0.14633119                1.18871254
              12.08890216                5.35031977               27.72511670                1.00000000                0.28226392                0.40867730               -1.12868668               -0.01669298                0.05939420               -0.44200472
               2.32045538                7.69883162               28.17613028                1.00000000               -0.06944991               -0.13382358                0.38803373               -0.02340105                0.02568263                0.87271612
               3.31976088                7.55571821               28.03931523                0.55020664               -0.03151287               -0.02080310                0.08947148               -0.00358922                0.16731852               -0.69567899
               4.31982512                7.41217841               27.90526478                0.07539456               -0.53186632                0.09904942               -0.20527538                0.23611461                5.67324829               -2.41624375
               5.30912355                7.27292430               27.87856458                0.00010000               -1.50104143                0.51675780               -0.26996881                0.23273506               14.08274839                0.65901725
               6.28980429                7.13888847               27.91263133                0.00010000               -2.01083718                0.67054165               -0.24243320                0.25443616               17.07267432                0.48832710
               7.26890681                7.00399092               27.94496165                0.00010000               -2.10900678                0.72040708               -0.23354069               -0.10747521               16.98299026                0.72500052
               8.24762416                6.86833633               27.97597904                0.00010000               -2.08216965                0.60944985               -0.24445772               -0.47669973               17.00627161                1.22843963
               9.22726341                6.73311281               28.00722966                0.00010000               -1.93523628                0.33832470               -0.27377833               -0.69791718               17.16893677                1.91120903
              10.20891943                6.60045421               28.03979044                0.26133915               -0.84433865               -0.02132811               -0.31554870               -0.44416288                8.70864972                2.71913952
              11.21037664                6.47735641               27.90009809                0.62541056                0.20234766                0.15936962               -0.68851338                0.00994072                0.07100373                1.05977950
              12.21296638                6.35428368               27.75960673                1.00000000                0.25897411                0.38025346               -1.06098065               -0.00955860                0.03888781               -0.54306412
               2.46277496                8.69773813               28.13839543                1.00000000               -0.02830381               -0.08619322                0.25031754               -0.02255658                0.00870106                0.85906491
               3.46249193                8.55572489               27.99371813                0.54869059                0.01268602                0.02160048               -0.05461029                0.00060219                0.05268124               -0.69756396
               4.46302868                8.41335830               27.84984814                0.05580613               -0.73056476                0.13364901               -0.36164474                0.40278519                7.90715557               -2.30755802
               5.44788063                8.27846833               27.86224748                0.00010000               -1.83110203                0.64343759               -0.24828142                0.52109385               17.25314863                0.48495018
               6.42640664                8.14653972               27.90513860                0.00010000               -2.26266910                0.88971384               -0.25866321                0.30839368               18.85197587                0.48378062
               7.40262725                8.01241329               27.94840281                0.00010000               -2.44020807                0.95900003               -0.23027432               -0.17122564               19.00559031                0.63579298
               8.37760248                7.87553537               27.99294510                0.00010000               -2.46593098                0.89189674               -0.20085167               -0.70320014               19.25200578                1.00695124
               9.35330863                7.73716997               28.03962077                0.01813816               -2.31873923                0.53265416               -0.19742903               -1.21450527               19.58932047                1.64505733
              10.33122770                7.60032588               28.08929127                0.29304223               -1.04298807                0.00035496               -0.22233616               -0.78379378                9.93381512                2.38599288
              11.33244887                7.47889410               27.94131291                0.62335866                0.18143706                0.15286356               -0.61725591               -0.01102373                0.03993612                0.92193844
              12.33485644                7.35792484               27.79278427                1.00000000                0.24075713                0.34647755               -1.00619941               -0.00321882                0.02272740               -0.67444684
               2.60403071                9.69710776               28.10076125                1.00000000                0.01220392               -0.04168634                0.11519064               -0.02223169               -0.01166471                0.74573800
               3.60415275                9.55615022               27.94819454                0.57415610                0.05533369                0.06326622               -0.19684587                0.00196160                0.07748974               -0.59218797
               4.60513738                9.41485139               27.79733435                0.01632754               -0.88943689                0.16506942               -0.50460783                0.63926193               10.04105864               -1.57447389
               5.58636401                9.28579305               27.84401538                0.00010000               -2.15550894                0.96948072               -0.33996159                0.64765240               20.24860202                0.27925704
               6.56202720                9.15668275               27.89635945                0.00010000               -2.49386871                1.07262708               -0.29902088                0.30318275               20.67819298                0.27130698
               7.53648664                9.02317093               27.95011109                0.00010000               -2.66118655                1.13401795               -0.23958351               -0.10602839               20.97289977                0.36211087
               8.50880347                8.88617427               28.00690925                0.00010000               -2.91519145                1.14784545               -0.16505136               -0.61542163               21.45720940                0.57331127
               9.47818281                8.74376589               28.06908809                0.04827023               -2.86420218                1.03941962               -0.06954170               -1.30082242               21.93963471                1.05828537
              10.45151943                8.60046131               28.13452172                0.32735499               -1.28128041                0.03983138               -0.15985670               -1.18352395               11.23250836                1.54951039
              11.45255720                8.48041368               27.98116245                0.63963841                0.16605419                0.15333899               -0.56464970               -0.03065845                0.14212952                0.70587929
              12.45484051                8.36121323               27.82442879                0.98152020                0.22833140                0.31399629               -0.96690341               -0.00174504               -0.01321065               -0.66529202
               2.74424540               10.69690440               28.06068676                1.00000000                0.05421255               -0.02033584               -0.01820692                0.03005133                0.40967319                0.62845500
               3.74478753               10.55699022               27.90463709                0.82481866                0.09628436                0.08399973               -0.33542719                0.05124245                0.80949440               -0.49068998
               4.74617109               10.41665969               27.75650444                0.50716684               -1.28926044                0.18083006               -0.63713906                1.14675726               11.98688984               -0.98793265
               5.71900232               10.29785795               27.82398578                0.36706520               -2.55393317                1.20648947               -0.47036194                0.83045948               22.60052629                0.15046584
               6.69509243               10.16799226               27.88522821                0.35723181               -2.39935800                1.13095126               -0.36120971                0.16830753               22.48590344                0.12661143
               7.67101516               10.03509365               27.94861348                0.37303532               -2.51966711                1.19227277               -0.27168039               -0.02214636               22.84623722                0.18183374
               8.64469908                9.89849228               28.01567810                0.41301608               -2.90050114                1.23180173               -0.16248287               -0.26720321               23.45512367                0.30297093
               9.61300514                9.75795837               28.09019261                0.53746232               -3.68948262                1.41924752                0.01460034               -1.38625600               23.95856310                0.63071402
              10.57090943                9.60112250               28.16704542                0.68409179               -2.09606807                0.06611939               -0.13733342               -1.86087411               12.79321704                0.93444250
              11.57108378                9.48196088               28.01783386                0.83952671                0.11564967                0.15472005               -0.52837346                0.00677096                0.95669022                0.56425439
              12.57322243                9.36420477               27.85755929                0.98591393                0.21386500                0.29915369               -0.93363699                0.06258052                0.42002481               -0.57789752
               1.37676791                0.76507633               29.42712523                1.00000000               -0.34412056               -0.36990032                1.28868450               -0.06287453               -0.88949238                0.91412606
               2.37332670                0.60695225               29.33324749                1.00000000               -0.29417170               -0.29110360                1.03545940               -0.04756337               -1.15060972                0.09411977
               3.37088447                0.44848976               29.23413219                1.00000000               -0.18053733               -0.21275029                0.77211408               -0.04330861               -1.11320722               -0.20918132
               4.36971596                0.29048176               29.14104175                0.62697886                0.18380349               -0.16516991                0.51758786                0.31697471               -0.24513554               -0.78115515
               5.37456054                0.14070468               29.05942780                0.71450181                0.32398081               -0.06306007                0.23726335               -0.07050910                0.13663598                0.24265647
               6.37619557               -0.00275531               28.97498645                0.79664657                0.13637035                0.02197185               -0.03968592               -0.01838013               -0.19600614                0.14240474
               7.37728795               -0.14476484               28.88700379                0.77330361                0.12541141                0.09666925               -0.31649733               -0.00320740               -0.41983848               -0.07593861
               8.37870380               -0.28635310               28.79805028                0.86269394                0.16400084                0.18185758               -0.59945290               -0.00437484               -0.68074151                0.10587923
               9.38056797               -0.42866313               28.70455751                1.00000000                0.23639544                0.26568922               -0.87786277               -0.00832993               -0.99385465                0.54018254
              10.38343171               -0.57175146               28.60907264                1.00000000                0.33179709                0.34099838               -1.14684886               -0.03424914               -0.98285795                0.00474027
              11.38720391               -0.71498645               28.51571690                1.00000000                0.37722005                0.42493681               -1.40665733               -0.04413689               -0.87654512               -0.87227923
               1.53426324                1.76137733               29.38867734                1.00000000               -0.31188919               -0.35306864                1.16102045               -0.02182909               -0.12819533                1.24517006
               2.53114435                1.60404121               29.29450357                1.00000000               -0.27883058               -0.27057253                0.90877475               -0.00391848               -0.12946679                0.13115372
               3.52868663                1.44636226               29.20027067                0.89131307               -0.21830537               -0.18864763                0.64639161                0.00476468                0.04128472               -0.55140629
               4.52677824                1.28883006               29.10946420                0.21317328               -0.41063206               -0.14789519                0.37751867                0.45079578                1.62884506               -1.16968736
               5.52047399                1.14007408               29.04686835                0.37422367               -0.40158565                0.04289931                0.14904029               -0.08251681                2.42466045                1.04034094
               6.51874653                0.99746441               28.97087118                0.47855678               -0.07096108                0.07391480               -0.10522698                0.08455831                1.53871686                0.46153498
               7.51905477                0.85620186               28.89023526                0.37974365                0.09313333                0.09668085               -0.36422599                0.13307528                1.45080153               -0.33732788
               8.52060920                0.71546548               28.81248879                0.50646126                0.20645417                0.19215835               -0.61803647                0.11347933                1.46650298                0.58882453
               9.52318385                0.57399376               28.73240284                1.00000000                0.28208399                0.26050297               -0.86127944                0.05183089                0.74684801                0.78593652
              10.52625088                0.43165852               28.64044942                1.00000000                0.34068354                0.33523775               -1.12077664                0.00775738                0.08791227                0.11513795
              11.52999752                0.28926292               28.54719237                1.00000000                0.37466460                0.42668739               -1.37884768               -0.00208912                0.02272305               -1.02566329
               1.69100355                2.75801496               29.35682503                1.00000000               -0.27401552               -0.32489647                1.04300087               -0.01453880                0.04542111                1.58025854
               2.68826340                2.60154080               29.25647671                1.00000000               -0.24063174               -0.23457585                0.78618061                0.00851137                0.21883014                0.10855083
               3.68619092                2.44471681               29.15955331                0.55810291               -0.16216733               -0.14870137                0.53766092                0.01514673                0.76660017               -1.33433288
               4.68502005                2.28752386               29.07011092                0.00010000               -1.09575265               -0.12565011                0.25075915                0.63104829                4.62714356               -2.03787295
               5.66427586                2.14156267               29.05032999                0.00010000               -1.16305430                0.07747155                0.07011669                1.11854208                5.43940220               -1.19683056
               6.66175896                1.99872298               28.97317660                0.00010000               -0.11637409               -0.07446596               -0.16266310                0.89935071                2.19730855               -0.21598574
               7.66194838                1.85716878               28.88825861                0.00010000                0.07112565               -0.10559048               -0.39599060                0.70969645                3.46789351                0.60753755
               8.66318148                1.71749007               28.83660486                0.00010000                0.17315810               -0.06386726               -0.66281351                0.45986366                4.10051805                1.16898455
               9.66541154                1.57654693               28.76520476                0.50692248                0.25681107                0.24663468               -0.84129327                0.04913484                2.10472454                1.60083864
              10.66831770                1.43495329               28.67404425                1.00000000                0.32708891                0.31383715               -1.08580009                0.00160975                0.75310264                0.73629264
              11.67195332                1.29354730               28.57558017                1.00000000                0.36356238                0.42982901               -1.35573388               -0.00547708                0.38890120               -1.02366939
               1.84692078                3.75487940               29.32506745                1.00000000               -0.23080601               -0.30220547                0.92373691               -0.01341195                0.08949670                1.50386553
               2.84461272                3.59934970               29.21725845                1.00000000               -0.19571386               -0.20175814                0.66327413                0.00720274                0.11982645               -0.03032919
               3.84300651                3.44338823               29.11000307                0.33724638               -0.10296854               -0.10648664                0.41105878               -0.02921787                1.06649299               -1.67433061
               4.84255335                3.28631706               29.02110610                0.00010000               -0.56803997               -0.07418328                0.14864582                0.58249036                5.03809265               -2.74645345
               5.83164571                3.14162351               28.99331680                0.00010000               -1.07129592               -0.00758238               -0.01463850                1.55069670                7.65233759               -3.06199960
               6.82112743                2.99597509               28.95563112                0.00010000               -0.85820483               -0.09689592               -0.19143850                1.22288925                6.83865405               -0.87395941
               7.81448161                2.85409005               28.91019631                0.00010000               -0.53495577               -0.16781992               -0.38392792                0.95656869                6.37605933                1.34905563
               8.81042832                2.71418813               28.86248552                0.00010000               -0.38891409               -0.17768926               -0.58043055                0.76226505                6.02137346                1.70382377
               9.80670333                2.57892646               28.80932295                0.23370971               -0.05728082                0.11448719               -0.78510682                0.21390322                3.86671111                3.00118508
              10.80928270                2.43793526               28.71783112                0.99463932                0.29983160                0.27748587               -1.00879903               -0.03832267                0.98636197                1.15103520
              11.81269996                2.29785950               28.60694725                1.00000000                0.34172583                0.42437262               -1.29934023               -0.01058810                0.01963958               -0.69092682
               2.00179471                4.75197085               29.29168890                1.00000000               -0.18961006               -0.27320931                0.79558939               -0.02086311                0.13205932                1.31466676
               2.99989861                4.59750564               29.17642612                0.86040290               -0.15777598               -0.16032674                0.53141055               -0.00246418                0.19645449               -0.23816156
               3.99863920                4.44258708               29.06239538                0.19926648               -0.07320179               -0.05130398                0.27946855               -0.06777877                1.20776000               -1.66196834
               4.99843458                4.28604019               28.96734191                0.00010000               -0.65037113                0.06860101                0.01634926                0.39448818                6.53468094               -2.70636806
               5.98563177                4.14141102               28.95998181                0.00010000               -1.23421808                0.08073613               -0.09388964                0.76978843               10.56974768               -1.42769844
               6.97375022                3.99678506               28.94469806                0.00010000               -1.13825319                0.14387029               -0.21871621                0.63422832                9.89380632               -0.25702126
               7.96286671                3.85381238               28.92278205                0.00010000               -1.00799253                0.07598589               -0.36220589                0.49997997                9.42473847                0.99746041
               8.95359037                3.71393629               28.89687564                0.00010000               -0.84621144                0.03480903               -0.52238775                0.45512956                9.25123057                2.20721172
               9.94594248                3.57883668               28.87021982                0.20442029               -0.24860824               -0.04607689               -0.70550545                0.17469003                5.09831127                3.65313950
              10.94861820                3.44050301               28.75980438                0.77439811                0.29753011                0.22720087               -0.94374097               -0.01147356                0.53874009                1.21821030
              11.95189308                3.30203475               28.64175942                1.00000000                0.32748808                0.42722142               -1.24585477               -0.03279045                0.15806895               -0.45667914
               2.15543394                5.74941521               29.25615500                1.00000000               -0.14867365               -0.23183602                0.65839538               -0.02549016                0.12888510                1.10874619
               3.15394721                5.59614316               29.13301161                0.69457284               -0.11587851               -0.11048166                0.37902670               -0.00976950                0.28986772               -0.49187692
               4.15311637                5.44236215               29.01302473                0.13349331               -0.11640171                0.00796618                0.11611591               -0.03663527                1.73988233               -1.95859647
               5.15161917                5.28768908               28.91887247                0.00010000               -0.84098855                0.26511013               -0.14714378                0.16593631                8.57724059               -1.40874837
               6.13629660                5.14323824               28.93560007                0.00010000               -1.51042666                0.28298120               -0.16482795                0.45999668               13.53515961               -0.55595739
               7.12141064                4.99885249               28.93978184                0.00010000               -1.44833071                0.29411042               -0.23688914                0.23581696               12.66120241                0.27022627
               8.10732999                4.85560976               28.93790565                0.00010000               -1.34520123                0.24622900               -0.33690240                0.10314385               12.28533013                1.21291260
               9.09450662                4.71488431               28.93313194                0.00010000               -1.18497915                0.12659656               -0.45578749                0.08591223               12.20410964                2.26380048
              10.08363041                4.57800492               28.92796270                0.20994494               -0.43257317               -0.07676522               -0.59418160                0.02432045                6.38788427                3.33831881
              11.08585515                4.44247928               28.80501875                0.68485363                0.26751272                0.18731093               -0.87495805                0.02406495                0.29265634                1.34101079
              12.08898066                4.30640393               28.67767992                1.00000000                0.31255079                0.43419253               -1.20772740               -0.02341217                0.07712204               -0.38620609
               2.30782901                6.74733413               29.21866185                1.00000000               -0.10727304               -0.18253537                0.51581898               -0.02468687                0.06332452                0.94979472
               3.30675628                6.59529600               29.08704927                0.59327520               -0.07342203               -0.06151172                0.22834094               -0.00890914                0.26403540               -0.66139313
               4.30636057                6.44274640               28.95938404                0.09708082               -0.29395282                0.06278075               -0.04674026                0.06766351                3.43144028               -2.29269628
               5.30087722                6.29134240               28.89111657                0.00010000               -1.13461376                0.40710993               -0.24004478                0.02288775               11.25482471                0.24488629
               6.28366829                6.14707065               28.91977156                0.00010000               -1.73910978                0.46676918               -0.20697472                0.19660557               15.70471948                0.17393677
               7.26609503                6.00266727               28.93967627                0.00010000               -1.73852657                0.47568570               -0.24402462               -0.05141370               15.11682097                0.63958896
               8.24889776                5.85873696               28.95525618                0.00010000               -1.65907868                0.39033736               -0.30541932               -0.26217970               14.90257001                1.33634176
               9.23291345                5.71646822               28.96919895                0.00010000               -1.50319201                0.20079452               -0.38229463               -0.35448504               14.92674276                2.17592595
              10.21883392                5.57730137               28.98335573                0.22953756               -0.61064822               -0.05685476               -0.47012480               -0.22068802                7.64111528                3.07549988
              11.22070049                5.44424923               28.84958039                0.63378765                0.23708077                0.16911182               -0.79271719                0.03005229                0.15665501                1.24697460
              12.22357554                5.31071860               28.71377199                1.00000000                0.28750485                0.41926938               -1.14001969               -0.01674868                0.06051917               -0.41627022
               2.45901645                7.74576450               29.17994342                1.00000000               -0.06597064               -0.13191966                0.37436164               -0.02350341                0.02495372                0.86975437
               3.45835675                7.59491293               29.04016915                0.54503547               -0.02966019               -0.01691612                0.08117373               -0.00434450                0.16863626               -0.71119357
               4.45842325                7.44361777               28.90319763                0.07384846               -0.53020317                0.10544044               -0.20808983                0.19590339                5.80766285               -2.45222679
               5.44775269                7.29583128               28.87619978                0.00010000               -1.47597076                0.48842848               -0.20401026                0.12100042               14.36393287                0.78906677
               6.42890384                7.15257362               28.91029936                0.00010000               -1.95183177                0.64175625               -0.22609799                0.11853673               17.38401276                0.55232793
               7.40871605                7.00836621               28.94258814                0.00010000               -2.03091925                0.68977884               -0.24307744               -0.23697892               17.29913858                0.78672019
               8.38828545                6.86341651               28.97341668                0.00010000               -1.99317724                0.57735867               -0.26968454               -0.60197821               17.32255962                1.30570691
               9.36885250                6.71890021               29.00432016                0.00010000               -1.84249083                0.31290865               -0.30908018               -0.82735966               17.48635552                2.00061119
              10.35143563                6.57686783               29.03643225                0.25727537               -0.79067705               -0.02779101               -0.35555170               -0.51052992                8.87093469                2.81143115
              11.35303896                6.44586152               28.89307053                0.60860967                0.21356483                0.15922605               -0.71650076                0.01314629                0.07120211                1.10847196
              12.35570693                6.31478932               28.74890581                1.00000000                0.26679672                0.39122342               -1.07999732               -0.00831716                0.03888321               -0.52616778
               2.60906210                8.74469573               29.14082475                1.00000000               -0.02459718               -0.08305399                0.23515802               -0.02273826                0.00827858                0.85865871
               3.60881612                8.59495768               28.99312891                0.54427981                0.01490948                0.02522825               -0.06345214                0.00009932                0.05143199               -0.71080718
               4.60936028                8.44485521               28.84622039                0.05297831               -0.72373703                0.13835170               -0.36399646                0.34639330                8.12608007               -2.33445133
               5.59434138                8.30111096               28.86000113                0.00010000               -1.79280912                0.61986035               -0.20822329                0.41427774               17.61983984                0.54049044
               6.57350410                8.15990577               28.90259985                0.00010000               -2.19144124                0.85765695               -0.25224478                0.19750572               19.17426975                0.53012388
               7.55051256                8.01646285               28.94604121                0.00010000               -2.35899510                0.92821635               -0.24443029               -0.27887194               19.36883471                0.68587505
               8.52632420                7.87028413               28.99081689                0.00010000               -2.37988055                0.86208779               -0.22654736               -0.81228124               19.62009910                1.07824075
               9.50291495                7.72272639               29.03746619                0.01955605               -2.23310937                0.50831304               -0.23441336               -1.33367692               19.94497649                1.76194233
              10.48166201                7.57674555               29.08682400                0.29031576               -0.99365123                0.00683824               -0.27030982               -0.84522698               10.10622702                2.44790617
              11.48304192                7.44743375               28.93494497                0.60618024                0.19457897                0.16029020               -0.65652281               -0.00998062                0.03581975                0.95372772
              12.48555359                7.31854307               28.78258569                1.00000000                0.25116699                0.35811065               -1.03503090               -0.00129957                0.02239350               -0.67149463
               2.75803780                9.74410342               29.10183310                1.00000000                0.01614603               -0.03732033                0.09863105               -0.02246253               -0.01245396                0.74800515
               3.75819926                9.59541749               28.94617907                0.56884432                0.05800180                0.06661816               -0.20648814                0.00167437                0.07914439               -0.60279197
               4.75919783                9.44638480               28.79227615                0.01331829               -0.86057879                0.16822830               -0.50845601                0.57080507               10.28328732               -1.59072629
               5.74098768                9.30822849               28.84067164                0.00010000               -2.08478838                0.93820562               -0.33562517                0.56905449               20.67767713                0.25829940
               6.71750206                9.16972676               28.89335023                0.00010000               -2.41137173                1.04193887               -0.30646851                0.23403246               21.06498172                0.29204433
               7.69276025                9.02693053               28.94762652                0.00010000               -2.58628891                1.10849022               -0.26021816               -0.16998357               21.39385244                0.39006035
               8.66577629                8.88065827               29.00514152                0.00010000               -2.85213480                1.12843387               -0.19047386               -0.68682321               21.91484913                0.61840139
               9.63571755                8.72906647               29.06831296                0.05257264               -2.79762752                1.02038968               -0.08494249               -1.38211359               22.31556320                1.17659541
              10.60982374                8.57700459               29.13261587                0.32657400               -1.23378606                0.05618695               -0.22070640               -1.22770549               11.37303501                1.57496783
              11.61104183                8.44906732               28.97525895                0.62066809                0.18192768                0.16788544               -0.61675574               -0.03049858                0.14149974                0.72049288
              12.61346229                8.32195153               28.81457224                1.00000000                0.24204606                0.32687775               -1.00647942                0.00047025               -0.01088645               -0.67204721
               2.90598471               10.74394933               29.06042078                1.00000000                0.05835223               -0.01540965               -0.03574553                0.02876279                0.41052510                0.63215244
               3.90656823               10.59629004               28.90123011                0.82170095                0.09903416                0.08725516               -0.34605970                0.05041988                0.81833304               -0.49955164
               4.90796539               10.44821978               28.75010908                0.50510318               -1.20938562                0.18349738               -0.64318230                1.05600756               12.23665781               -0.99948315
               5.88238052               10.31987508               28.81924152                0.36736152               -2.42413433                1.16465905               -0.48156534                0.76552221               23.07798838                0.10897924
               6.85948270               10.18074455               28.88154846                0.35740689               -2.30995701                1.10177896               -0.37871023                0.13594284               22.94451449                0.13382088
               7.83618138               10.03863265               28.94577297                0.37282733               -2.45154506                1.17021212               -0.29974076               -0.05247364               23.32194092                0.19475940
               8.81045180                9.89285281               29.01391596                0.41224316               -2.86275129                1.21945456               -0.19239411               -0.30737190               23.99536111                0.32775853
               9.77892635                9.74313418               29.09032293                0.54067023               -3.66723775                1.40677171                0.01223711               -1.42829596               24.35624227                0.72030021
              10.73710705                9.57786929               29.16529969                0.68459429               -2.07206713                0.08647001               -0.21221336               -1.88880511               12.91622351                0.93988234
              11.73748501                9.45079146               29.01222954                0.82926192                0.13437641                0.17241361               -0.59412270                0.00488491                0.97581558                0.57146878
              12.73979458                9.32508063               28.84798291                0.98560174                0.23095672                0.31290967               -0.98452744                0.06214576                0.43477134               -0.58617156
               1.46296019                0.81335735               30.43998804                1.00000000               -0.34310315               -0.36864868                1.28363230               -0.06226316               -0.90119084                0.92518805
               2.45952916                0.64729555               30.34358593                1.00000000               -0.29448210               -0.29003187                1.03203802               -0.04653328               -1.16644274                0.09876560
               3.45707055                0.48089348               30.24185247                1.00000000               -0.18489745               -0.21273951                0.77103980               -0.04214705               -1.12825514               -0.20934618
               4.45583121                0.31486599               30.14623786                0.62607574                0.15303716               -0.16589046                0.51814070                0.28410070               -0.26974060               -0.79948303
               5.46013130                0.15620716               30.06182682                0.71572129                0.28922918               -0.06666447                0.24029863               -0.06757562                0.09206344                0.25551396
               6.46161580                0.00315123               29.97460725                0.79860183                0.12967875                0.01997116               -0.03609049               -0.02262483               -0.23862069                0.14891252
               7.46272487               -0.14852847               29.88385441                0.77470791                0.13357705                0.09542721               -0.31175473               -0.00640368               -0.46520691               -0.07767351
               8.46428734               -0.29963972               29.79206921                0.86004118                0.17823836                0.18084278               -0.59508116               -0.01080554               -0.72740462                0.10616085
               9.46628964               -0.45113498               29.69579286                1.00000000                0.24537966                0.26344674               -0.87368795               -0.01247469               -1.03267739                0.55185165
              10.46919493               -0.60322425               29.59762366                1.00000000                0.33377745                0.34037977               -1.14205999               -0.03282546               -1.01249065                0.00258856
              11.47296519               -0.75544559               29.50167171                1.00000000                0.37702549                0.42599627               -1.40206096               -0.04136854               -0.90206383               -0.89599129
               1.62839936                1.80967086               30.40025980                1.00000000               -0.31035993               -0.35213704                1.15543468               -0.02124472               -0.13156189                1.26102236
               2.62529576                1.64439523               30.30356885                1.00000000               -0.27677515               -0.26954242                0.90475324               -0.00367231               -0.13804296                0.13722200
               3.62286386                1.47876609               30.20671388                0.90289868               -0.21401916               -0.18803728                0.64317427                0.00264092                0.02440070               -0.54283883
               4.62101538                1.31320709               30.11323089                0.21638788               -0.37754685               -0.14661648                0.38148431                0.40611905                1.62909435               -1.17771258
               5.61531292                1.15554052               30.04839849                0.38042025               -0.36290087                0.03341916                0.15790389               -0.07079133                2.44158967                1.05622356
               6.61375736                1.00335094               29.96983605                0.48618771               -0.06283089                0.07008399               -0.10177765                0.07460414                1.53975164                0.46987890
               7.61405630                0.85242581               29.88659342                0.38879142                0.08625879                0.10080145               -0.36290293                0.12244919                1.45165629               -0.33177378
               8.61548254                0.70216871               29.80628924                0.51009451                0.19504257                0.19612131               -0.62196502                0.09549862                1.47553900                0.57407254
               9.61795716                0.55149949               29.72377643                1.00000000                0.27697230                0.26029022               -0.86454279                0.04276391                0.75300350                0.79836447
              10.62102198                0.40017955               29.62922961                1.00000000                0.34078441                0.33498086               -1.12406065                0.00899265                0.08680885                0.11734887
              11.62477284                0.24881437               29.53339576                1.00000000                0.37508597                0.43078005               -1.38208144                0.00092800                0.02317778               -1.05167206
               1.79308656                2.80631461               30.36722432                1.00000000               -0.27260719               -0.32464396                1.03708425               -0.01374124                0.04498077                1.59989943
               2.79036049                2.64190470               30.26430867                1.00000000               -0.23875256               -0.23344045                0.78181784                0.00911395                0.22103476                0.11645793
               3.78831151                2.47713274               30.16489515                0.57230702               -0.15906642               -0.14592531                0.52760616                0.01140236                0.75104725               -1.32532378
               4.78717916                2.31193366               30.07258517                0.00010000               -0.98699465               -0.11457426                0.24153556                0.56343861                4.64199985               -2.01909374
               5.76857162                2.15687555               30.05107087                0.00010000               -1.04782862                0.05582153                0.07237212                0.97737134                5.51506699               -1.18417085
               6.76622259                2.00455291               29.97152801                0.00010000               -0.11077693               -0.07535083               -0.16935855                0.76699706                2.24613926               -0.18986264
               7.76635608                1.85348756               29.88428570                0.00010000                0.04505180               -0.09323822               -0.39646740                0.59671280                3.49679967                0.64126249
               8.76712363                1.70428271               29.82989656                0.00010000                0.13889983               -0.04786955               -0.67912366                0.38210612                4.15601811                1.20759611
               9.76913408                1.55407083               29.75674153                0.50580405                0.24681390                0.24535733               -0.85348203                0.01965700                2.17353084                1.63364578
              10.77205991                1.40347537               29.66314332                1.00000000                0.32900131                0.31124122               -1.09624534               -0.00567917                0.77513797                0.76517513
              11.77571410                1.25317001               29.56197481                1.00000000                0.36541985                0.44041756               -1.36675056               -0.00421669                0.39896410               -1.03037408
               1.95694435                3.80317798               30.33426739                1.00000000               -0.22844393               -0.30255193                0.91668914               -0.01253792                0.09364552                1.51778968
               2.95465991                3.63972642               30.22386121                1.00000000               -0.19407048               -0.20021150                0.65762804                0.00895562                0.12755465               -0.02675178
               3.95306294                3.47584758               30.11409072                0.34283096               -0.10592856               -0.10297562                0.40697551               -0.02515448                1.07205597               -1.67782648
               4.95254134                3.31091560               30.02256092                0.00010000               -0.54109183               -0.05823470                0.14767126                0.49690242                5.07952085               -2.72681817
               5.94224111                3.15665695               29.99314621                0.00010000               -1.00280286               -0.02053171               -0.02202563                1.31958878                7.74914341               -3.05262109
               6.93248529                3.00184392               29.95367756                0.00010000               -0.79901748               -0.10287987               -0.20091707                1.02049440                6.93265366               -0.82976955
               7.92626076                2.85056104               29.90629392                0.00010000               -0.49719443               -0.16561739               -0.39824610                0.77639934                6.46717020                1.41192282
               8.92254140                2.70121132               29.85660876                0.00010000               -0.35515604               -0.17392377               -0.59639601                0.63186149                6.11103208                1.79838488
               9.91915764                2.55640664               29.80138550                0.22989297               -0.03660884                0.09871115               -0.80081755                0.15323331                3.94746524                3.06315160
              10.92180922                2.40640437               29.70768661                0.97156257                0.30707967                0.27392972               -1.03390282               -0.05322662                1.02976130                1.20431701
              11.92529923                2.25762272               29.59395812                1.00000000                0.34900097                0.43777060               -1.31746635               -0.00856926                0.03750297               -0.67609618
               2.11973893                4.80026357               30.29960019                1.00000000               -0.18689221               -0.27374153                0.78679530               -0.02024953                0.14056642                1.31911913
               3.11787001                4.63790047               30.18170824                0.85168657               -0.15598439               -0.15810290                0.52519508               -0.00197007                0.21112281               -0.24985579
               4.11661924                4.47507322               30.06517144                0.20082112               -0.07810814               -0.04753635                0.27586059               -0.06051824                1.22348455               -1.68576608
               5.11630784                4.31076897               29.96751043                0.00010000               -0.62920818                0.07103418                0.02233043                0.31677870                6.61645276               -2.72069599
               6.10403508                4.15646491               29.95903162                0.00010000               -1.17897294                0.07963615               -0.09774900                0.60575686               10.72730876               -1.40649222
               7.09272839                4.00249531               29.94245768                0.00010000               -1.07592042                0.12842409               -0.23122862                0.47947521               10.04290162               -0.20788059
               8.08251667                3.85017522               29.91907390                0.00010000               -0.94065613                0.05866627               -0.38148416                0.35553512                9.56716633                1.06924222
               9.07391526                3.70080423               29.89154790                0.00010000               -0.77554894                0.01314829               -0.54514670                0.32277327                9.38261190                2.29223358
              10.06700569                3.55604505               29.86302915                0.19936344               -0.20679869               -0.08017694               -0.72906350                0.11085289                5.20408754                3.74541828
              11.06977929                3.40895396               29.75040624                0.75461854                0.30501660                0.22567621               -0.95638165               -0.01726813                0.58994726                1.26804219
              12.07310602                3.26192542               29.62932150                1.00000000                0.33267335                0.43753593               -1.26613663               -0.03049140                0.17544142               -0.44698399
               2.28126556                5.79770315               30.26268637                1.00000000               -0.14547028               -0.23207455                0.64781003               -0.02543477                0.12951948                1.10537648
               3.27981086                5.63656436               30.13676485                0.68713268               -0.11407405               -0.10724606                0.37170121               -0.01036466                0.29899320               -0.51303869
               4.27898408                5.47489685               30.01416717                0.13375004               -0.11628145                0.01386287                0.11269687               -0.03866686                1.76278354               -1.99808459
               5.27748523                5.31233629               29.91751514                0.00010000               -0.81770873                0.24673096               -0.12218275                0.08449677                8.71671169               -1.40590338
               6.26262991                5.15824967               29.93398201                0.00010000               -1.45603719                0.27217115               -0.15978333                0.29801387               13.76841959               -0.51497413
               7.24836449                5.00441240               29.93736361                0.00010000               -1.37836854                0.27476644               -0.24873718                0.09163613               12.86570947                0.32892416
               8.23506254                4.85173437               29.93443269                0.00010000               -1.26187288                0.21934834               -0.36006828               -0.03338552               12.48055454                1.28848041
               9.22312703                4.70147428               29.92843709                0.00010000               -1.09187846                0.09647750               -0.48504154               -0.05131865               12.39363753                2.35608512
              10.21322497                4.55480310               29.92187725                0.20423356               -0.37717699               -0.11260813               -0.62583176               -0.03833315                6.51222192                3.45280329
              11.21558349                4.41091790               29.79619807                0.66567362                0.27607605                0.18202273               -0.88631865                0.02937063                0.32287413                1.39606732
              12.21874649                4.26637344               29.66555334                1.00000000                0.31629984                0.44215284               -1.21492276               -0.02327958                0.07840130               -0.36543494
               2.44150781                6.79562208               30.22375879                1.00000000               -0.10387992               -0.18196723                0.50338143               -0.02478187                0.06247450                0.94383973
               3.44046901                6.63575555               30.08929314                0.58698806               -0.07169156               -0.05748332                0.22037554               -0.01015344                0.26955973               -0.67947054
               4.44007398                6.47535048               29.95890047                0.09612228               -0.29120257                0.07003321               -0.04990854                0.04558514                3.49765606               -2.33010091
               5.43464496                6.31570359               29.88899837                0.00010000               -1.10773708                0.37423962               -0.18348611               -0.08134464               11.45901341                0.34068328
               6.41791924                6.16190833               29.91777527                0.00010000               -1.67842750                0.44285304               -0.19406848                0.03766655               15.98066180                0.23539406
               7.40107641                6.00799064               29.93718923                0.00010000               -1.65660814                0.44739915               -0.25576009               -0.19691916               15.36669025                0.70424147
               8.38478708                5.85456218               29.95208228                0.00010000               -1.56281260                0.35776973               -0.33185820               -0.39880314               15.15036659                1.41463609
               9.36982016                5.70273378               29.96521545                0.00010000               -1.39958304                0.16917557               -0.41662626               -0.49606849               15.17693607                2.27035637
              10.35679542                5.55379289               29.97847574                0.22392355               -0.55118997               -0.07942691               -0.50687089               -0.28882919                7.78563100                3.18981370
              11.35879636                5.41259442               29.84156873                0.61568802                0.24669652                0.16216881               -0.80900440                0.03596097                0.17308402                1.30621754
              12.36172935                5.27076848               29.70231630                1.00000000                0.29329859                0.42865946               -1.15228098               -0.01624416                0.06197204               -0.38493211
               2.60050298                7.79406381               30.18361752                1.00000000               -0.06235960               -0.13002289                0.36015627               -0.02369125                0.02425690                0.86540927
               3.59987939                7.63541470               30.04093871                0.53978647               -0.02776197               -0.01283588                0.07259512               -0.00551898                0.17007319               -0.72591715
               4.59994774                7.47629752               29.90110298                0.07170245               -0.52894517                0.11201358               -0.21078317                0.15052319                5.97319566               -2.48524121
               5.58930048                7.31982108               29.87448437                0.00010000               -1.44257777                0.45513466               -0.14204496                0.00311069               14.64985304                0.90757588
               6.57109619                7.16710673               29.90810937                0.00010000               -1.87641147                0.60914908               -0.21506146               -0.02639867               17.65218505                0.61296765
               7.55177226                7.01336039               29.94010010                0.00010000               -1.93764314                0.65508891               -0.25745875               -0.37532379               17.58874487                0.84902239
               8.53234333                6.85888976               29.97058535                0.00010000               -1.88986506                0.54065815               -0.29929849               -0.73550883               17.61994966                1.38667172
               9.51397495                6.70485780               30.00104806                0.00010000               -1.73777886                0.28411197               -0.34725498               -0.96471589               17.79066793                2.09390940
              10.49758775                6.55321456               30.03267940                0.25254465               -0.73239172               -0.03462545               -0.39535192               -0.58092411                9.02986017                2.90652492
              11.49932712                6.41416127               29.88576808                0.59134006                0.22428676                0.15929100               -0.74444936                0.01696412                0.07317034                1.15564190
              12.50207348                6.27494663               29.73800678                1.00000000                0.27463648                0.40300272               -1.10214885               -0.00678902                0.03873954               -0.50719984
               2.75833221                8.79302162               30.14309859                1.00000000               -0.02072854               -0.07959902                0.21920689               -0.02294396                0.00785045                0.85704117
               3.75812492                8.63549883               29.99244908                0.53969220                0.01729267                0.02892410               -0.07272228               -0.00088377                0.05021392               -0.72336000
               4.75867806                8.47759075               29.84256821                0.04988916               -0.71134815                0.14253251               -0.36683805                0.28351302                8.35942062               -2.35967012
               5.74389796                8.32480628               29.85808302                0.00010000               -1.74130515                0.59487863               -0.18380809                0.30217742               17.98490329                0.56455549
               6.72385196                8.17409132               29.90009370                0.00010000               -2.10555274                0.82341475               -0.25318062                0.07809532               19.46541826                0.56797825
               7.70178691                8.02109241               29.94351420                0.00010000               -2.26362352                0.89399918               -0.26448840               -0.39579158               19.70887976                0.73525391
               8.67857949                7.86537535               29.98841416                0.00010000               -2.27929306                0.82767288               -0.25713592               -0.93028509               19.96907477                1.15535065
               9.65620105                7.70841602               30.03493251                0.02064676               -2.13530162                0.47916291               -0.27445784               -1.46150989               20.28248195                1.89659870
              10.63587346                7.55310038               30.08388508                0.28712764               -0.93987353                0.01352091               -0.31667019               -0.90946991               10.26865894                2.50914249
              11.63740357                7.41578024               29.92818246                0.58876386                0.20746991                0.16888431               -0.69667799               -0.00840685                0.03059372                0.98426309
              12.64002286                7.27882853               29.77208365                0.99553325                0.26192811                0.37142212               -1.06804324                0.00096579                0.02186289               -0.66628534
               2.91508968                9.79247183               30.10273388                1.00000000                0.02028971               -0.03247697                0.08095733               -0.02261338               -0.01340670                0.74934816
               3.91529258                9.63599318               29.94406478                0.56419758                0.06104357                0.06991341               -0.21649255                0.00086516                0.07931063               -0.61284326
               4.91631056                9.47914817               29.78716523                0.01142675               -0.82245553                0.17067057               -0.51463665                0.49701229               10.52175419               -1.60675689
               5.89884347                9.33171865               29.83730287                0.00010000               -1.99692963                0.90457470               -0.34432104                0.48258036               21.09573591                0.21737524
               6.87637196                9.18357503               29.89023008                0.00010000               -2.31355380                1.00904543               -0.32211064                0.15605105               21.43180926                0.30609188
               7.85257239                9.03124037               29.94490673                0.00010000               -2.49789726                1.08017577               -0.28788909               -0.24161209               21.79623845                0.41731894
               8.82641402                8.87544322               30.00309977                0.00010000               -2.77763355                1.10616135               -0.22185537               -0.76612265               22.36562841                0.66832467
               9.79701972                8.71444105               30.06738924                0.05688664               -2.71899400                0.99642010               -0.10237370               -1.47065167               22.66402285                1.32060508
              10.77203414                8.55348498               30.13010759                0.32576896               -1.17944464                0.07260646               -0.27991852               -1.27241312               11.48356105                1.59636423
              11.77343083                8.41753896               29.96882733                0.60179313                0.19810371                0.18344157               -0.67029675               -0.02983062                0.13890974                0.73312892
              12.77599621                8.28237507               29.80429920                0.97871867                0.25653811                0.34157281               -1.05083615                0.00302402               -0.00854631               -0.67645090
               3.07083724               10.79237208               30.05997185                1.00000000                0.06286478               -0.00997460               -0.05486823                0.02725741                0.41072427                0.63513036
               4.07146589               10.63689710               29.89771589                0.81963951                0.10277983                0.09039210               -0.35665492                0.04893479                0.82447387               -0.50799261
               5.07289284               10.48100416               29.74364080                0.50337032               -1.11715891                0.18559967               -0.65025767                0.95826190               12.47673132               -1.01158106
               6.04912271               10.34289778               29.81435447                0.36764854               -2.27207861                1.11791240               -0.49863184                0.69132689               23.53709079                0.05993757
               7.02745126               10.19427222               29.87765401                0.35757381               -2.20181186                1.06971975               -0.40498821                0.09783787               23.38266715                0.13730330
               8.00508647               10.04269593               29.94261866                0.37262137               -2.36974564                1.14555614               -0.33584984               -0.08727486               23.77974879                0.20804487
               8.98005635                9.88749857               30.01183022                0.41145484               -2.81701090                1.20553525               -0.22961981               -0.35334191               24.53728800                0.35688328
               9.94874625                9.72834442               30.09043735                0.54397261               -3.63645304                1.39033700                0.00646362               -1.47465018               24.71946158                0.83319524
              10.90732729                9.55455251               30.16280115                0.68521432               -2.04146922                0.10675300               -0.28728899               -1.91545252               12.99320146                0.94004240
              11.90791687                9.41944907               30.00595141                0.81917894                0.15419114                0.19101088               -0.66298432                0.00397785                0.99221273                0.57612468
              12.91041111                9.28565999               29.83786874                0.98528119                0.24942437                0.32849165               -1.04164074                0.06258207                0.44969074               -0.59210150
               1.55154831                0.86303656               31.45279788                1.00000000               -0.34148966               -0.36750734                1.27837202               -0.06092645               -0.91461526                0.93781639
               2.54813341                0.68896171               31.35388826                1.00000000               -0.29404323               -0.28988023                1.02900816               -0.04322584               -1.18500300                0.10351142
               3.54566744                0.51458004               31.24955298                1.00000000               -0.18933073               -0.21172290                0.76800907               -0.03826758               -1.14895567               -0.21419068
               4.54434680                0.34050603               31.15140457                0.62476770                0.11824864               -0.15775303                0.51279858                0.23745224               -0.29906178               -0.81769592
               5.54803242                0.17267163               31.06423377                0.71823307                0.25243878               -0.07171290                0.24013557               -0.07021394                0.05146278                0.26613037
               6.54939557                0.00976534               30.97426464                0.80127433                0.12447225                0.01758894               -0.03166376               -0.02829316               -0.27499244                0.15334207
               7.55052186               -0.15179634               30.88076870                0.77749064                0.14108395                0.09314237               -0.30331102               -0.01047988               -0.50583906               -0.07764232
               8.55221725               -0.31266995               30.78614866                0.85802344                0.19190545                0.17895308               -0.58643843               -0.01787154               -0.77240218                0.10560578
               9.55435997               -0.47359322               30.68708375                1.00000000                0.25429003                0.26056092               -0.86541697               -0.01772472               -1.07035244                0.56333138
              10.55730305               -0.63491161               30.58623144                1.00000000                0.33532781                0.33974390               -1.13469616               -0.03159141               -1.04159745               -0.00029791
              11.56106653               -0.79635438               30.48767568                1.00000000                0.37634748                0.42807527               -1.39652546               -0.03805167               -0.92790070               -0.92060476
               1.72501390                1.85936149               31.41178603                1.00000000               -0.30844807               -0.35156057                1.14972045               -0.02055068               -0.13441858                1.27830518
               2.72192942                1.68606291               31.31259864                1.00000000               -0.27506450               -0.26920530                0.90114579               -0.00094164               -0.14605367                0.14404230
               3.71951261                1.51246281               31.21313416                0.89592437               -0.21269477               -0.18732743                0.64503506                0.00667589                0.01292137               -0.54420438
               4.71767552                1.33892850               31.11709388                0.22098914               -0.34059922               -0.13470363                0.39572946                0.34146140                1.63452453               -1.20399704
               5.71270062                1.17195450               31.05002643                0.38882877               -0.31644474                0.02299492                0.16193096               -0.06926627                2.45092415                1.05961620
               6.71134663                1.00994123               30.96883563                0.49432233               -0.05329579                0.06594449               -0.09924257                0.06259641                1.53265290                0.46959778
               7.71163471                0.84913509               30.88297720                0.39829434                0.07951744                0.10449369               -0.35954352                0.10861606                1.44653253               -0.32338359
               8.71293697                0.68911958               30.80004949                0.51323317                0.18344220                0.19962120               -0.62522201                0.07530362                1.48193827                0.55636228
               9.71530355                0.52901239               30.71511199                1.00000000                0.27153715                0.26019925               -0.86893619                0.03208397                0.76031279                0.80943109
              10.71836772                0.36848583               30.61796821                1.00000000                0.34126148                0.33556995               -1.12918176                0.00990507                0.08627130                0.11981359
              11.72212878                0.20792638               30.51955074                1.00000000                0.37610627                0.43659205               -1.38902567                0.00420886                0.02366341               -1.07686777
               1.89773446                2.85600535               31.37756671                1.00000000               -0.27211984               -0.32510863                1.03085820               -0.01316644                0.04727782                1.61989356
               2.89501326                2.68357760               31.27211307                1.00000000               -0.23995455               -0.23239090                0.77902500                0.01196020                0.22192252                0.12354973
               3.89293537                2.51083349               31.17010543                0.58124577               -0.16644664               -0.14536985                0.52051936                0.02348307                0.73583359               -1.32182284
               4.89168433                2.33781196               31.07494163                0.00010000               -0.86505027               -0.10365347                0.24203452                0.48554045                4.66990417               -2.02452310
               5.87563436                2.17313153               31.05177743                0.00010000               -0.91087048                0.03279197                0.05636916                0.80417924                5.57573177               -1.19306256
               6.87346692                2.01108423               30.96978943                0.00010000               -0.10592664               -0.07455994               -0.17800899                0.62240873                2.28131448               -0.17464270
               7.87351583                1.85029354               30.88032926                0.00010000                0.01895488               -0.07973889               -0.39641155                0.47486735                3.50998240                0.67098442
               8.87384602                1.69132247               30.82302239                0.00010000                0.10597834               -0.03075487               -0.69548756                0.29688154                4.20082006                1.24604166
               9.87563540                1.53161077               30.74813512                0.50388235                0.23705770                0.24447348               -0.86992408               -0.01257259                2.24423820                1.66926557
              10.87858717                1.37179979               30.65211934                1.00000000                0.33171103                0.31364255               -1.11277429               -0.01478541                0.79844775                0.78841331
              11.88226962                1.21237746               30.54824515                1.00000000                0.36824475                0.45322574               -1.38511430               -0.00332131                0.40928573               -1.03998123
               2.06960606                3.85285932               31.34340123                1.00000000               -0.22655802               -0.30355502                0.90949984               -0.01164885                0.09893152                1.53033637
               3.06734048                3.68141509               31.23041101                1.00000000               -0.19290751               -0.19863662                0.65261087                0.01163248                0.13762305               -0.02516978
               4.06574791                3.50955541               31.11814258                0.34641737               -0.11260989               -0.10190881                0.40413677               -0.00941653                1.08308818               -1.67926078
               5.06508829                3.33685543               31.02405952                0.00010000               -0.51179887               -0.05699558                0.15452445                0.41370323                5.12960741               -2.72661195
               6.05551194                3.17261034               30.99287629                0.00010000               -0.92277453               -0.03430803               -0.03266327                1.05954707                7.84296728               -3.04723071
               7.04663280                3.00845003               30.95161278                0.00010000               -0.73090641               -0.10714163               -0.21520582                0.80145084                7.01968721               -0.78777161
               8.04089381                2.84754031               30.90223139                0.00010000               -0.45377116               -0.16175413               -0.41714903                0.58292150                6.55042814                1.46712268
               9.03755737                2.68850448               30.85055760                0.00010000               -0.31595145               -0.16849210               -0.61712505                0.49014430                6.19896681                1.89381504
              10.03457478                2.53390186               30.79330660                0.22578420               -0.01260293                0.08212631               -0.81578450                0.08923497                4.01916991                3.12742867
              11.03730531                2.37475868               30.69715306                0.94998811                0.31661159                0.27763018               -1.06792812               -0.06866720                1.06590746                1.26119520
              12.04090701                2.21699089               30.58059793                1.00000000                0.36016973                0.45611961               -1.35233126               -0.01169090                0.05501329               -0.66433680
               2.24038994                4.84993425               31.30742480                1.00000000               -0.18401210               -0.27475884                0.77770354               -0.01987305                0.15013819                1.32142284
               3.23854982                4.67960487               31.18693002                0.84355961               -0.15416212               -0.15587983                0.51898307               -0.00165763                0.22708223               -0.26224651
               4.23730670                4.50879531               31.06791259                0.20163680               -0.08231789               -0.04419891                0.27257075               -0.05294922                1.24619684               -1.70924772
               5.23690346                4.33667205               30.96778852                0.00010000               -0.60379951                0.06138217                0.03395325                0.23501677                6.71074120               -2.75527454
               6.22523071                4.17244537               30.95802683                0.00010000               -1.11687444                0.07923801               -0.10371280                0.42869688               10.87344759               -1.37801783
               7.21456597                4.00894140               30.94007349                0.00010000               -1.00554498                0.11246935               -0.24780491                0.31272192               10.18151953               -0.15647072
               8.20511981                3.84705845               30.91515236                0.00010000               -0.86393119                0.04153421               -0.40664691                0.19925164                9.70088829                1.14123350
               9.19728735                3.68795263               30.88597271                0.00010000               -0.69769554               -0.00830054               -0.57340924                0.17861370                9.51329628                2.37548849
              10.19116590                3.53325329               30.85563855                0.19386373               -0.15812747               -0.11437332               -0.75258573                0.04694224                5.31193044                3.82971355
              11.19412480                3.37735240               30.74067675                0.73327335                0.32027452                0.22397267               -0.98625491               -0.02111017                0.63646625                1.34177381
              12.19757139                3.22149986               30.61643668                1.00000000                0.34465880                0.45547703               -1.30024561               -0.03869687                0.18067393               -0.41618803
               2.40986736                5.84736414               31.26911121                1.00000000               -0.14210921               -0.23272390                0.63677764               -0.02567144                0.13042936                1.10005488
               3.40844627                5.67829749               31.14044563                0.67993205               -0.11228044               -0.10360660                0.36437268               -0.01183678                0.30875130               -0.53409563
               4.40762176                5.50867143               31.01527867                0.13325543               -0.11538543                0.02066293                0.10959443               -0.04563295                1.79948163               -2.03574374
               5.40613856                5.33808307               30.91642881                0.00010000               -0.79026149                0.22573925               -0.10062030               -0.00985450                8.85750894               -1.39212330
               6.39181653                5.17419510               30.93240440                0.00010000               -1.39322057                0.26028969               -0.15740907                0.12381522               13.97796590               -0.46488630
               7.37827415                5.01069942               30.93480710                0.00010000               -1.29744598                0.25371093               -0.26540273               -0.06341295               13.05170830                0.39228264
               8.36586761                4.84837099               30.93070428                0.00010000               -1.16696735                0.19092866               -0.38938460               -0.18009352               12.66354422                1.36630148
               9.35493480                4.68833847               30.92343111                0.00010000               -0.98768730                0.06558704               -0.52062812               -0.19926172               12.57639882                2.44842284
              10.34611386                4.53161440               30.91544607                0.19785984               -0.31491279               -0.14789000               -0.66362292               -0.10364836                6.64632772                3.56198640
              11.34863655                4.37923814               30.78729238                0.64478657                0.28621471                0.17255886               -0.89568627                0.03414239                0.36726464                1.46114187
              12.35183815                4.22610043               30.65338146                1.00000000                0.32016047                0.45333310               -1.22278670               -0.02634830                0.08407818               -0.32547795
               2.57800981                6.84527977               31.22872947                1.00000000               -0.10040152               -0.18156287                0.49043054               -0.02511089                0.06167959                0.93626431
               3.57700579                6.67753274               31.09145678                0.58065474               -0.07006748               -0.05294283                0.21225239               -0.01223644                0.27526566               -0.69679519
               4.57660846                6.50920857               30.95838586                0.09450622               -0.29115458                0.07868895               -0.05295859                0.01869171                3.59156558               -2.36496070
               5.57118270                6.34118683               30.88744685                0.00010000               -1.07588937                0.34075394               -0.12839991               -0.19763078               11.66675624                0.45028325
               6.55509067                6.17765116               30.91589019                0.00010000               -1.60304375                0.41597172               -0.18603945               -0.13279670               16.21651145                0.30065759
               7.53912182                6.01401561               30.93456107                0.00010000               -1.56058942                0.41611364               -0.27331402               -0.35166576               15.59171204                0.77222222
               8.52387888                5.85087703               30.94861902                0.00010000               -1.45315577                0.32235371               -0.36474965               -0.54411803               15.38246694                1.49632205
               9.51005871                5.68926437               30.96086642                0.00010000               -1.28428086                0.13614320               -0.45730891               -0.64722638               15.41896915                2.36816135
              10.49819326                5.53029549               30.97321831                0.21749264               -0.48685490               -0.10127028               -0.54861100               -0.36309190                7.93729246                3.30957196
              11.50032161                5.38080357               30.83340031                0.59658007                0.25632843                0.15612459               -0.82723052                0.04047326                0.19871074                1.36296368
              12.50331983                5.23056652               30.69072637                1.00000000                0.29982212                0.43887707               -1.17013819               -0.01539770                0.06283790               -0.35371005
               2.74485921                7.84373288               31.18714654                1.00000000               -0.05864682               -0.12797883                0.34533469               -0.02400877                0.02356459                0.85969223
               3.74427275                7.67723864               31.04162105                0.53423995               -0.02588585               -0.00841657                0.06368594               -0.00713371                0.17163541               -0.73973940
               4.74434150                7.51024521               30.89898197                0.06909009               -0.52646962                0.11954963               -0.21365852                0.09829129                6.16682281               -2.51581381
               5.73374335                7.34489815               30.87335888                0.00010000               -1.40048445                0.41983705               -0.08807839               -0.11997085               14.93741820                1.00692818
               6.71633181                7.18251454               30.90599813                0.00010000               -1.78641895                0.57467329               -0.21142326               -0.17929243               17.87714990                0.66930134
               7.69801497                7.01902169               30.93743896                0.00010000               -1.82976607                0.61728417               -0.27886057               -0.52242987               17.85232068                0.91246658
               8.67973649                6.85481807               30.96743071                0.00010000               -1.77215830                0.49998475               -0.33576062               -0.87759224               17.90024661                1.47262701
               9.66257181                6.69106134               30.99737506                0.00010000               -1.62118333                0.25264052               -0.39088253               -1.10970597               18.08619771                2.19335826
              10.64731282                6.52958899               31.02852521                0.24697792               -0.66984089               -0.03976435               -0.43745486               -0.65543636                9.19025833                3.00908589
              11.64917499                6.38236063               30.87818155                0.57350007                0.23457449                0.16280906               -0.77540724                0.02112962                0.07863699                1.20278272
              12.65200431                6.23487797               30.72686284                0.99392805                0.28293192                0.41792158               -1.13171368               -0.00483442                0.03874564               -0.48539006
               2.91051812                8.84272020               31.14520888                1.00000000               -0.01673364               -0.07578742                0.20251977               -0.02314662                0.00737047                0.85407950
               3.91035079                8.67736441               30.99167446                0.53506424                0.01983202                0.03275909               -0.08246188               -0.00196318                0.04860721               -0.73488226
               4.91091476                8.51159956               30.83888363                0.04684508               -0.69184165                0.14659320               -0.37145799                0.21362427                8.59860090               -2.38411944
               5.89651396                8.34958357               30.85632497                0.00010000               -1.67667404                0.57031921               -0.17659795                0.18196303               18.34381416                0.55555276
               6.87738128                8.18914463               30.89753624                0.00010000               -2.00721283                0.78868747               -0.26330467               -0.05098453               19.72946876                0.59732001
               7.85636970                8.02636130               30.94075144                0.00010000               -2.15469479                0.85753807               -0.29285641               -0.52337809               20.02675426                0.78426315
               8.83428739                7.86087672               30.98567417                0.00010000               -2.16380168                0.78953146               -0.29583333               -1.05871274               20.30127729                1.23881793
               9.81309366                7.69431718               31.03197703                0.02122287               -2.02510728                0.44561927               -0.32048181               -1.59790680               20.60799037                2.05026665
              10.79378524                7.52950021               31.08049060                0.28332237               -0.88192220                0.02134031               -0.36202081               -0.97566917               10.42617751                2.57382974
              11.79545522                7.38405975               30.92101141                0.57106003                0.22016068                0.18001589               -0.73896965               -0.00609142                0.02481571                1.01610767
              12.79818846                7.23892495               30.76122483                0.97994899                0.27332356                0.38797248               -1.10758728                0.00368549                0.02130676               -0.65644119
               3.07510786                9.84221714               31.10345224                1.00000000                0.02462569               -0.02721017                0.06228857               -0.02268294               -0.01451428                0.74927842
               4.07535412                9.67789382               30.94184922                0.56123453                0.06434795                0.07317758               -0.22677050               -0.00010464                0.07677186               -0.62150943
               5.07639482                9.51317708               30.78198342                0.01021229               -0.77582847                0.17187264               -0.52076351                0.41786970               10.74914945               -1.62029767
               6.05983755                9.35630454               30.83378522                0.00010000               -1.89302131                0.86935319               -0.36449664                0.38531896               21.49700902                0.16318153
               7.03853439                9.19828829               30.88690802                0.00010000               -2.20111129                0.97490624               -0.34756535                0.06792423               21.77975479                0.31363897
               8.01581532                9.03617245               30.94186874                0.00010000               -2.39640227                1.05041968               -0.32524147               -0.32245744               22.18046484                0.44387493
               8.99060635                8.87060870               31.00070442                0.00010000               -2.69125676                1.08264311               -0.26378112               -0.85536229               22.81199332                0.72301938
               9.96199019                8.69997372               31.06626548                0.06104141               -2.62747410                0.96923381               -0.13006117               -1.56709570               22.99288317                1.49035413
              10.93805687                8.53001580               31.12701750                0.32481345               -1.11808829                0.08914049               -0.33668576               -1.31704977               11.56968298                1.61562456
              11.93962842                8.38596095               30.96185301                0.58303067                0.21453823                0.20030203               -0.72529147               -0.02859605                0.13453870                0.74547011
              12.94234763                8.24263742               30.79355551                0.96451650                0.27192091                0.35872779               -1.10095939                0.00591071               -0.00628300               -0.67665822
               3.23871110               10.84217599               31.05932341                1.00000000                0.06776553               -0.00411413               -0.07534198                0.02552058                0.41036713                0.63660206
               4.23938876               10.67882796               30.89409701                0.81878965                0.10751699                0.09341417               -0.36727830                0.04651491                0.82697614               -0.51466834
               5.24086144               10.51503702               30.73710393                0.50213543               -1.01398163                0.18599403               -0.65537172                0.85379588               12.70039866               -1.01834454
               6.21910912               10.36697064               30.80926888                0.36791169               -2.09947919                1.06660987               -0.52172934                0.60744445               23.97228895                0.01049373
               7.19887186               10.20864275               30.87344869                0.35773973               -2.07544902                1.03544673               -0.44136455                0.05369907               23.79772914                0.13694833
               8.17760014               10.04736969               30.93905598                0.37240592               -2.27464922                1.11972410               -0.38291901               -0.12717654               24.21905715                0.22148693
               9.15337887                9.88252958               31.00932357                0.41065091               -2.76277462                1.19208883               -0.27962676               -0.40613919               25.08175424                0.39017869
              10.12234465                9.71370186               31.09045220                0.54728291               -3.59609247                1.37281376               -0.01550018               -1.52688200               25.05596343                0.96898220
              11.08145702                9.53128302               31.15955391                0.68587192               -2.00414875                0.12672208               -0.36122696               -1.94178750               13.03078652                0.93571155
              12.08226167                9.38806580               30.99896986                0.80928632                0.17483490                0.21048484               -0.73426588                0.00414976                1.00625709                0.57894362
              13.08495372                9.24609951               30.82715010                0.98129662                0.26920456                0.34620833               -1.10527082                0.06398003                0.46475034               -0.59473671
               1.64248713                0.91413736               32.46555548                1.00000000               -0.34131361               -0.36692340                1.27425258               -0.05936907               -0.92950498                0.95166731
               2.63907400                0.73194502               32.36416609                1.00000000               -0.29560023               -0.28937565                1.02746724               -0.03924563               -1.20846659                0.10701236
               3.63657513                0.54944732               32.25721265                1.00000000               -0.19524009               -0.21177650                0.76664704               -0.03538746               -1.17958593               -0.21594444
               4.63516919                0.36713344               32.15649383                0.62440957                0.08626765               -0.15433579                0.51246378                0.18929686               -0.33356095               -0.82629637
               5.63830048                0.18994444               32.06662953                0.71892040                0.22059123               -0.07552619                0.23919509               -0.07395028                0.01994155                0.27077012
               6.63958102                0.01707608               31.97397398                0.80314564                0.12117938                0.01420234               -0.02540551               -0.03427493               -0.30154602                0.15701368
               7.64072407               -0.15449832               31.87778819                0.78146640                0.14716102                0.08958910               -0.29096607               -0.01536469               -0.53840230               -0.07539538
               8.64252424               -0.32532927               31.78034044                0.85833665                0.20378704                0.17514920               -0.57143865               -0.02509652               -0.81267751                0.10494128
               9.64479981               -0.49592481               31.67848452                1.00000000                0.26234085                0.25615635               -0.84972092               -0.02423497               -1.10586806                0.57323116
              10.64777106               -0.66670374               31.57492973                1.00000000                0.33594404                0.33916609               -1.12248677               -0.03038933               -1.07031781               -0.00426764
              11.65151869               -0.83760781               31.47374120                1.00000000                0.37476336                0.43153456               -1.38835899               -0.03417039               -0.95420350               -0.94688761
               1.82408579                1.91046813               32.42325421                1.00000000               -0.30592240               -0.35200410                1.14418257               -0.01907321               -0.13812374                1.29629476
               2.82102656                1.72905126               32.32159177                1.00000000               -0.27293737               -0.26908497                0.89790738                0.00238244               -0.15189430                0.15155687
               3.81862704                1.54732955               32.21961458                0.88845951               -0.21064821               -0.18797288                0.64850536                0.00816615                0.00968120               -0.55154099
               4.81681360                1.36559009               32.12114548                0.22916536               -0.30186909               -0.13279417                0.40222788                0.27978428                1.63947528               -1.24557757
               5.81258966                1.18918918               32.05163710                0.39532689               -0.26769745                0.01099966                0.15298896               -0.07170006                2.45013587                1.04548626
               6.81145965                1.01721810               31.96785120                0.50130022               -0.04082816                0.06034106               -0.10069551                0.04622100                1.52631244                0.46552669
               7.81177309                0.84639757               31.87940255                0.40757628                0.07634350                0.10756935               -0.35594142                0.09014091                1.43912844               -0.31235632
               8.81298652                0.67642223               31.79378480                0.51574761                0.17358011                0.20123501               -0.62529614                0.05245573                1.48598738                0.53759987
               9.81524470                0.50663675               31.70639770                1.00000000                0.26610689                0.25931717               -0.87372932                0.01938872                0.76870129                0.81879204
              10.81830866                0.33668792               31.60664598                1.00000000                0.34181755                0.33812608               -1.13612467                0.01092787                0.08666415                0.12054281
              11.82208105                0.16670754               31.50561525                1.00000000                0.37723899                0.44655010               -1.40040680                0.00843734                0.02441160               -1.10482791
               2.00493940                2.90709728               32.38784148                1.00000000               -0.26791816               -0.32707547                1.02372593               -0.01251464                0.05097949                1.64011826
               3.00226022                2.72656332               32.27988917                1.00000000               -0.23698894               -0.23225920                0.77449823                0.01175192                0.22441855                0.13129278
               4.00019963                2.54568786               32.17530554                0.58875077               -0.16774867               -0.14371736                0.52558811                0.01816988                0.73240301               -1.32825578
               4.99890525                2.36447756               32.07742586                0.00010000               -0.74805835               -0.10268066                0.25900717                0.40313802                4.70500011               -2.07228015
               5.98523846                2.19016444               32.05219825                0.00010000               -0.78041010                0.01368751                0.02209470                0.63814419                5.61892433               -1.20630995
               6.98329705                2.01828290               31.96796783                0.00010000               -0.09578468               -0.07068398               -0.18995902                0.47764575                2.32173079               -0.16443442
               7.98332277                1.84765307               31.87635747                0.00010000                0.00185632               -0.06585877               -0.40277728                0.34819686                3.51454550                0.69654308
               8.98333417                1.67869543               31.81598680                0.00010000                0.07995625               -0.01424619               -0.70996811                0.20337344                4.23786930                1.28508970
               9.98492189                1.50926153               31.73934304                0.49899609                0.22923241                0.24075151               -0.89260149               -0.04678893                2.31488777                1.71190859
              10.98791882                1.34005878               31.64088783                1.00000000                0.33631507                0.31914743               -1.13756250               -0.02054752                0.82250200                0.81227372
              11.99164819                1.17132320               31.53427253                1.00000000                0.37293693                0.47184571               -1.41569915               -0.00212217                0.42104169               -1.04918732
               2.18490342                3.90392662               32.35245739                1.00000000               -0.22323965               -0.30576145                0.90083722               -0.01246152                0.10492703                1.54251779
               3.18267103                3.72440608               32.23691342                1.00000000               -0.19136130               -0.19711981                0.64760124                0.00961108                0.14913923               -0.02470259
               4.18107620                3.54445520               32.12217346                0.35128294               -0.11356214               -0.09678364                0.40257673               -0.01922773                1.10033181               -1.68300003
               5.18039978                3.36353647               32.02565141                0.00010000               -0.47644986               -0.05916841                0.15731242                0.32554530                5.18750281               -2.75624918
               6.17154720                3.18946293               31.99249294                0.00010000               -0.84379243               -0.03939968               -0.04302614                0.81242785                7.92362597               -3.02601962
               7.16352393                3.01580443               31.94937344                0.00010000               -0.66113488               -0.10556648               -0.23581613                0.57768315                7.09688231               -0.74555918
               8.15832450                2.84508039               31.89795094                0.00010000               -0.40392037               -0.15630379               -0.44250610                0.38226636                6.62464097                1.51757455
               9.15544553                2.67613730               31.84426626                0.00010000               -0.26894639               -0.16274720               -0.64707250                0.33661076                6.28324826                1.98943803
              10.15294557                2.51145178               31.78506981                0.22091309                0.01952570                0.06191609               -0.83107412                0.02759659                4.08329866                3.19253761
              11.15583604                2.34307087               31.68632805                0.92759589                0.32820979                0.27956715               -1.09716333               -0.07578356                1.09713843                1.32254468
              12.15950977                2.17614445               31.56691149                1.00000000                0.36737286                0.47474621               -1.38480767               -0.01506912                0.07324654               -0.63883367
               2.36373126                4.90098205               32.31515426                1.00000000               -0.18073992               -0.27635202                0.76759918               -0.02101930                0.15991832                1.32263804
               3.36192386                4.72262092               32.19208791                0.83582062               -0.15232922               -0.15251920                0.51230735               -0.00412340                0.24338808               -0.27483892
               4.36068468                4.54375219               32.07062286                0.20198785               -0.07577164               -0.03732476                0.26921446               -0.07061965                1.27508399               -1.73191426
               5.36040843                4.36329419               31.96818950                0.00010000               -0.57328070                0.06495095                0.03615350                0.13670724                6.79511015               -2.78979807
               6.34921906                4.18937644               31.95695736                0.00010000               -1.05875913                0.08128294               -0.11111187                0.25705598               10.99914857               -1.34016428
               7.33923325                4.01617157               31.93750158                0.00010000               -0.92919231                0.09830269               -0.26957208                0.13626947               10.30469347               -0.09939759
               8.33063522                3.84452699               31.91094096                0.00010000               -0.77691207                0.02566736               -0.44016603                0.03269112                9.82328769                1.21658085
               9.32369500                3.67544049               31.88007972                0.00010000               -0.60474797               -0.02941381               -0.61288880                0.02202781                9.64095689                2.46063562
              10.31854026                3.51049985               31.84797744                0.18757391               -0.09922642               -0.14943594               -0.78262073               -0.02228430                5.42378304                3.89946208
              11.32171048                3.34565012               31.73068114                0.70727020                0.33296885                0.21731565               -1.00376087               -0.02621935                0.68532259                1.42710422
              12.32519963                3.18081812               31.60331659                1.00000000                0.34891574                0.47148681               -1.31594065               -0.04619455                0.18483447               -0.36424433
               2.54120530                5.89839958               32.27542192                1.00000000               -0.13868729               -0.23350123                0.62497133               -0.02661182                0.13131520                1.09357671
               3.53981842                5.72135569               32.14405231                0.67282738               -0.11073822               -0.09883489                0.35682088               -0.01483983                0.31855206               -0.55441615
               4.53899053                5.54370871               32.01635906                0.13209569               -0.11543769                0.02978901                0.10634257               -0.06448300                1.84365962               -2.07088228
               5.53750967                5.36483549               31.91550274                0.00010000               -0.75897983                0.22424957               -0.08919426               -0.12763931                8.99658243               -1.35463875
               6.52381094                5.19108859               31.93083383                0.00010000               -1.32054484                0.24756614               -0.15949776               -0.05744096               14.16481552               -0.40541159
               7.51109877                5.01777048               31.93205556                0.00010000               -1.20507648                0.23158223               -0.28868144               -0.22731348               13.21603379                0.46142573
               8.49970941                4.84559374               31.92664500                0.00010000               -1.05927758                0.16176032               -0.42791742               -0.33628067               12.83209898                1.44965515
               9.48991322                4.67554903               31.91802452                0.00010000               -0.87095759                0.03562869               -0.56804360               -0.36127183               12.75338877                2.54476886
              10.48229026                4.50846306               31.90860479                0.19061728               -0.24599193               -0.17973350               -0.71351144               -0.18323590                6.79475086                3.66985610
              11.48499338                4.34741718               31.77828434                0.62143071                0.29798124                0.16572007               -0.91086401                0.03315833                0.42449692                1.53580285
              12.48824988                4.18557419               31.64109760                1.00000000                0.32564962                0.46973909               -1.24302823               -0.02758224                0.08955719               -0.27681734
               2.71728680                6.89631203               32.23356740                1.00000000               -0.09688615               -0.18106685                0.47689982               -0.02578252                0.06083460                0.92764964
               3.71631794                6.72064422               32.09353819                0.57420929               -0.06857895               -0.04767351                0.20384313               -0.01529084                0.28097441               -0.71313925
               4.71591522                6.54434797               31.95784130                0.09222209               -0.29210875                0.08873853               -0.05611612               -0.01546016                3.71125686               -2.39703829
               5.71047576                6.36777918               31.88643037                0.00010000               -1.03899818                0.31230168               -0.07660070               -0.32485906               11.87443476                0.57827596
               6.69513526                6.19432776               31.91405448                0.00010000               -1.51469689                0.38790589               -0.18492890               -0.31138974               16.41049994                0.37025910
               7.68018182                6.02080322               31.93172295                0.00010000               -1.45020993                0.38244303               -0.29892340               -0.51391277               15.79095322                0.84467449
               8.66613106                5.84776220               31.94478728                0.00010000               -1.32907870                0.28467033               -0.40718045               -0.69736993               15.59838061                1.58404427
               9.65360025                5.67615306               31.95606927                0.00010000               -1.15618359                0.10326662               -0.50877824               -0.80829162               15.65391743                2.47422112
              10.64300738                5.50690518               31.96750352                0.21012177               -0.41688682               -0.11695362               -0.60181774               -0.44461829                8.10049657                3.44168927
              11.64526251                5.34896452               31.82502412                0.57638036                0.26632912                0.15943233               -0.85547287                0.04382861                0.23698825                1.42352065
              12.64833397                5.19021290               31.67891354                0.99532525                0.30714537                0.45830913               -1.20309444               -0.01336529                0.06405690               -0.31891436
               2.89202526                7.89477824               32.19052421                1.00000000               -0.05485846               -0.12572582                0.33001602               -0.02451888                0.02282153                0.85294931
               3.89147667                7.72040222               32.04221242                0.52854309               -0.02394421               -0.00356012                0.05429714               -0.00951874                0.17309017               -0.75254260
               4.89154637                7.54548348               31.89682981                0.06614803               -0.52219900                0.12794748               -0.21769753                0.03818287                6.38343196               -2.54455825
               5.88103269                7.37108152               31.87272280                0.00010000               -1.34936321                0.38559075               -0.04580310               -0.24954518               15.22259420                1.08158693
               6.86455911                7.19884671               31.90388091                0.00010000               -1.68233025                0.54000288               -0.21705785               -0.33912885               18.05989690                0.72178351
               7.84738609                7.02541934               31.93452289                0.00010000               -1.70734721                0.57723434               -0.30958509               -0.67786605               18.09038183                0.97815433
               8.83041216                6.85128715               31.96387013                0.00010000               -1.63908399                0.45578999               -0.38207560               -1.02782944               18.16478943                1.56534217
               9.81460441                6.67761436               31.99323041                0.00010000               -1.49128664                0.21889344               -0.44364826               -1.26094931               18.37697775                2.30252874
              10.80058643                6.50612399               32.02393030                0.24045693               -0.60210858               -0.04102487               -0.48584890               -0.73266431                9.35713623                3.12748661
              11.80256223                6.35060583               31.87025993                0.55518385                0.24496926                0.17331994               -0.81279590                0.02597663                0.08969811                1.25607496
              12.80548582                6.19474037               31.71537251                0.97600415                0.29235807                0.43970646               -1.17270100               -0.00213628                0.03931404               -0.45548584
               3.06554846                8.89379751               32.14714899                1.00000000               -0.01261344               -0.07176884                0.18534092               -0.02343940                0.00673093                0.84986170
               4.06542233                8.72057302               31.99079985                0.53105054                0.02255573                0.03691092               -0.09278661               -0.00352124                0.04532193               -0.74505434
               5.06599958                8.54690692               31.83513905                0.04406008               -0.66503480                0.15192176               -0.37815378                0.13645726                8.83478536               -2.40549664
               6.05212163                8.37549100               31.85455106                0.00010000               -1.59923560                0.54784216               -0.18678457                0.05236322               18.69130977                0.51435938
               7.03401486                8.20512782               31.89482761                0.00010000               -1.89687844                0.75443231               -0.28418587               -0.19093283               19.97057464                0.61878542
               8.01418406                8.03234790               31.93765707                0.00010000               -2.03177065                0.81969966               -0.33189563               -0.66253077               20.32315687                0.83361149
               8.99337945                7.85687800               31.98249749                0.00010000               -2.03198185                0.74835309               -0.34657887               -1.19859986               20.61913540                1.32885646
               9.97354442                7.68053093               32.02852287                0.02109058               -1.90084099                0.40793028               -0.37618523               -1.74167087               20.92921819                2.22131696
              10.95536263                7.50608468               32.07664466                0.27868854               -0.81893812                0.03050836               -0.40797326               -1.04230872               10.58548725                2.64815490
              11.95716566                7.35243092               31.91340306                0.55319041                0.23297589                0.19420428               -0.78432418               -0.00281463                0.01927582                1.05381957
              12.96002215                7.19900703               31.74993191                0.96451304                0.28564861                0.40881319               -1.15472825                0.00659800                0.02077813               -0.63694107
               3.23800545                9.89334287               32.10397965                1.00000000                0.02913954               -0.02178660                0.04305086               -0.02279626               -0.01565194                0.74771576
               4.23829684                9.72114044               31.93952937                0.55884901                0.06760464                0.07675608               -0.23758565               -0.00091903                0.07247508               -0.62838661
               5.23935754                9.54852191               31.77674996                0.00959450               -0.72188973                0.17446701               -0.52529519                0.33136447               10.96024694               -1.62777869
               6.22385905                9.38203837               31.83001294                0.00010000               -1.77369982                0.83246636               -0.39446303                0.27577651               21.87536534                0.10200950
               7.20388354                9.21393535               31.88327877                0.00010000               -2.07368763                0.94010106               -0.38406897               -0.03105715               22.10931672                0.31537198
               8.18238530                9.04181333               31.93840190                0.00010000               -2.28132030                1.02016419               -0.37481341               -0.41362314               22.54620352                0.47000244
               9.15825714                8.86625421               31.99782415                0.00010000               -2.59104967                1.05929224               -0.32178932               -0.95623042               23.25386951                0.78190551
              10.13056430                8.68577296               32.06478802                0.06479638               -2.52084359                0.94098490               -0.17966401               -1.67146507               23.31440371                1.68039009
              11.10784027                8.50673416               32.12337388                0.32348540               -1.04903541                0.10546152               -0.39068515               -1.36101570               11.64275027                1.63570792
              12.10958359                8.35448991               31.95432150                0.56439514                0.23126446                0.21816677               -0.78143091               -0.02686760                0.12847606                0.75991466
              13.11246556                8.20291664               31.78228001                0.95036532                0.28819614                0.37845262               -1.15671484                0.00884702               -0.00434244               -0.66999864
               3.40949739               10.89336178               32.05846501                1.00000000                0.07275125                0.00189135               -0.09641091                0.02383011                0.40952340                0.63643529
               4.41022490               10.72210814               31.89037033                0.81808747                0.11157765                0.09677019               -0.37874674                0.04452923                0.82745769               -0.51922264
               5.41172894               10.55039626               31.73053336                0.50117763               -0.90005882                0.18743410               -0.65955112                0.73874885               12.90457120               -1.01736010
               6.39222372               10.39214033               31.80391988                0.36814745               -1.90550916                1.01019573               -0.55125583                0.51314667               24.37783631               -0.03445909
               7.37361875               10.22392984               31.86882672                0.35789965               -1.93154899                0.99944898               -0.48844847                0.00406425               24.18734119                0.13338242
               8.35359274               10.05275119               31.93496028                0.37219987               -2.16617716                1.09378553               -0.44374900               -0.17255552               24.63805173                0.23497706
               9.33029521                9.87806384               32.00623769                0.40982518               -2.69787816                1.18096310               -0.34891415               -0.46622055               25.62487318                0.42678508
              10.29963518                9.69935063               32.09012735                0.55048642               -3.54349219                1.35776670               -0.07114222               -1.58640881               25.37955028                1.12228760
              11.25942537                9.50819391               32.15557662                0.68647955               -1.95946746                0.14597583               -0.43262998               -1.96930852               13.04476359                0.92806087
              12.26044583                9.35679426               31.99126609                0.79960447                0.19601352                0.23043453               -0.80656029                0.00533197                1.01845146                0.58111469
              13.26334564                9.20657608               31.81576333                0.97439630                0.28998093                0.36594471               -1.17448713                0.06619095                0.47981194               -0.59287331
               1.73573698                0.96667245               33.47828293                1.00000000               -0.34300773               -0.36710673                1.27282195               -0.05825235               -0.94393753                0.96412794
               2.73230690                0.77625060               33.37443760                1.00000000               -0.29944954               -0.28796380                1.02718490               -0.03833103               -1.23084443                0.11041677
               3.72974799                0.58545730               33.26488592                1.00000000               -0.20241007               -0.21181995                0.76904773               -0.03823712               -1.20524987               -0.21246063
               4.72825870                0.39467680               33.16165384                0.62547816                0.06015545               -0.15918780                0.51974103                0.14910915               -0.36747004               -0.83431281
               5.73095110                0.20807189               33.06901767                0.71764147                0.19736485               -0.07763824                0.23720221               -0.07162929               -0.01256157                0.27423291
               6.73220600                0.02515117               32.97375653                0.80245182                0.12181299                0.01067452               -0.01894807               -0.04010039               -0.31894581                0.16015539
               7.73338736               -0.15653298               32.87494938                0.78515948                0.15306830                0.08516522               -0.27672706               -0.02091896               -0.56018416               -0.07173471
               8.73526736               -0.33745985               32.77471989                0.86264430                0.21329784                0.16850630               -0.54841991               -0.03167745               -0.84199361                0.10492596
               9.73765331               -0.51795495               32.67008934                1.00000000                0.26863288                0.24846610               -0.82427178               -0.03217114               -1.13617282                0.57952148
              10.74064002               -0.69842945               32.56378170                1.00000000                0.33531040                0.33680358               -1.10321836               -0.02992065               -1.09749068               -0.00888907
              11.74435952               -0.87904023               32.45990850                1.00000000                0.37195009                0.43387153               -1.37485170               -0.02918282               -0.97915973               -0.97393177
               1.92557630                1.96300138               33.43466968                1.00000000               -0.30451381               -0.35339546                1.13991854               -0.01695710               -0.14292080                1.31293113
               2.92253116                1.77337096               33.33055678                1.00000000               -0.27118907               -0.26843980                0.89573515                0.00342006               -0.15889461                0.15783504
               3.92015252                1.58333910               33.22610427                0.90365645               -0.20443320               -0.18739071                0.64354399                0.00063556                0.00032246               -0.54599434
               4.91844250                1.39308492               33.12513844                0.23817226               -0.25774496               -0.14081835                0.38621069                0.22946591                1.63016708               -1.25780150
               5.91499762                1.20729551               33.05308621                0.40011654               -0.21675358                0.00388027                0.13380021               -0.06536136                2.45005100                1.02367530
               6.91410743                1.02525791               32.96682172                0.50590367               -0.02569716                0.05610686               -0.10967886                0.02797436                1.53081347                0.46201393
               7.91448368                0.84431868               32.87585837                0.41555050                0.07770733                0.11044951               -0.35601527                0.06838538                1.43658910               -0.30071649
               8.91566157                0.66422521               32.78754357                0.51809638                0.16663618                0.20013309               -0.62034956                0.02807525                1.48852664                0.52005395
               9.91781640                0.48452971               32.69763740                1.00000000                0.26109404                0.25658871               -0.87616142                0.00460927                0.77623008                0.82537934
              10.92088345                0.30493859               32.59524571                1.00000000                0.34310352                0.33963210               -1.14374259                0.01182400                0.08742506                0.11984059
              11.92467847                0.12529849               32.49154260                1.00000000                0.37950166                0.45688497               -1.41430709                0.01406737                0.02531882               -1.13629872
               2.11465867                2.95960454               33.39804123                1.00000000               -0.26210914               -0.33022424                1.01667658               -0.01146147                0.05110376                1.65973075
               3.11203758                2.77088181               33.28760304                1.00000000               -0.23059625               -0.23243287                0.76920322                0.00904946                0.22808369                0.14014597
               4.11004674                2.58170949               33.18061719                0.60325796               -0.15729812               -0.13805081                0.53089727               -0.00786631                0.72903250               -1.32498435
               5.10889161                2.39186043               33.08012177                0.00010000               -0.62879328               -0.10590562                0.26183384                0.32581842                4.68996335               -2.07509562
               6.09747088                2.20814950               33.05221932                0.00010000               -0.65746489                0.00176670               -0.01741700                0.48388385                5.64768896               -1.20199136
               7.09574232                2.02627330               32.96599025                0.00010000               -0.08415565               -0.06264065               -0.21208156                0.32657686                2.37904546               -0.14926054
               8.09578776                1.84567601               32.87227372                0.00010000               -0.00622441               -0.05051822               -0.42092761                0.21398185                3.52063058                0.72073930
               9.09561783                1.66654281               32.80882303                0.00010000                0.06221785               -0.00124409               -0.72003042                0.09713506                4.26511701                1.32122209
              10.09703212                1.48717683               32.73028309                0.48734119                0.22449486                0.22942526               -0.92408364               -0.09085276                2.38168096                1.76905461
              11.10010773                1.30836319               32.62936809                1.00000000                0.34444710                0.32388418               -1.17058319               -0.02782022                0.84751047                0.84072091
              12.10392106                1.13009747               32.51993117                1.00000000                0.38133382                0.49358330               -1.45759807               -0.00024253                0.43303766               -1.05605704
               2.30279253                3.95639689               33.36141798                1.00000000               -0.21853361               -0.30910290                0.89165811               -0.01434135                0.10979752                1.55513718
               3.30060720                3.76872231               33.24336304                1.00000000               -0.18879835               -0.19562979                0.64217136                0.00462993                0.15827616               -0.02108160
               4.29901657                3.58057809               33.12619412                0.35650957               -0.10441690               -0.08690310                0.40214704               -0.05477303                1.11189618               -1.68678241
               5.29851886                3.39096681               33.02720577                0.00010000               -0.43770721               -0.04178380                0.15368971                0.21661495                5.22024432               -2.75352125
               6.29026242                3.20733084               32.99201577                0.00010000               -0.77032072               -0.04241506               -0.05565715                0.57345060                7.98346615               -2.98113317
               7.28311245                3.02400510               32.94689646                0.00010000               -0.58843082               -0.10009890               -0.26237205                0.34556980                7.16004184               -0.69611953
               8.27849381                2.84330831               32.89338127                0.00010000               -0.35044932               -0.14900024               -0.47377128                0.17074416                6.68985594                1.56829977
               9.27610346                2.66420033               32.83761615                0.00010000               -0.21574233               -0.15678645               -0.68744075                0.16310423                6.36348770                2.08948081
              10.27417896                2.48911822               32.77668511                0.21392191                0.06514721                0.02653652               -0.84299077               -0.03880229                4.11607835                3.23927956
              11.27740640                2.31141627               32.67520980                0.89383405                0.35130494                0.27874972               -1.14235862               -0.07818463                1.12177270                1.40478679
              12.28120506                2.13517015               32.55290177                1.00000000                0.37986553                0.49656936               -1.43125992               -0.02080583                0.10324242               -0.58977571
               2.48972102                4.95342248               33.32277679                1.00000000               -0.17720370               -0.27871793                0.75704694               -0.02330889                0.16839624                1.32463514
               3.48794898                4.76696921               33.19717617                0.82833337               -0.15071182               -0.14817081                0.50540730               -0.00890362                0.25792650               -0.28572675
               4.48670678                4.57997143               33.07329688                0.20193940               -0.07389108               -0.02713725                0.26516827               -0.09582529                1.29846299               -1.75165008
               5.48647116                4.39102475               32.96851159                0.00010000               -0.54025917                0.08913085                0.02763252                0.02031720                6.85883409               -2.78201765
               6.47590160                4.20730119               32.95580460                0.00010000               -0.98974581                0.08294567               -0.12320819                0.07720811               11.10848729               -1.29212932
               7.46667624                4.02427132               32.93468205                0.00010000               -0.84470906                0.08507282               -0.29781010               -0.04669858               10.40781580               -0.03494410
               8.45900742                3.84269601               32.90634904                0.00010000               -0.68031198                0.01047294               -0.48342105               -0.14087166                9.92922286                1.29749852
               9.45307000                3.66340708               32.87371493                0.00010000               -0.49836418               -0.04780153               -0.66804579               -0.15245624                9.76584782                2.55570861
              10.44904013                3.48770756               32.83998613                0.18001956               -0.02889532               -0.18163932               -0.84358700               -0.09493988                5.55312389                3.96358753
              11.45249210                3.31393819               32.72060153                0.67466649                0.34785220                0.20974732               -1.01235925               -0.02257121                0.74538092                1.53032333
              12.45599718                3.14002886               32.59011787                1.00000000                0.35050800                0.48984901               -1.33191882               -0.05104651                0.19723638               -0.29084954
               2.67523290                5.95082254               33.28161063                1.00000000               -0.13527192               -0.23460005                0.61288312               -0.02816913                0.13174929                1.08730348
               3.67388018                5.76575889               33.14758205                0.66570872               -0.10941895               -0.09296859                0.34904674               -0.01923987                0.32773449               -0.57326491
               4.67304452                5.58003534               33.01740552                0.13023419               -0.11423698                0.04128109                0.10287271               -0.08874224                1.89016997               -2.10248372
               5.67159544                5.39274942               32.91464493                0.00010000               -0.72422513                0.22537646               -0.08054617               -0.25292651                9.12829429               -1.27142619
               6.65856002                5.20898976               32.92921445                0.00010000               -1.24058886                0.23540365               -0.16764804               -0.24681905               14.32973913               -0.33515129
               7.64678366                5.02570655               32.92903347                0.00010000               -1.10096979                0.20852239               -0.32036446               -0.39700734               13.35577971                0.53699917
               8.63654062                4.84351777               32.92214593                0.00010000               -0.93704376                0.13183833               -0.47851849               -0.49847496               12.98166960                1.54084665
               9.62804279                4.66324430               32.91207024                0.00010000               -0.73957818                0.00679158               -0.63320059               -0.53407620               12.91956397                2.65333923
              10.62174906                4.48548543               32.90117584                0.18236573               -0.17045538               -0.19518948               -0.78436158               -0.27124342                6.96131873                3.78691766
              11.62463368                4.31561122               32.76907510                0.59610124                0.31268637                0.16801069               -0.94552747                0.03204816                0.50116065                1.62449385
              12.62800278                4.14496713               32.62852090                0.99885355                0.33691051                0.49422328               -1.29176665               -0.02316060                0.09351031               -0.21876142
               2.85928493                6.94873048               33.23826747                1.00000000               -0.09335519               -0.18061279                0.46321164               -0.02674808                0.05982388                0.91881205
               3.85835138                6.76510984               33.09553364                0.56741061               -0.06717625               -0.04163835                0.19494906               -0.01923293                0.28649357               -0.72836277
               4.85794140                6.58079705               32.95726354                0.08930536               -0.29465794                0.10104785               -0.06008391               -0.05611578                3.85477562               -2.42602874
               5.85245822                6.39553228               32.88591484                0.00010000               -0.99666582                0.28298926               -0.02648137               -0.46195400               12.07672131                0.72646770
               6.83800809                6.21200927               32.91219161                0.00010000               -1.41250675                0.35936617               -0.19234459               -0.49604320               16.56041666                0.44497987
               7.82420808                6.02844177               32.92858260                0.00010000               -1.32539562                0.34720521               -0.33457434               -0.68133835               15.96289676                0.92274202
               8.81150018                5.84533278               32.94047541                0.00010000               -1.18936331                0.24484671               -0.46232392               -0.85573615               15.79566768                1.68084998
               9.80042082                5.66354291               32.95069086                0.00010000               -1.01259143                0.07070071               -0.57621630               -0.97602992               15.88000244                2.59527450
              10.79124835                5.48380377               32.96118196                0.20176867               -0.33847288               -0.12439238               -0.67498028               -0.52837719                8.27843978                3.59838893
              11.79365136                5.31729840               32.81629085                0.55548346                0.27868914                0.17459841               -0.89861484                0.05013148                0.29094917                1.50091889
              12.79682213                5.14991333               32.66666449                0.97410549                0.31707699                0.48913766               -1.25613770               -0.01037482                0.06625220               -0.26632586
               3.04193922                7.94721028               33.19374686                1.00000000               -0.05102689               -0.12342421                0.31460546               -0.02511073                0.02191758                0.84566073
               4.04142895                7.76492612               33.04270700                0.52259823               -0.02197300                0.00182706                0.04421320               -0.01190942                0.17379639               -0.76429293
               5.04149976                7.58205630               32.89462802                0.06303991               -0.51424037                0.13862173               -0.22415804               -0.02995283                6.61678362               -2.57136772
               6.03114414                7.39840921               32.87244282                0.00010000               -1.28850474                0.35241700               -0.01830589               -0.38429244               15.50186684                1.12681251
               7.01572966                7.21617708               32.90165697                0.00010000               -1.56553769                0.50566036               -0.23323264               -0.50399376               18.20267408                0.77074060
               7.99983339                7.03265066               32.93124726                0.00010000               -1.57024520                0.53563712               -0.35166864               -0.84037518               18.30281585                1.04761254
               8.98432476                6.84841470               32.95978920                0.00010000               -1.48910963                0.40835293               -0.44142642               -1.18441124               18.41376338                1.66657198
               9.97005119                6.66465831               32.98850209                0.00010000               -1.34493678                0.18215014               -0.50994260               -1.41535388               18.66566073                2.42585198
              10.95742602                6.48299759               33.01880823                0.23287694               -0.52622219               -0.03920189               -0.54573269               -0.80943386                9.53587718                3.27120763
              11.95952675                6.31910318               32.86192563                0.53651032                0.25697074                0.18880870               -0.85751188                0.03272168                0.10941192                1.32515984
              12.96256544                6.15474989               32.70340882                0.95862103                0.30386869                0.46826499               -1.22464751                0.00088039                0.04079230               -0.40603370
               3.22335103                8.94626199               33.14891570                1.00000000               -0.00838610               -0.06774231                0.16809767               -0.02375329                0.00590377                0.84472548
               4.22326717                8.76514638               32.98981873                0.52720271                0.02541159                0.04147418               -0.10388329               -0.00440749                0.04011200               -0.75386403
               5.22385926                8.58356948               32.83132055                0.04169305               -0.63077887                0.15854428               -0.38600439                0.05253355                9.06012562               -2.42258310
               6.21065159                8.40258062               32.85258928                0.00010000               -1.50862492                0.52833464               -0.21393082               -0.08875553               19.02451154                0.44423703
               7.19368676                8.22212248               32.89185252                0.00010000               -1.77443182                0.72097688               -0.31609536               -0.34120018               20.19219819                0.63331270
               8.17516295                8.03915451               32.93411353                0.00010000               -1.89412329                0.78093155               -0.38371741               -0.81310070               20.59795453                0.88445884
               9.15580430                7.85349983               32.97874259                0.00010000               -1.88160486                0.70459526               -0.41351694               -1.34978675               20.92449830                1.42495171
              10.13753086                7.66718591               33.02445332                0.02003267               -1.75947506                0.36593664               -0.44563526               -1.89013823               21.25472307                2.40402894
              11.12061480                7.48301973               33.07233114                0.27305932               -0.74886834                0.04002072               -0.45675400               -1.10794883               10.75466656                2.73884656
              12.12255349                7.32107457               32.90532492                0.53518108                0.24657673                0.20965135               -0.83288604                0.00119780                0.01532039                1.10208947
              13.12554633                7.15927863               32.73813026                0.94935672                0.29928398                0.43280703               -1.20821928                0.00932142                0.02029117               -0.60250281
               3.40369538                9.94585543               33.10431326                1.00000000                0.03379264               -0.01640064                0.02380558               -0.02298788               -0.01675954                0.74508922
               4.40403331                9.76575561               32.93709751                0.55641502                0.07104010                0.08076046               -0.24941322               -0.00129325                0.06774609               -0.63381138
               5.40511618                9.58522719               32.77147751                0.00922349               -0.66086342                0.17767588               -0.53073107                0.23821702               11.15205042               -1.63075962
               6.39081604                9.40897590               32.82589596                0.00010000               -1.63922084                0.79434736               -0.43364998                0.15451667               22.22874942                0.03918717
               7.37233177                9.23059662               32.87922664                0.00010000               -1.93110127                0.90460187               -0.43131411               -0.14075468               22.41986338                0.31294310
               8.35219401                9.04826929               32.93437247                0.00010000               -2.15170713                0.98989792               -0.43881062               -0.51513764               22.89174653                0.49610516
               9.32929762                8.86250661               32.99426863                0.00010000               -2.47327406                1.03691912               -0.40150843               -1.06936377               23.68693678                0.84365141
              10.30272853                8.67197704               33.06267220                0.06788163               -2.39596197                0.91415141               -0.26475955               -1.78213705               23.64420165                1.87812686
              11.28137838                8.48379800               33.11920380                0.32153617               -0.97183606                0.12095160               -0.44218904               -1.40410378               11.72065411                1.66005557
              12.28329181                8.32329621               32.94622440                0.54590439                0.24826898                0.23621675               -0.83800997               -0.02507352                0.12098428                0.77862790
              13.28634376                8.16340603               32.77042122                0.93635509                0.30519527                0.39983890               -1.21674692                0.01143944               -0.00291529               -0.65478273
               3.58309093               10.94593398               33.05739520                1.00000000                0.07786239                0.00785474               -0.11744496                0.02231528                0.40802786                0.63519162
               4.58386955               10.76676159               32.88652208                0.81755834                0.11561896                0.10059818               -0.39170209                0.04307539                0.82645020               -0.52246219
               5.58540331               10.58712300               32.72391290                0.50031140               -0.77485286                0.18958159               -0.66647344                0.61401144               13.09025055               -1.01429170
               6.56837249               10.41846757               32.79824377                0.36836651               -1.69125126                0.94916689               -0.58645187                0.41022101               24.74959437               -0.07218789
               7.55157828               10.24021451               32.86367973                0.35805612               -1.77111424                0.96178960               -0.54639996               -0.05110336               24.54867931                0.12824810
               8.53295021               10.05895247               32.93018100                0.37196894               -2.04345074                1.06831841               -0.52050733               -0.22319528               25.03294986                0.24821648
               9.51070927                9.87423822               33.00234529                0.40897417               -2.61767420                1.17316071               -0.44404091               -0.53301229               26.15599045                0.46500563
              10.48059673                9.68546894               33.08902936                0.55341593               -3.47478570                1.34918978               -0.17989956               -1.65315341               25.70906105                1.28155824
              11.44121355                9.48543876               33.15090131                0.68689948               -1.90763669                0.16407624               -0.50035533               -1.99998479               13.06139989                0.91880031
              12.44244399                9.32579891               32.98283865                0.79007537                0.21709663                0.25026981               -0.87785777                0.00705008                1.02945684                0.58380321
              13.44555549                9.16727540               32.80366035                0.96756621                0.31114937                0.38693749               -1.24714267                0.06882150                0.49468970               -0.58624675
               1.83129904                1.02064641               34.49101192                1.00000000               -0.34449270               -0.36779610                1.27394473               -0.05772860               -0.95689839                0.97418960
               2.82785411                0.82191499               34.38470979                1.00000000               -0.30225752               -0.28724608                1.02728340               -0.03825183               -1.24888893                0.11623046
               3.82525389                0.62276142               34.27259361                1.00000000               -0.20830314               -0.20830235                0.76917930               -0.04205534               -1.22225642               -0.21108901
               4.82368805                0.42347799               34.16688865                0.62692737                0.03463382               -0.15118662                0.51929237                0.10122493               -0.39842587               -0.85167912
               5.82594656                0.22729202               34.07137358                0.71481377                0.17911735               -0.08309852                0.23171530               -0.07037594               -0.04529024                0.28008586
               6.82727039                0.03414880               33.97359502                0.79809185                0.13052312                0.00758620               -0.01684421               -0.04881517               -0.32614513                0.16272215
               7.82855703               -0.15775101               33.87225365                0.78544400                0.16370063                0.08099100               -0.26596336               -0.02874554               -0.56639526               -0.06772625
               8.83054441               -0.34887811               33.76937204                0.86776019                0.22287543                0.15982755               -0.52140087               -0.04061319               -0.85261557                0.10571789
               9.83301453               -0.53943051               33.66199909                1.00000000                0.27288348                0.23810981               -0.79410906               -0.04130961               -1.15633442                0.58329969
              10.83600208               -0.72980954               33.55286536                1.00000000                0.33336830                0.33078859               -1.07782502               -0.03121873               -1.11925139               -0.01075209
              11.83968190               -0.92035465               33.44624417                1.00000000                0.36798236                0.43135406               -1.35537190               -0.02333577               -0.99806851               -0.99419146
               2.02945317                2.01696845               34.44605258                1.00000000               -0.30390860               -0.35514021                1.13803743               -0.01565053               -0.14741526                1.32731868
               3.02641409                1.81904253               34.33950647                1.00000000               -0.27006714               -0.26775020                0.89366733                0.00508846               -0.17050496                0.16537568
               4.02405183                1.62067839               34.23248546                0.91731671               -0.19895457               -0.18315478                0.63426448               -0.00343748               -0.02184290               -0.53094286
               5.02243500                1.42196612               34.12886970                0.24727770               -0.20722169               -0.12848385                0.36655061                0.15984891                1.61028173               -1.25432654
               6.01990740                1.22646103               34.05431311                0.40408092               -0.15656203               -0.00484833                0.11059018               -0.06821286                2.45489898                1.00362207
               7.01930376                1.03422467               33.96565762                0.50787158               -0.00621847                0.05370759               -0.12694779                0.00755186                1.54665960                0.46005844
               8.01978303                0.84305890               33.87228225                0.42031315                0.08371354                0.11479851               -0.36464641                0.04205333                1.44729220               -0.28967736
               9.02097803                0.65272016               33.78137781                0.51831483                0.16420627                0.19627035               -0.61572833               -0.00127891                1.49534496                0.50801693
              10.02306715                0.46295059               33.68887447                1.00000000                0.25869644                0.25127106               -0.87504456               -0.01129547                0.78231228                0.83027722
              11.02615196                0.27349834               33.58377113                1.00000000                0.34632455                0.33593291               -1.15056850                0.01135901                0.08799933                0.12254994
              12.02999364                0.08395889               33.47732911                1.00000000                0.38416888                0.45987661               -1.42684662                0.02109946                0.02673187               -1.16336679
               2.22683787                3.01354361               34.40817501                1.00000000               -0.25919379               -0.33373202                1.01163801               -0.01055854                0.04962450                1.67822851
               3.22424593                2.81655998               34.29527324                1.00000000               -0.22881668               -0.23156061                0.76545915                0.01005180                0.22958343                0.15040716
               4.22226154                2.61909832               34.18592348                0.61823060               -0.15717734               -0.13192637                0.52715350               -0.01160583                0.71275225               -1.30690266
               5.22110239                2.42090831               34.08266254                0.00010000               -0.49688867               -0.09449483                0.24549920                0.23223744                4.64016901               -2.03720022
               6.21232377                2.22719505               34.05184991                0.00010000               -0.51394121               -0.01030188               -0.05428912                0.29665408                5.66290204               -1.18385876
               7.21082356                2.03522296               33.96372620                0.00010000               -0.07105852               -0.05172164               -0.24411684                0.17027134                2.44437279               -0.12500055
               8.21090259                1.84454496               33.86793892                0.00010000               -0.00982094               -0.03439180               -0.45208683                0.07216190                3.53906612                0.74986521
               9.21062714                1.65504729               33.80158620                0.00010000                0.05539254                0.01574251               -0.73312959               -0.02583234                4.28381363                1.35362499
              10.21201045                1.46559491               33.72086137                0.45628958                0.22969013                0.17918702               -0.96219394               -0.17659196                2.44140580                1.85751028
              11.21522095                1.27690911               33.61747617                1.00000000                0.35861692                0.32174089               -1.21055759               -0.04245710                0.87272907                0.87447048
              12.21918278                1.08884289               33.50512057                1.00000000                0.39618371                0.51016724               -1.50217000                0.00322812                0.44005040               -1.05839071
               2.42320925                4.01029381               34.37029055                1.00000000               -0.21488410               -0.31307532                0.88428427               -0.01512172                0.11299558                1.56809280
               3.42106041                3.81441131               34.24975685                1.00000000               -0.18689326               -0.19363038                0.63689460                0.00312099                0.16590295               -0.01495489
               4.41947138                3.61803987               34.13021640                0.36066045               -0.10386955               -0.07952698                0.40133141               -0.06390565                1.11843005               -1.68598920
               5.41898302                3.42007623               34.02872520                0.00010000               -0.39727729               -0.03468146                0.15184891                0.10950691                5.22992032               -2.71885102
               6.41152584                3.22625499               33.99137980                0.00010000               -0.68118719               -0.04299383               -0.07686678                0.30042960                8.02491418               -2.91549094
               7.40535927                3.03319023               33.94412600                0.00010000               -0.50619554               -0.09436393               -0.29500155                0.10688110                7.21300183               -0.63613309
               8.40140193                2.84237106               33.88847551                0.00010000               -0.29739200               -0.14163342               -0.51202363               -0.04355128                6.75134161                1.62443188
               9.39941143                2.65303501               33.83051744                0.00010000               -0.18642163               -0.14733621               -0.73034813               -0.05445059                6.47122428                2.17971138
              10.39767349                2.46653433               33.76821000                0.20332287                0.13217012               -0.01570152               -0.93429088               -0.11980827                4.20296932                3.36278463
              11.40205484                2.27993316               33.66348088                0.83211840                0.42585846                0.27410852               -1.23800477               -0.05533383                1.13084608                1.53609312
              12.40619066                2.09416224               33.53828629                1.00000000                0.41358281                0.52695580               -1.52029809               -0.03064694                0.15034039               -0.50988777
               2.61830043                5.00728210               34.33029520                1.00000000               -0.17381308               -0.28194211                0.74770305               -0.02506236                0.17551719                1.32745830
               3.61656230                4.81268738               34.20219605                0.82102378               -0.14909577               -0.14391962                0.49876879               -0.01282477                0.27017411               -0.29455792
               4.61531851                4.61750778               34.07592622                0.20107133               -0.07424491               -0.01737457                0.26018805               -0.11065095                1.31600799               -1.76883610
               5.61507740                4.42021468               33.96874215                0.00010000               -0.50500793                0.09637465                0.02286486               -0.09444999                6.91672404               -2.75499348
               6.60521835                4.22633517               33.95449320                0.00010000               -0.91161411                0.08717766               -0.14205586               -0.11938355               11.20299527               -1.23150709
               7.59684512                4.03333568               33.93154538                0.00010000               -0.75157819                0.07098399               -0.33377084               -0.23496360               10.49205899                0.03617974
               8.59018679                3.84171229               33.90127254                0.00010000               -0.57351218               -0.00433781               -0.53690661               -0.31655022               10.01839789                1.37966576
               9.58537487                3.65210057               33.86671880                0.00010000               -0.37353277               -0.06975655               -0.74266785               -0.32841241                9.86647694                2.65671030
              10.58271613                3.46528088               33.83110570                0.17092894                0.05557420               -0.17643679               -0.94002532               -0.14355036                5.69522509                4.05754779
              11.58648636                3.28239129               33.71043396                0.63872296                0.36977760                0.21422910               -1.05565605               -0.01410881                0.84509198                1.67433014
              12.59011169                3.09938200               33.57667821                1.00000000                0.36253295                0.52450542               -1.40039312               -0.04903723                0.22185042               -0.18925356
               2.81189745                6.00465497               34.28767958                1.00000000               -0.13192203               -0.23650305                0.60160671               -0.02967895                0.13153962                1.08163559
               3.81057823                5.81153292               34.15103324                0.65766816               -0.10831973               -0.08676767                0.34120575               -0.02365751                0.33633011               -0.59087796
               4.80973105                5.61769238               34.01841651                0.12752665               -0.11558020                0.05485540                0.09899703               -0.11090889                1.94165578               -2.13154646
               5.80826663                5.42200372               33.91389181                0.00010000               -0.68569400                0.21479788               -0.06927460               -0.38445533                9.25021723               -1.15036751
               6.79601717                5.22799855               33.92748087                0.00010000               -1.14918711                0.22248336               -0.18225778               -0.44681663               14.46827611               -0.25417903
               7.78528288                5.03460991               33.92564827                0.00010000               -0.98555729                0.18542953               -0.36173699               -0.57016969               13.46903561                0.61823703
               8.77630603                4.84228431               33.91707463                0.00010000               -0.80041417                0.10118207               -0.54320684               -0.66103356               13.10635267                1.63890208
               9.76927460                4.65163988               33.90536051                0.00010000               -0.58971284               -0.02369353               -0.72020284               -0.70799197               13.06596578                2.77855387
              10.76451177                4.46300559               33.89291756                0.17314120               -0.08015325               -0.20201575               -0.88859479               -0.35810406                7.14757306                3.94055580
              11.76767153                4.28421774               33.75937380                0.57013776                0.33583558                0.18705430               -1.01064707                0.03796858                0.60326492                1.73623803
              12.77122848                4.10465235               33.61526227                0.97329645                0.35569497                0.53082325               -1.37128704               -0.01653681                0.09491866               -0.13685436
               3.00395094                7.00255204               34.24283163                1.00000000               -0.08992002               -0.18058702                0.45012318               -0.02770704                0.05841885                0.91016640
               4.00305174                6.81095202               34.09743717                0.55967303               -0.06607015               -0.03508243                0.18540830               -0.02269664                0.29169978               -0.74282609
               5.00262953                6.61860489               33.95663962                0.08581940               -0.29848093                0.11533700               -0.06588904               -0.10131077                4.02378989               -2.45556367
               5.99708212                6.42451064               33.88590075                0.00010000               -0.94768526                0.24698061                0.02099260               -0.60227989               12.27552454                0.88405336
               6.98367583                6.23078484               33.91020759                0.00010000               -1.29630785                0.33010293               -0.20901815               -0.68377010               16.66270946                0.52352544
               7.97115596                6.03704427               33.92503147                0.00010000               -1.18698405                0.31153726               -0.38167994               -0.85108078               16.10553556                1.00666249
               8.95993615                5.84373593               33.93554081                0.00010000               -1.03311048                0.20335474               -0.53303537               -1.01454996               15.96960615                1.78835857
               9.95049375                5.65162670               33.94454495                0.00010000               -0.84799777                0.03645255               -0.66524233               -1.14356932               16.09111061                2.73665583
              10.94297619                5.46124056               33.95400392                0.19240990               -0.24473913               -0.13033134               -0.77825490               -0.60628303                8.47474108                3.78805621
              11.94559897                5.28613237               33.80705182                0.53425284                0.29677721                0.19286030               -0.95281699                0.06181303                0.36790922                1.60753056
              12.94891174                5.10999847               33.65379079                0.95425456                0.33127679                0.52507866               -1.32067912               -0.00805041                0.07045936               -0.17655859
               3.19454334                8.00104323               34.19681632                1.00000000               -0.04718973               -0.12132066                0.29970508               -0.02571822                0.02077072                0.83814498
               4.19407144                7.81083127               34.04309669                0.51651598               -0.01985613                0.00766051                0.03319871               -0.01380650                0.17309003               -0.77516939
               5.19414622                7.61999912               33.89234665                0.05986294               -0.50151839                0.15004331               -0.23389486               -0.10429668                6.86020937               -2.59769600
               6.18404108                7.42694333               33.87235669                0.00010000               -1.21690354                0.32059777               -0.00965621               -0.52003694               15.77382090                1.13622746
               7.16980815                7.23460061               33.89921626                0.00010000               -1.43654506                0.47197813               -0.26022261               -0.67219643               18.30839942                0.81777430
               8.15531017                7.04084066               33.92748952                0.00010000               -1.41877751                0.49338033               -0.40689021               -1.00760415               18.48846023                1.12175802
               9.14143260                6.84635140               33.95504161                0.00010000               -1.32057953                0.35808322               -0.51687238               -1.34391250               18.64546380                1.77717919
              10.12889858                6.65236893               33.98303156                0.00010000               -1.17760787                0.14073514               -0.59471992               -1.56979234               18.95221120                2.56727906
              11.11788044                6.46039896               34.01301565                0.22407260               -0.43743472               -0.03872562               -0.62401979               -0.88429075                9.73242243                3.45088321
              12.12014989                6.28807495               33.85310969                0.51767525                0.27274213                0.20207859               -0.90832633                0.04144661                0.14256954                1.41466267
              13.12333528                6.11515392               33.69087956                0.94202321                0.31853931                0.49730546               -1.28208625                0.00317507                0.04249637               -0.33049309
               3.38386048                9.00012563               34.15051094                1.00000000               -0.00407608               -0.06390343                0.15132670               -0.02411805                0.00496363                0.83898922
               4.38381972                8.81110523               33.98872218                0.52332151                0.02855311                0.04647969               -0.11605324               -0.00519010                0.03357878               -0.76153807
               5.38443154                8.62160576               33.82741896                0.04104503               -0.58699146                0.16576265               -0.39570121               -0.03643803                9.26797221               -2.43632049
               6.37207989                8.43092260               33.85027244                0.00010000               -1.40484822                0.51121442               -0.25227520               -0.23687595               19.33439618                0.34992600
               7.35633458                8.24022440               33.88850570                0.00010000               -1.64134033                0.68832038               -0.35939569               -0.50072837               20.39557893                0.64348850
               8.33925308                8.04691187               33.92998272                0.00010000               -1.74024767                0.74136554               -0.45020608               -0.97293719               20.84921239                0.93783265
               9.32152962                7.85089760               33.97422715                0.00010000               -1.71013682                0.65865722               -0.50033684               -1.51034649               21.21816165                1.52583866
              10.30505035                7.65444140               34.01961017                0.01779145               -1.59726299                0.31952665               -0.53270923               -2.04084826               21.59269157                2.58810820
              11.28958436                7.46046605               34.06750958                0.26618085               -0.66887015                0.04830628               -0.51223652               -1.17233723               10.94191143                2.85391389
              12.29167294                7.29017394               33.89674534                0.51708578                0.26164644                0.22368972               -0.88427619                0.00572496                0.01433789                1.16307035
              13.29481729                7.11994458               33.72576752                0.93459235                0.31443491                0.45684846               -1.26491882                0.01097978                0.01972048               -0.55212000
               3.57210177                9.99976516               34.10445576                1.00000000                0.03857444               -0.01119428                0.00502648               -0.02324404               -0.01787231                0.74168526
               4.57248751                9.81176087               33.93454110                0.55422144                0.07491632                0.08522604               -0.26260462               -0.00171567                0.06240318               -0.63812086
               5.57360009                9.62331437               33.76613534                0.00885935               -0.59013003                0.18169415               -0.53957114                0.13937370               11.32170881               -1.63081325
               6.56068491                9.43716762               33.82133994                0.00010000               -1.48978940                0.75391779               -0.47825026                0.02107729               22.55001842               -0.01928930
               7.54380430                9.24836701               33.87465249                0.00010000               -1.77533362                0.86821162               -0.48898843               -0.25895585               22.70945190                0.30691828
               8.52517824                9.05566797               33.92962569                0.00010000               -2.00540823                0.95932932               -0.51885596               -0.62546849               23.21316233                0.52296920
               9.50369614                8.85952455               33.98979398                0.00010000               -2.33325351                1.01565225               -0.50732725               -1.19357322               24.10192191                0.90637817
              10.47851317                8.65875947               34.05949282                0.06993985               -2.24974921                0.89130412               -0.39788673               -1.89747168               24.00020336                2.06399737
              11.45870116                8.46136509               34.11453010                0.31861652               -0.88636523                0.13544192               -0.49214618               -1.44755063               11.82748075                1.69276695
              12.46078586                8.29254874               33.93756130                0.52755474                0.26562276                0.25339353               -0.89438500               -0.02356070                0.11220309                0.80318080
              13.46401361                8.12429089               33.75794507                0.92250122                0.32277482                0.42141473               -1.27918054                0.01315145               -0.00234760               -0.63169906
               3.75940418               10.99990174               34.05611611                1.00000000                0.08320149                0.01365821               -0.13811995                0.02104254                0.40589645                0.63311729
               4.76023619               10.81280975               33.88253628                0.81718303                0.12040407                0.10488860               -0.40621981                0.04176325                0.82365217               -0.52473235
               5.76181226               10.62523964               33.71720389                0.49947125               -0.63937024                0.19252714               -0.67675251                0.48077674               13.25633775               -1.00958789
               6.74744879               10.44600095               33.79219085                0.36855752               -1.45785737                0.88333321               -0.62768192                0.29383768               25.08660594               -0.09881087
               7.73265511               10.25758864               33.85789872                0.35820164               -1.59313049                0.92216226               -0.61497225               -0.11004391               24.87799762                0.12054520
               8.71558618               10.06609846               33.92455013                0.37176279               -1.90442258                1.04304919               -0.61458711               -0.27810558               25.39818390                0.26124229
               9.69456666                9.87121064               33.99735687                0.40811742               -2.51629037                1.16860954               -0.56988719               -0.60449672               26.65715109                0.50230767
              10.66526037                9.67226748               34.08652936                0.55587363               -3.38612933                1.35080187               -0.35873716               -1.72706735               26.06760384                1.42956671
              11.62684407                9.46317489               34.14556951                0.68690287               -1.84922226                0.18098003               -0.56417173               -2.03699175               13.11726431                0.91015848
              12.62827593                9.29524181               33.97370894                0.78071939                0.23759749                0.26930711               -0.94605299                0.00890547                1.04043760                0.58824188
              13.63159602                9.12837287               33.79082047                0.96074943                0.33200977                0.40819808               -1.32057059                0.07134708                0.50950683               -0.57581755
               1.92920326                1.07607491               35.50376182                1.00000000               -0.34558343               -0.36902572                1.27679825               -0.05761214               -0.96891422                0.98360639
               2.92574743                0.86898184               35.39498327                1.00000000               -0.30396317               -0.28668156                1.02723448               -0.03707837               -1.26664492                0.12291504
               3.92312400                0.66145183               35.28026951                1.00000000               -0.21186069               -0.20614565                0.76466909               -0.04219231               -1.24064568               -0.20937485
               4.92151022                0.45368112               35.17203969                0.62790782                0.01074619               -0.14566201                0.50941749                0.04816217               -0.42794619               -0.86803849
               5.92333892                0.24779454               35.07365198                0.71030640                0.16464048               -0.09029306                0.22031399               -0.07316180               -0.06749860                0.28470969
               6.92480302                0.04428039               34.97341964                0.79005680                0.14717530                0.00475044               -0.02423326               -0.06011684               -0.31994739                0.16531095
               7.92628243               -0.15794470               34.86963011                0.78039326                0.18332915                0.07845596               -0.26601888               -0.03918102               -0.55136420               -0.06359546
               8.92846961               -0.35935704               34.76429187                0.86677606                0.23754343                0.15284283               -0.50372048               -0.05408699               -0.84162723                0.10663231
               9.93103330               -0.56003972               34.65420716                1.00000000                0.27701543                0.23126974               -0.77155025               -0.05134564               -1.16192223                0.59122908
              10.93400992               -0.76045601               34.54222520                1.00000000                0.33036256                0.32347916               -1.05211965               -0.03482175               -1.12907561               -0.00714368
              11.93764055               -0.96109394               34.43280106                1.00000000                0.36306333                0.42486890               -1.33409952               -0.01813282               -1.00548587               -0.99878772
               2.13572021                2.07238465               35.45743043                1.00000000               -0.30320227               -0.35718877                1.13844753               -0.01439007               -0.15254381                1.34084472
               3.13268819                1.86611503               35.34843013                1.00000000               -0.26838853               -0.26711373                0.89114361                0.00695337               -0.18392676                0.17500202
               4.13035244                1.65939037               35.23878956                0.92975239               -0.19338529               -0.18056683                0.62688242               -0.00510180               -0.04689434               -0.51493483
               5.12882048                1.45222450               35.13246945                0.25505453               -0.15223842               -0.12101010                0.35503879                0.08797942                1.58570796               -1.25638540
               6.12730767                1.24689161               35.05529801                0.40649275               -0.08745001               -0.01944559                0.08586606               -0.07851360                2.45772933                0.98617539
               7.12707148                1.04432790               34.96428276                0.50692012                0.02008327                0.05122623               -0.15141123               -0.01570074                1.57248656                0.46105654
               8.12770933                0.84283986               34.86856545                0.42155004                0.09523829                0.12123789               -0.38400355                0.01350763                1.47612034               -0.27862069
               9.12897625                0.64217139               34.77522900                0.51259892                0.16799972                0.19163554               -0.62173168               -0.03324188                1.51897507                0.50179965
              10.13106933                0.44227298               34.68013651                1.00000000                0.26062806                0.25156139               -0.87597475               -0.02278234                0.79360335                0.83592729
              11.13418881                0.24277878               34.57223434                1.00000000                0.35139083                0.32994305               -1.15677967                0.00874852                0.08987215                0.13276780
              12.13809715                0.04315475               34.46300567                1.00000000                0.39083390                0.45332038               -1.43665202                0.02723379                0.02935287               -1.17082817
               2.34145471                3.06893114               35.41827399                1.00000000               -0.25739354               -0.33730449                1.00959424               -0.00917474                0.04830470                1.69584646
               3.33888078                2.86363957               35.30291222                1.00000000               -0.22711107               -0.23073171                0.76219096                0.01102901                0.23046769                0.16262757
               4.33691249                2.65784049               35.19116026                0.63420188               -0.15561062               -0.12674053                0.51918754               -0.01571345                0.69412781               -1.28527903
               5.33576856                2.45126092               35.08503176                0.00010000               -0.36236178               -0.08571650                0.22935657                0.13492633                4.58890804               -2.00870150
               6.32966526                2.24740563               35.05113354                0.00010000               -0.36138987               -0.02569372               -0.08800914                0.10481192                5.67036083               -1.15331223
               7.32854077                2.04530492               34.96110791                0.00010000               -0.04780829               -0.04323197               -0.28113214                0.01398557                2.51562789               -0.09027537
               8.32870909                1.84448005               34.86323198                0.00010000               -0.00845594               -0.01882629               -0.49163655               -0.07046937                3.57750277                0.78326172
               9.32837165                1.64447567               34.79416044                0.00010000                0.06305868                0.02452783               -0.76266482               -0.13356673                4.32415684                1.40047590
              10.32997026                1.44499151               34.71103921                0.43087430                0.24657316                0.19283037               -0.99650197               -0.20636208                2.49470810                1.89561062
              11.33330311                1.24614285               34.60515694                1.00000000                0.37315085                0.32007836               -1.25164487               -0.06304069                0.89662332                0.89573838
              12.33743328                1.04797247               34.48988777                1.00000000                0.41301685                0.51300001               -1.53887962                0.00815670                0.44173917               -1.05762629
               2.54611985                4.06563856               35.37910366                1.00000000               -0.21204373               -0.31742622                0.87991644               -0.01506950                0.11580357                1.58054445
               3.54399941                3.86150040               35.25610093                1.00000000               -0.18515135               -0.19189551                0.63204992                0.00288307                0.17448062               -0.00805339
               4.54241682                3.65685556               35.13422074                0.36399417               -0.10227699               -0.07229496                0.39797340               -0.07109349                1.12663510               -1.68253621
               5.54195387                3.45051017               35.03024275                0.00010000               -0.35284546               -0.02513244                0.14674100               -0.00038611                5.23559850               -2.69272908
               6.53535991                3.24637774               34.99047843                0.00010000               -0.58385496               -0.04178255               -0.10481960                0.02230547                8.05191592               -2.83300476
               7.53027677                3.04346326               34.94099643                0.00010000               -0.41153587               -0.09161349               -0.33455408               -0.13585457                7.26203473               -0.56703081
               8.52712919                2.84246333               34.88314079                0.00010000               -0.22416561               -0.13949236               -0.55916610               -0.26542268                6.81973943                1.68481494
               9.52579346                2.64266195               34.82300919                0.00010000               -0.09271400               -0.13887276               -0.78628722               -0.20695059                6.54628308                2.25397757
              10.52527491                2.44612958               34.75799930                0.18935026                0.20767864               -0.04202778               -1.10508367               -0.21111908                4.32179692                3.55626568
              11.52994703                2.24918035               34.65044970                0.75218699                0.46630620                0.26945121               -1.37595041               -0.10982608                1.17855133                1.71329596
              12.53460104                2.05341475               34.52249581                1.00000000                0.46540064                0.56476716               -1.64342485               -0.05093984                0.20169162               -0.41388321
               2.74942966                5.06258261               35.33773085                1.00000000               -0.17082221               -0.28598747                0.74090359               -0.02626883                0.18213616                1.32989603
               3.74772144                4.85980166               35.20715154                0.81423163               -0.14744091               -0.14000898                0.49237626               -0.01587869                0.28134003               -0.30231549
               4.74648084                4.65639459               35.07850064                0.19932814               -0.07413864               -0.00822742                0.25355413               -0.12205731                1.33425386               -1.78393395
               5.74623867                4.45075827               34.96896889                0.00010000               -0.46612829                0.10366516                0.01952547               -0.21215293                6.96781898               -2.72786489
               6.73715828                4.24656998               34.95296348                0.00010000               -0.82502913                0.09070242               -0.16637978               -0.32382251               11.27833732               -1.15941366
               7.72973808                4.04347265               34.92800663                0.00010000               -0.64781656                0.05609719               -0.37840695               -0.42929644               10.55912295                0.11203669
               8.72420195                3.84169021               34.89561091                0.00010000               -0.45858515               -0.02178930               -0.60136651               -0.49740969               10.08800392                1.45838100
               9.72056638                3.64169822               34.85886158                0.00010000               -0.24862320               -0.08363574               -0.83757707               -0.49067717                9.94686088                2.74635955
              10.71922948                3.44415095               34.82118563                0.16020276                0.16275204               -0.23656273               -1.05320749               -0.23770123                5.84259799                4.22035700
              11.72382142                3.25153187               34.69948841                0.60251679                0.43580945                0.22688823               -1.19605177               -0.02379500                0.95841584                1.91037489
              12.72794567                3.05926781               34.56211001                0.97567831                0.41242496                0.58513619               -1.56129414               -0.05024730                0.23539341               -0.03274663
               2.95115637                6.05991882               35.29364277                1.00000000               -0.12865210               -0.23927702                0.59224892               -0.03123109                0.13103612                1.07582047
               3.94986985                5.85870022               35.15440616                0.64945408               -0.10686560               -0.08058951                0.33300228               -0.02859294                0.34496959               -0.60770626
               4.94901906                5.65669101               35.01938546                0.12417043               -0.11672143                0.06805212                0.09346619               -0.13219815                2.00050785               -2.15810984
               5.94753542                5.45258348               34.91325943                0.00010000               -0.64249896                0.19951030               -0.05904191               -0.51685744                9.36596535               -1.00683022
               6.93616908                5.24819179               34.92556929                0.00010000               -1.04824045                0.20872048               -0.20346436               -0.65124972               14.57684870               -0.16580448
               7.92657061                5.04458520               34.92179873                0.00010000               -0.86068265                0.16305629               -0.41354879               -0.74583760               13.55335966                0.70304337
               8.91895543                4.84202754               34.91128180                0.00010000               -0.65257232                0.07213811               -0.62311788               -0.82095483               13.20104178                1.73921356
               9.91351917                4.64098923               34.89766618                0.00010000               -0.41340981               -0.05466169               -0.83143121               -0.87078396               13.17889036                2.91443515
              10.91068723                4.44139833               34.88340394                0.16297588                0.04175497               -0.23420745               -1.04465935               -0.41321569                7.34241587                4.11803929
              11.91435427                4.25371811               34.74886216                0.54373420                0.37184879                0.20906209               -1.09475001                0.05601999                0.73638981                1.88925304
              12.91812421                4.06511748               34.60109516                0.95029405                0.37699410                0.57485260               -1.45461360               -0.01967760                0.10294387                0.00068464
               3.15124224                7.05779707               35.24726993                1.00000000               -0.08648585               -0.18124725                0.43854720               -0.02884422                0.05654178                0.90154295
               4.15037738                6.85818987               35.09924181                0.55142651               -0.06443097               -0.02812474                0.17491739               -0.02754357                0.29645552               -0.75680658
               5.14995362                6.65775564               34.95594576                0.08210206               -0.29883176                0.13160148               -0.07519928               -0.15082544                4.21711231               -2.48476805
               6.14440075                6.45474848               34.88633469                0.00010000               -0.89110322                0.20892942                0.06009995               -0.73978588               12.46816243                1.03764702
               7.13213156                6.25074439               34.90801125                0.00010000               -1.17075854                0.30213320               -0.23505875               -0.87094824               16.71488303                0.60375415
               8.12098558                6.04673377               34.92094900                0.00010000               -1.03763683                0.27746800               -0.44134424               -1.02023974               16.21575641                1.09480635
               9.11137882                5.84313297               34.92981470                0.00010000               -0.86028298                0.16221993               -0.62155341               -1.16961122               16.11331019                1.90503319
              10.10377992                5.64060498               34.93738601                0.00010000               -0.65712645               -0.00252802               -0.78187307               -1.30319803               16.27415311                2.89856702
              11.09823629                5.43946680               34.94561686                0.18205444               -0.12786200               -0.14443713               -0.92215567               -0.67913846                8.69288005                4.01602956
              12.10122268                5.25571311               34.79723451                0.51279753                0.32585498                0.19924038               -1.01589140                0.07290147                0.47982305                1.74620587
              13.10475339                5.07076487               34.64025090                0.93584171                0.35307144                0.55229072               -1.38508796               -0.00725359                0.07399637               -0.04842691
               3.34979389                8.05629387               35.19974096                1.00000000               -0.04334765               -0.11973660                0.28602728               -0.02633562                0.01933516                0.83046139
               4.34936042                7.85813772               35.04337097                0.50995416               -0.01749736                0.01406669                0.02101856               -0.01587403                0.17060468               -0.78535922
               5.34944395                7.65932304               34.88995012                0.05661748               -0.48047316                0.16493765               -0.24735948               -0.18304163                7.10529505               -2.62228840
               6.33975095                7.45676206               34.87224970                0.00010000               -1.13395624                0.29237056               -0.02120811               -0.66182827               16.03318489                1.10919454
               7.32676482                7.25423445               34.89645252                0.00010000               -1.29868557                0.44058104               -0.29889756               -0.84354992               18.38190941                0.86169221
               8.31377724                7.05013456               34.92310946                0.00010000               -1.25364127                0.45206102               -0.47655962               -1.17611659               18.64492633                1.20014410
               9.30169200                6.84527194               34.94945175                0.00010000               -1.13279340                0.30656310               -0.61109313               -1.50173110               18.85560196                1.89672369
              10.29112137                6.64093867               34.97660770                0.00010000               -0.98478309                0.09409121               -0.70363846               -1.72200062               19.23149063                2.73060108
              11.28199633                6.43850959               35.00632784                0.21398313               -0.33035696               -0.04416213               -0.73022672               -0.95770983                9.95116604                3.67652701
              12.28451423                6.25770292               34.84375910                0.49861635                0.29396510                0.20856287               -0.96408138                0.05066671                0.19596221                1.52174266
              13.28787564                6.07616329               34.67776709                0.92629101                0.33614010                0.52029226               -1.33816295                0.00318667                0.04426544               -0.23428906
               3.54702783                9.05540234               35.15194224                1.00000000                0.00028997               -0.06049471                0.13554654               -0.02444584                0.00397660                0.83268892
               4.54703073                8.85847120               34.98749767                0.51922442                0.03203090                0.05206826               -0.12963518               -0.00532864                0.02604792               -0.76824354
               5.54766845                8.66105439               34.82340653                0.04024690               -0.53889761                0.17514713               -0.40902605               -0.12838702                9.45820962               -2.44639583
               6.53625277                8.46059589               34.84754377                0.00010000               -1.28901929                0.49548234               -0.29423431               -0.39750392               19.61787271                0.24131801
               7.52188806                8.25955601               34.88466461                0.00010000               -1.49135111                0.65537564               -0.41618409               -0.66753286               20.57970512                0.64992137
               8.50642575                8.05577499               34.92510941                0.00010000               -1.56739857                0.70133497               -0.53240272               -1.13766268               21.07501767                0.99467851
               9.49054009                7.84926423               34.96873586                0.00010000               -1.51617469                0.61162566               -0.60948850               -1.67556269               21.49954149                1.63000048
              10.47610226                7.64248681               35.01379914                0.01421185               -1.41111199                0.26995631               -0.64091569               -2.19027801               21.94832935                2.76081888
              11.46231785                7.43858356               35.06208640                0.25779445               -0.57599756                0.05419117               -0.58058389               -1.23696239               11.15438100                3.00392798
              12.46458231                7.25988437               34.88763940                0.49885422                0.27892664                0.23466578               -0.93874591                0.00969083                0.01921090                1.23626848
              13.46789638                7.08117071               34.71283189                0.92030991                0.33140736                0.47779023               -1.32193581                0.01131573                0.01917718               -0.49138675
               3.74316725               10.05508398               35.10441379                1.00000000                0.04345459               -0.00633544               -0.01293690               -0.02345532               -0.01895795                0.73747959
               4.74360179                9.85917909               34.93184541                0.55199511                0.07921364                0.09026868               -0.27734602               -0.00169546                0.05640943               -0.64136666
               5.74475152                9.66282599               34.76068609                0.00837637               -0.51512701                0.18698690               -0.55260419                0.03498401               11.47119237               -1.62776252
               6.73329925                9.46667171               34.81633096                0.00010000               -1.32582317                0.70968280               -0.52351501               -0.11635045               22.83918651               -0.07304276
               7.71823506                9.26734196               34.86944687                0.00010000               -1.59917424                0.82884745               -0.55784335               -0.38097815               22.97485140                0.29956354
               8.70131577                9.06416126               34.92399535                0.00010000               -1.83830647                0.92767168               -0.61542224               -0.74037608               23.50676537                0.55184585
               9.68146893                8.85750446               34.98412209                0.00010000               -2.16596424                0.99471846               -0.64079808               -1.32452432               24.48521733                0.96839516
              10.65799648                8.64633780               35.05471447                0.07057631               -2.08047028                0.87501995               -0.58580599               -2.01385716               24.40008798                2.21385821
              11.63985952                8.43959341               35.10936087                0.31432860               -0.79377918                0.14897755               -0.54265335               -1.49400752               11.99134808                1.74002120
              12.64212090                8.26239623               34.92833670                0.50930435                0.28348755                0.26920539               -0.95062371               -0.02274224                0.10239595                0.83423175
              13.64552927                8.08571909               34.74483760                0.90888568                0.34083727                0.44187680               -1.34262056                0.01359423               -0.00287508               -0.60505575
               3.93836850               11.05527563               35.05463280                1.00000000                0.08863054                0.01916548               -0.15808186                0.02022005                0.40320463                0.63015079
               4.93925481               10.86027658               34.87839768                0.81688478                0.12534994                0.10974917               -0.42226777                0.04122617                0.81937856               -0.52600464
               5.94087550               10.66479413               34.71037785                0.49858049               -0.49225089                0.19681406               -0.69084728                0.33804634               13.40174194               -1.00207589
               6.92940979               10.47478954               34.78569013                0.36873275               -1.20482775                0.81178338               -0.67603471                0.17799518               25.38769524               -0.11904775
               7.91677895               10.27613296               34.85138028                0.35834782               -1.39770250                0.87909962               -0.69382496               -0.16866697               25.17398387                0.11205386
               8.90145574               10.07432843               34.91788926                0.37153549               -1.74529403                1.01671666               -0.72599739               -0.33472097               25.72807459                0.27435031
               9.88187306                9.86915860               34.99094754                0.40725161               -2.38597893                1.16541442               -0.72743128               -0.67664733               27.10497621                0.53594991
              10.85373616                9.65998721               35.08185461                0.55759217               -3.27469012                1.36494089               -0.61565424               -1.80580676               26.47944625                1.54503877
              11.81637926                9.44156311               35.13961788                0.68626188               -1.78671911                0.19697005               -0.62532134               -2.08396235               13.25638771                0.90521993
              12.81800178                9.26526848               34.96391759                0.77147638                0.25716412                0.28722458               -1.00990341                0.01034460                1.05359389                0.59584197
              13.82152254                9.09000825               34.77724894                0.95398408                0.35207662                0.42891521               -1.39292062                0.07330385                0.52496827               -0.56434268
               2.02947786                1.13298132               36.51654788                1.00000000               -0.34643382               -0.37081428                1.28162067               -0.05767103               -0.98198701                0.99337009
               3.02601352                0.91747956               36.40525448                1.00000000               -0.30466556               -0.28659484                1.02731180               -0.03608400               -1.28670025                0.12984003
               4.02338455                0.70153383               36.28788699                1.00000000               -0.21334330               -0.20448840                0.75808390               -0.04208637               -1.26242358               -0.20832537
               5.02174666                0.48525770               36.17707700                0.62892201               -0.00839569               -0.14113463                0.49668758               -0.00258072               -0.45971091               -0.88466847
               6.02321664                0.26969413               36.07577986                0.70512813                0.15733272               -0.09911586                0.19937433               -0.07324233               -0.08260722                0.28685287
               7.02489331                0.05572878               35.97311035                0.77995521                0.17204393                0.00287509               -0.04633120               -0.07011190               -0.30074459                0.16675510
               8.02665752               -0.15689359               35.86693327                0.77170375                0.21207525                0.07782075               -0.28294891               -0.04725753               -0.51521174               -0.06005157
               9.02913482               -0.36861973               35.75929763                0.86057350                0.25926195                0.15073223               -0.50672230               -0.06338760               -0.80954115                0.10722830
              10.03184275               -0.57946464               35.64656808                1.00000000                0.28459192                0.23017171               -0.76419263               -0.05843576               -1.14789175                0.60553526
              11.03482666               -0.78997070               35.53182297                1.00000000                0.32888543                0.31926594               -1.03467555               -0.03839076               -1.12186019                0.00072707
              12.03842046               -1.00073962               35.41956218                1.00000000                0.35938077                0.41952391               -1.31851561               -0.01513358               -0.99956384               -0.98622433
               2.24440290                2.12927317               36.46882153                1.00000000               -0.30264757               -0.35970052                1.14095892               -0.01347330               -0.15851349                1.35467277
               3.24137643                1.91461362               36.35732934                1.00000000               -0.26641416               -0.26689150                0.88908238                0.00856302               -0.19888642                0.18530236
               4.23907462                1.69948894               36.24502310                0.94167401               -0.18678654               -0.17861370                0.61913089               -0.00636304               -0.07322099               -0.49924752
               5.23764070                1.48384635               36.13597047                0.26190352               -0.09129748               -0.11483555                0.34366738                0.01873223                1.55559409               -1.26083933
               6.23724867                1.26870297               36.05603043                0.40738966               -0.00773211               -0.03728725                0.05840302               -0.08253130                2.45637480                0.96795473
               7.23748606                1.05575753               35.96262940                0.50383248                0.05552627                0.04875031               -0.18290790               -0.03369947                1.60643910                0.46333673
               8.23835920                0.84388462               35.86460218                0.42057796                0.11502048                0.12642197               -0.41232858               -0.00636674                1.52163940               -0.26823876
               9.23978647                0.63288759               35.76894318                0.50802897                0.17873411                0.19481804               -0.63815916               -0.04396512                1.56298173                0.49357721
              10.24193388                0.42283708               35.67135498                1.00000000                0.26468854                0.25544866               -0.88302379               -0.03001390                0.81633865                0.84520876
              11.24508024                0.21322196               35.56063553                1.00000000                0.35520837                0.32896113               -1.16312215                0.00483699                0.09588038                0.14856465
              12.24903805                0.00345562               35.44859607                1.00000000                0.39578104                0.44699186               -1.44452696                0.03013803                0.03338984               -1.15395590
               2.45852751                3.12578731               36.42836690                1.00000000               -0.25584974               -0.34126665                1.01033293               -0.00816326                0.04694267                1.71347610
               3.45596902                2.91214173               36.31051706                1.00000000               -0.22514781               -0.23013468                0.75894037                0.01153774                0.23023032                0.17579770
               4.45402456                2.69796155               36.19630723                0.65093768               -0.15308719               -0.12200904                0.50968446               -0.01965536                0.67240870               -1.26033353
               5.45290727                2.48296099               36.08724967                0.00010000               -0.21848633               -0.07809177                0.21388573                0.03917177                4.52794675               -1.97696303
               6.44965483                2.26894839               36.05008973                0.00010000               -0.19347950               -0.04690064               -0.12369026               -0.08476944                5.67974369               -1.11221618
               7.44903768                2.05670379               35.95810356                0.00010000               -0.01273534               -0.04033184               -0.32088166               -0.14309947                2.59538900               -0.04975935
               8.44940012                1.84563485               35.85810619                0.00010000                0.01326860               -0.00980913               -0.53297482               -0.20012007                3.63053922                0.81569792
               9.44930305                1.63527663               35.78633290                0.00010000                0.07539904                0.02629179               -0.78993929               -0.21491939                4.38638609                1.44294149
              10.45090810                1.42564433               35.70093133                0.41986799                0.25008981                0.23380718               -1.01869511               -0.19665309                2.54335065                1.87182602
              11.45430485                1.21660853               35.59244327                1.00000000                0.38238994                0.33228219               -1.28656830               -0.06975006                0.91279081                0.88878080
              12.45855590                1.00820022               35.47434297                1.00000000                0.42510529                0.51033576               -1.56665604                0.01388098                0.44119634               -1.05660443
               2.67153078                4.12244784               36.38788888                1.00000000               -0.20978469               -0.32231960                0.87866608               -0.01497946                0.11868607                1.59241011
               3.66943294                3.91001092               36.26239785                1.00000000               -0.18342600               -0.19029518                0.62749051                0.00256034                0.18408489               -0.00048712
               4.66786226                3.69704876               36.13817587                0.36677934               -0.09978189               -0.06485819                0.39136893               -0.07823612                1.13414422               -1.67600400
               5.66743730                3.48228451               36.03166002                0.00010000               -0.30258910               -0.01601408                0.13374731               -0.11100650                5.22985372               -2.65879593
               6.66181048                3.26776496               35.98928341                0.00010000               -0.47498460               -0.04461741               -0.13650706               -0.26205461                8.06603486               -2.74131309
               7.65793761                3.05495089               35.93743492                0.00010000               -0.30132636               -0.09648407               -0.38027921               -0.38670338                7.30647973               -0.49297288
               8.65578395                2.84368843               35.87729219                0.00010000               -0.12295073               -0.14479699               -0.61457276               -0.49228347                6.88066606                1.74085953
               9.65547859                2.63341343               35.81479170                0.00010000                0.04424826               -0.14529318               -0.86241357               -0.33704458                6.56654445                2.32042600
              10.65666892                2.42751322               35.74610833                0.17359939                0.28253776               -0.06804807               -1.21957148               -0.27563334                4.34875525                3.65354963
              11.66112935                2.21986761               35.63596187                0.69503913                0.47316778                0.27889002               -1.47963599               -0.17127216                1.23179370                1.84596227
              12.66613228                2.01366234               35.50541780                1.00000000                0.50029279                0.59637502               -1.73069135               -0.06950394                0.23231871               -0.34433362
               2.88310176                5.11934091               36.34511327                1.00000000               -0.16824607               -0.29077758                0.73720513               -0.02747873                0.18879806                1.33136317
               3.88141930                4.90833583               36.21204358                0.80770874               -0.14577596               -0.13611946                0.48602223               -0.01872661                0.29223067               -0.30955571
               4.88018624                4.69666439               36.08099731                0.19679197               -0.07241790                0.00181494                0.24499040               -0.13347248                1.35312493               -1.79634510
               5.87997094                4.48264070               35.96913266                0.00010000               -0.42194423                0.11084009                0.00951797               -0.33217760                7.00938484               -2.68864045
               6.87174736                4.26805604               35.95116560                0.00010000               -0.72954001                0.09348635               -0.19680047               -0.53311137               11.33496529               -1.08015491
               7.86538014                4.05477411               35.92397724                0.00010000               -0.53277172                0.03887588               -0.43148339               -0.63085833               10.60688834                0.18916100
               8.86109192                3.84273891               35.88924521                0.00010000               -0.33213841               -0.04118226               -0.67765451               -0.68639419               10.13268351                1.52972943
               9.85873737                3.63237076               35.84996726                0.00010000               -0.10753335               -0.10046390               -0.94480905               -0.66019326               10.00819459                2.82038902
              10.85894126                3.42428337               35.81004155                0.14793218                0.29964576               -0.32890393               -1.21637887               -0.33446203                5.97053273                4.37567055
              11.86473029                3.22218633               35.68651292                0.56416772                0.53175520                0.21945504               -1.38677563               -0.02884422                1.02668797                2.20859832
              12.86957636                3.02012772               35.54545233                0.94756101                0.48460704                0.64314047               -1.72450059               -0.07140633                0.20815588                0.17501179
               3.09299138                6.11663229               36.29952456                1.00000000               -0.12564472               -0.24281079                0.58580131               -0.03256227                0.13027118                1.06920024
               4.09173493                5.90728853               36.15769329                0.63976706               -0.10517176               -0.07423733                0.32369793               -0.03307541                0.35407763               -0.62419713
               5.09088794                5.69708506               36.02028584                0.12022883               -0.11664162                0.08402386                0.08408841               -0.15472811                2.06697320               -2.18080292
               6.08940210                5.48450132               35.91271098                0.00010000               -0.59365444                0.18163087               -0.05280702               -0.65207179                9.47237941               -0.84031336
               7.07901485                5.26963469               35.92341158                0.00010000               -0.93822623                0.19603305               -0.23282311               -0.85805405               14.65379917               -0.07342198
               8.07063757                5.05572841               35.91737729                0.00010000               -0.72777203                0.14277815               -0.47608048               -0.92412036               13.60596451                0.78843415
               9.06445941                4.84286479               35.90461227                0.00010000               -0.49536546                0.04638688               -0.71789664               -0.98254254               13.25989558                1.83619920
              10.06073026                4.63140415               35.88873189                0.00010000               -0.21476474               -0.08571178               -0.96933287               -1.02461816               13.23688639                3.04467579
              11.06016412                4.42093514               35.87202437                0.15171028                0.19889251               -0.28230574               -1.26013392               -0.45516988                7.54054601                4.29348813
              12.06470811                4.22425671               35.73747880                0.51671092                0.43286203                0.19866091               -1.19700134                0.07105509                0.91262030                2.11848900
              13.06882136                4.02652515               35.58617000                0.92952281                0.41132445                0.61151373               -1.53689763               -0.03403020                0.11444039                0.21288831
               3.30113803                7.11448470               36.25160258                1.00000000               -0.08330086               -0.18260692                0.42936664               -0.02942861                0.05400325                0.89250722
               4.30030502                6.90685108               36.10093551                0.54179945               -0.06295662               -0.02101525                0.16324814               -0.03001896                0.30041696               -0.77047484
               5.29987890                6.69834487               35.95513564                0.07809522               -0.29625705                0.15037600               -0.08958910               -0.20461557                4.43253245               -2.51345637
               6.29437988                6.48627332               35.88710275                0.00010000               -0.82598580                0.17084115                0.08977189               -0.87839427               12.65033054                1.17994600
               7.28335918                6.27197670               35.90550641                0.00010000               -1.03561219                0.27732001               -0.27199775               -1.05359646               16.71709809                0.68193399
               8.27366764                6.05762967               35.91620458                0.00010000               -0.87969218                0.24773587               -0.51409669               -1.18690792               16.29033002                1.18458851
               9.26576534                5.84366665               35.92310974                0.00010000               -0.67464895                0.12499666               -0.72900531               -1.31930767               16.21755087                2.02676208
              10.26017466                5.63065653               35.92890748                0.00010000               -0.43900192               -0.04181593               -0.93026558               -1.45536713               16.40936883                3.07654778
              11.25698530                5.41863726               35.93556080                0.17055505                0.01933646               -0.17375927               -1.12117432               -0.74543727                8.92973652                4.29218205
              12.26056139                5.22615954               35.78673399                0.49095407                0.36867882                0.19241017               -1.08882599                0.08212532                0.63776939                1.90808268
              13.26435887                5.03235800               35.62608903                0.91882696                0.37974888                0.56810045               -1.44137594               -0.01099215                0.07531083                0.09614121
               3.50767003                8.11298015               36.20253687                1.00000000               -0.03956519               -0.11890600                0.27425470               -0.02663627                0.01767186                0.82225493
               4.50727438                7.90686823               36.04351706                0.50282143               -0.01483203                0.02074173                0.00756060               -0.01581024                0.16654859               -0.79505989
               5.50737339                7.70009258               35.88739946                0.05295539               -0.45360022                0.17985012               -0.26499027               -0.26396805                7.34639355               -2.64646102
               6.49820238                7.48791814               35.87193252                0.00010000               -1.03934087                0.26971889               -0.05212764               -0.80560564               16.28041182                1.04932922
               7.48658658                7.27518109               35.89323831                0.00010000               -1.14964541                0.41258877               -0.34978187               -1.01155728               18.42775742                0.89888391
               8.47520947                7.06068313               35.91795832                0.00010000               -1.07700887                0.41449419               -0.56122414               -1.34009079               18.76983907                1.28164582
               9.46504640                6.84536472               35.94281974                0.00010000               -0.92785802                0.25803134               -0.72586021               -1.65249581               19.03666278                2.02369462
              10.45665231                6.63056783               35.96895879                0.00010000               -0.76470212                0.04472397               -0.84240194               -1.87065180               19.49092289                2.92014341
              11.44975236                6.41745996               35.99841112                0.20248951               -0.20112141               -0.05628421               -0.87805159               -1.03082469               10.19406574                3.96183484
              12.45262988                6.22810491               35.83382807                0.47932960                0.32261274                0.20810867               -1.02568707                0.05887462                0.27934133                1.64370463
              13.45620461                6.03788716               35.66411630                0.91138471                0.35747302                0.53441664               -1.38974062                0.00107388                0.04611313               -0.13057450
               3.71282915                9.11210658               36.15322187                1.00000000                0.00472354               -0.05779813                0.12119080               -0.02459968                0.00303010                0.82550093
               4.71287639                8.90726592               35.98612948                0.51487328                0.03602372                0.05826451               -0.14495064               -0.00478472                0.01759508               -0.77418937
               5.71354962                8.70194187               35.81923844                0.03912649               -0.48485632                0.18476044               -0.42685468               -0.22166084                9.63363237               -2.45460748
               6.70317926                8.49166770               35.84438776                0.00010000               -1.15932899                0.48211361               -0.34543328               -0.56039558               19.88640642                0.12686462
               7.69036304                8.28022848               35.88018202                0.00010000               -1.32485357                0.62307629               -0.48498392               -0.83488916               20.74358073                0.65351982
               8.67668219                8.06591955               35.91933467                0.00010000               -1.37661615                0.66209545               -0.63037919               -1.29861706               21.27385690                1.05559553
               9.66283072                7.84882727               35.96203738                0.00010000               -1.30079012                0.56580227               -0.74132345               -1.83667874               21.76570753                1.73668060
              10.65066639                7.63155101               36.00679185                0.00905924               -1.19994993                0.22066630               -0.77339472               -2.33459355               22.32197981                2.91205564
              11.63883172                7.41751157               36.05589790                0.24761243               -0.46773532                0.05870403               -0.67042170               -1.30378782               11.39715485                3.20432175
              12.64131168                7.23032172               35.87797042                0.48049812                0.29920687                0.24251379               -0.99768090                0.01309637                0.03420353                1.31962167
              13.64481586                7.04304633               35.69932881                0.90647080                0.35041814                0.49427815               -1.37808094                0.00994518                0.01869922               -0.43147565
               3.91685936               10.11182419               36.10419702                1.00000000                0.04840368               -0.00199198               -0.03003098               -0.02359952               -0.01988370                0.73206758
               4.91734340                9.90803352               35.92899418                0.54978525                0.08395182                0.09596013               -0.29373776               -0.00170387                0.04981764               -0.64337857
               5.91853840                9.70378779               35.75508325                0.00766149               -0.43177689                0.19363628               -0.57065431               -0.07340403               11.60418545               -1.62264839
               6.90870786                9.49756041               35.81086964                0.00010000               -1.14507287                0.66169765               -0.57127207               -0.25620836               23.10103838               -0.12430647
               7.89563694                9.28764261               35.86349562                0.00010000               -1.40347635                0.78672108               -0.63766683               -0.50313767               23.21412293                0.29492006
               8.88063833                9.07392504               35.91731724                0.00010000               -1.64777856                0.89390516               -0.72756102               -0.85318134               23.76973607                0.58411692
               9.86268137                8.85668077               35.97697802                0.00010000               -1.96810974                0.97257277               -0.79899416               -1.45368901               24.82189785                1.02916037
              10.84127614                8.63498115               36.04777670                0.06933268               -1.88877392                0.86684797               -0.82402670               -2.12670779               24.85781455                2.30503818
              11.82490589                8.41863404               36.10367703                0.30815106               -0.69595427                0.16268525               -0.59767295               -1.54744193               12.23969997                1.81097742
              12.82735705                8.23295519               35.91854883                0.49103992                0.30242010                0.28375736               -1.00816983               -0.02281279                0.09211690                0.87249468
              13.83095429                8.04777272               35.73109266                0.89542734                0.35972398                0.46085068               -1.40726218                0.01259454               -0.00461255               -0.58165933
               4.11993850               11.11206674               36.05295447                1.00000000                0.09402060                0.02425507               -0.17688978                0.01975224                0.39948872                0.62583698
               5.12087871               10.90918512               35.87409093                0.81678510                0.13080751                0.11516032               -0.43993432                0.04092374                0.81315511               -0.52570793
               6.12255465               10.70581460               35.70338695                0.49760108               -0.33392196                0.20268049               -0.71056029                0.18745193               13.52740321               -0.99284637
               7.11420027               10.50490165               35.77867015                0.36889857               -0.93094933                0.73412404               -0.73148450                0.05665597               25.65285514               -0.13889168
               8.10393566               10.29596290               35.84402222                0.35849569               -1.18099293                0.83202832               -0.78278515               -0.22532733               25.43678218                0.10545752
               9.09058041               10.08379766               35.91003019                0.37131642               -1.56174194                0.98726167               -0.85279924               -0.39000084               26.01873076                0.28833330
              10.07270083                9.86827873               35.98280824                0.40634667               -2.22007251                1.15979610               -0.91100502               -0.74353867               27.47565201                0.56398240
              11.04617896                9.64888797               36.07421627                0.55826389               -3.13959863                1.39068125               -0.94234913               -1.88539037               26.96453462                1.60578366
              12.00990885                9.42076528               36.13306308                0.68463583               -1.72311088                0.21312403               -0.68716633               -2.14425880               13.52340633                0.90841824
              13.01171674                9.23599686               35.95351087                0.76231526                0.27619158                0.30416786               -1.07027424                0.01087214                1.07252165                0.60867380
              14.01543268                9.05226334               35.76296206                0.94724504                0.37159434                0.44906230               -1.46467945                0.07448705                0.54243530               -0.55608241
               2.13215033                1.19139502               37.52939424                1.00000000               -0.34760128               -0.37359237                1.28984504               -0.05821179               -0.99744978                1.00416516
               3.12867431                0.96742891               37.41552950                1.00000000               -0.30486590               -0.28704155                1.02855588               -0.03563904               -1.31077954                0.13697202
               4.12605301                0.74301310               37.29543119                1.00000000               -0.21255910               -0.20279151                0.74991613               -0.04201693               -1.28925085               -0.20771734
               5.12442313                0.51820081               37.18197344                0.63071646               -0.01997912               -0.13657606                0.48009250               -0.04894158               -0.49865028               -0.90114327
               6.12565343                0.29303045               37.07763946                0.70088196                0.16057946               -0.10896203                0.16476244               -0.06888936               -0.10098720                0.28573245
               7.12763472                0.06857740               36.97249302                0.77011213                0.20687457                0.00240295               -0.08751173               -0.07632073               -0.27456408                0.16518076
               8.12979092               -0.15448355               36.86397113                0.76263809                0.25046239                0.07857123               -0.31938238               -0.05030532               -0.46234005               -0.05927502
               9.13264397               -0.37650357               36.75415742                0.85370876                0.28796013                0.15112299               -0.52913098               -0.06705163               -0.75496814                0.10898558
              10.13555012               -0.59750280               36.63892330                1.00000000                0.29673265                0.23167079               -0.77037334               -0.06278873               -1.11147222                0.62182620
              11.13857862               -0.81806659               36.52153169                1.00000000                0.33103729                0.31963622               -1.03082849               -0.04049954               -1.09842421                0.01072400
              12.14217087               -1.03888620               36.40643075                1.00000000                0.35922446                0.41810398               -1.31399770               -0.01466041               -0.98216328               -0.96174764
               2.35553431                2.18765909               37.48024961                1.00000000               -0.30254264               -0.36308531                1.14658830               -0.01291303               -0.16579954                1.36938319
               3.35250888                1.96455850               37.36621178                1.00000000               -0.26437086               -0.26709473                0.88800822                0.00984122               -0.21621956                0.19604222
               4.35024689                1.74098518               37.25117217                0.95342017               -0.17919230               -0.17660178                0.60967235               -0.00742020               -0.10160156               -0.48386157
               5.34892504                1.51683505               37.13934280                0.26859573               -0.02353276               -0.10843493                0.32825419               -0.04612380                1.51863817               -1.26646075
               6.34977624                1.29194083               37.05646608                0.40772488                0.08517395               -0.05610607                0.02476406               -0.07404022                2.44773971                0.94429378
               7.35062852                1.06860143               36.96062461                0.49997778                0.10260551                0.04634076               -0.22271921               -0.04206514                1.64502246                0.46229445
               8.35182835                0.84630216               36.86031887                0.41987025                0.14272811                0.12937751               -0.44686458               -0.01470763                1.58151269               -0.26261938
               9.35348308                0.62500766               36.76246582                0.50799639                0.19376996                0.19947722               -0.65607496               -0.04289994                1.62193961                0.48873071
              10.35570375                0.40481390               36.66247603                1.00000000                0.26911244                0.25887419               -0.89260575               -0.03505559                0.84713069                0.85539171
              11.35886533                0.18512977               36.54897190                1.00000000                0.35700647                0.33293587               -1.16944594                0.00247968                0.10508462                0.16301042
              12.36284388               -0.03470517               36.43411513                1.00000000                0.39785485                0.44524276               -1.45092281                0.03085336                0.03881141               -1.12406852
               2.57809325                3.18413331               37.43848065                1.00000000               -0.25482023               -0.34593488                1.01424799               -0.00756297                0.04500291                1.73182996
               3.57554505                2.96208702               37.31809103                1.00000000               -0.22325979               -0.22971828                0.75622587                0.01164935                0.22828507                0.18977124
               4.57362806                2.73948106               37.20135395                0.66760804               -0.15000228               -0.11698854                0.49888440               -0.02321348                0.64857476               -1.23368223
               5.57254500                2.51603211               37.08930947                0.00010000               -0.06109075               -0.06918933                0.19657121               -0.05271798                4.45718321               -1.94598149
               6.57240624                2.29190833               37.04865974                0.00010000               -0.00564564               -0.07326145               -0.16613383               -0.26992100                5.68205434               -1.07085758
               7.57243209                2.06950422               36.95469028                0.00010000                0.03421448               -0.04356546               -0.36396136               -0.30176339                2.67922638               -0.01383596
               8.57309053                1.84810400               36.85257248                0.00010000                0.04210678               -0.00803303               -0.56971627               -0.32304266                3.69785304                0.83830065
               9.57327423                1.62748598               36.77836165                0.00010000                0.08181863                0.02142200               -0.79305962               -0.28020933                4.44061183                1.44967532
              10.57472690                1.40767468               36.69066531                0.41754002                0.24365296                0.26382274               -1.02926524               -0.17588761                2.57474715                1.82821500
              11.57814729                1.18859213               36.57942557                1.00000000                0.38654515                0.34500865               -1.30691355               -0.06239626                0.91660063                0.86896106
              12.58245781                0.97001865               36.45855465                1.00000000                0.43105201                0.50619440               -1.58157116                0.01723653                0.43770872               -1.04441841
               2.79947563                4.18074039               37.39667698                1.00000000               -0.20815096               -0.32795583                0.88080466               -0.01503781                0.12144027                1.60438886
               3.79739412                3.95996413               37.26865074                1.00000000               -0.18190479               -0.18859561                0.62329073                0.00209931                0.19381912                0.00753211
               4.79583753                3.73864541               37.14204812                0.36861093               -0.09753565               -0.05616677                0.38148079               -0.08433336                1.14034756               -1.66734452
               5.79544341                3.51545126               37.03291770                0.00010000               -0.24659103               -0.00488014                0.11489631               -0.22283701                5.21637064               -2.62253214
               6.79090571                3.29047560               36.98774829                0.00010000               -0.35229121               -0.05348135               -0.17376292               -0.55571875                8.06835880               -2.64366123
               7.78839758                3.06773012               36.93339084                0.00010000               -0.17599909               -0.10953616               -0.43117419               -0.64849735                7.34158922               -0.42236623
               8.78738573                2.84614150               36.87084934                0.00010000               -0.00446856               -0.15696429               -0.67486337               -0.72594771                6.92263444                1.78314868
               9.78830821                2.62543610               36.80576092                0.00010000                0.18470586               -0.16600841               -0.93875594               -0.46957175                6.56236604                2.34886817
              10.79107985                2.41009036               36.73360787                0.15841171                0.34826111               -0.09631833               -1.23116456               -0.30192922                4.31122612                3.60995599
              11.79527343                2.19202994               36.62085698                0.65581001                0.46278553                0.27973944               -1.51067388               -0.19372611                1.25759247                1.90415842
              12.80033556                1.97541872               36.48788198                1.00000000                0.50621254                0.59985997               -1.74938940               -0.07251386                0.24640950               -0.28925243
               3.01934502                5.17757419               37.35247495                1.00000000               -0.16629974               -0.29634392                0.73681449               -0.02847252                0.19555713                1.33249375
               4.01768202                4.95831511               37.21687199                0.79813708               -0.14453781               -0.13198992                0.47995547               -0.02102265                0.30379998               -0.31761797
               5.01645426                4.73835772               37.08340045                0.19325014               -0.07119751                0.01456076                0.23470222               -0.14386473                1.37303420               -1.80964092
               6.01625807                4.51593451               36.96915925                0.00010000               -0.37206269                0.11779298               -0.00836965               -0.45525803                7.04366082               -2.63777183
               7.00901301                4.29083871               36.94902747                0.00010000               -0.62309108                0.09534670               -0.23431428               -0.74739891               11.37437651               -0.99657156
               8.00379625                4.06731349               36.91937696                0.00010000               -0.40737076                0.01982096               -0.49218227               -0.83911777               10.63320087                0.26290024
               9.00086559                3.84496471               36.88205782                0.00010000               -0.19311577               -0.06272514               -0.76295441               -0.88673324               10.14956786                1.58882431
               9.99993393                3.62416581               36.83996539                0.00010000                0.06144438               -0.12467889               -1.05817600               -0.83399079               10.00773715                2.86617639
              11.00209448                3.40574831               36.79685805                0.13487437                0.45052341               -0.41707614               -1.42767376               -0.41537487                6.05608760                4.44118963
              12.00894440                3.19418691               36.67175290                0.52899148                0.60677457                0.19184369               -1.51790303               -0.02724229                1.09359898                2.47142211
              13.01422997                2.98201585               36.52762000                0.92664120                0.52855702                0.66599118               -1.79611594               -0.08235373                0.17388381                0.37550598
               3.23742435                6.17481352               37.30535879                1.00000000               -0.12342145               -0.24696391                0.58259898               -0.03334727                0.12856475                1.06191790
               4.23619013                5.95732433               37.16088012                0.62787805               -0.10417547               -0.06792531                0.31354821               -0.03531246                0.36397827               -0.64169027
               5.23534084                5.73893663               37.02106723                0.11568976               -0.11664341                0.10075790                0.07037219               -0.17672179                2.14563585               -2.20806400
               6.23385726                5.51780712               36.91220329                0.00010000               -0.53810445                0.15956705               -0.05237100               -0.78877854                9.57584562               -0.65379868
               7.22457875                5.29238254               36.92091283                0.00010000               -0.81840234                0.18588212               -0.27120356               -1.06609529               14.69961625                0.02046976
               8.21748922                5.06812654               36.91227712                0.00010000               -0.58900013                0.12655106               -0.54857796               -1.10514683               13.62620889                0.87085817
               9.21279875                4.84488700               36.89692386                0.00010000               -0.33222122                0.02480120               -0.82529995               -1.15113339               13.27492624                1.92422752
              10.21084479                4.62294253               36.87827953                0.00010000               -0.00237502               -0.11283846               -1.13013386               -1.17779337               13.21605215                3.15421103
              11.21275125                4.40174884               36.85820126                0.13942658                0.38081288               -0.34123064               -1.52712708               -0.50828386                7.73228429                4.46760317
              12.21846105                4.19586682               36.72492213                0.48963053                0.51396838                0.16692920               -1.31142943                0.07475759                1.12846901                2.40195057
              13.22303061                3.98873855               36.57035721                0.91129995                0.45695624                0.63627697               -1.61208934               -0.04684843                0.10728899                0.45294456
               3.45365643                7.17263491               37.25585727                1.00000000               -0.08037721               -0.18469215                0.42303994               -0.02970161                0.05109145                0.88256797
               4.45285266                6.95695660               37.10250677                0.53163973               -0.06096969               -0.01408876                0.15054780               -0.03116863                0.30374391               -0.78408607
               5.45243704                6.74037288               36.95415398                0.07357475               -0.29080377                0.16771990               -0.11003287               -0.26076197                4.67164024               -2.54702236
               6.44703658                6.51912585               36.88813013                0.00010000               -0.75326782                0.13282593                0.10922094               -1.00767269               12.82621055                1.30311401
               7.43737168                6.29455635               36.90257129                0.00010000               -0.89238668                0.25769918               -0.32070959               -1.22829571               16.67022905                0.75732302
               8.42918885                6.06984451               36.91066706                0.00010000               -0.71723731                0.22554266               -0.59938705               -1.34961214               16.32775396                1.27289741
               9.42302694                5.84546074               36.91523460                0.00010000               -0.48363129                0.09655967               -0.85418319               -1.46547143               16.27262058                2.14821759
              10.41951623                5.62190904               36.91878070                0.00010000               -0.20112124               -0.07426769               -1.10992908               -1.60166852               16.47041692                3.26411309
              11.41900451                5.39892370               36.92319337                0.15798021                0.19668085               -0.21698255               -1.38716261               -0.80632098                9.18197248                4.62232101
              12.42344984                5.19752550               36.77545799                0.46891302                0.42725164                0.17368822               -1.16937225                0.08762579                0.85867282                2.09922045
              13.42754954                4.99474139               36.61142338                0.90321815                0.40997017                0.57867372               -1.48876494               -0.01887004                0.07518218                0.25127603
               3.66818694                8.17111967               37.20522606                1.00000000               -0.03581492               -0.11913557                0.26476612               -0.02687172                0.01601938                0.81302763
               4.66782879                7.95704256               37.04352218                0.49546333               -0.01152945                0.02768465               -0.00713703               -0.01576229                0.16132072               -0.80442533
               5.66795635                7.74229102               36.88465032                0.05086274               -0.41542227                0.19527832               -0.28672134               -0.34665718                7.57765494               -2.67198160
               6.65952035                7.52046364               36.87120714                0.00010000               -0.93310909                0.25351080               -0.09978092               -0.93768809               16.51035097                0.95376615
               7.64929417                7.29753652               36.88945688                0.00010000               -0.99638804                0.39063708               -0.41288916               -1.16925844               18.44935897                0.93146681
               8.63959259                7.07263739               36.91188497                0.00010000               -0.89346903                0.38417358               -0.66049136               -1.49298265               18.85988893                1.36433981
               9.63142479                6.84681819               36.93493455                0.00010000               -0.71220632                0.21894139               -0.86125729               -1.79050497               19.17892621                2.15559423
              10.62534846                6.62145717               36.95975966                0.00010000               -0.52082099                0.00004806               -1.01509117               -2.01219488               19.70942770                3.13871363
              11.62100837                6.39740919               36.98876681                0.18952281               -0.04762898               -0.07598107               -1.08531265               -1.10193643               10.46165393                4.32884136
              12.62439588                6.19934058               36.82324536                0.45985581                0.36065315                0.20152721               -1.09401168                0.06442342                0.40826273                1.77753650
              13.62822143                6.00031202               36.64997228                0.89736509                0.38255529                0.54117235               -1.43688340               -0.00265318                0.04693781               -0.03611968
               3.88127322                9.17025220               37.15436605                1.00000000                0.00928404               -0.05634702                0.10851931               -0.02477531                0.00191251                0.81700172
               4.88136606                8.95751029               36.98459865                0.51050165                0.04047961                0.06537514               -0.16216076               -0.00453152                0.00844930               -0.77927367
               5.88208281                8.74427845               36.81486943                0.03762320               -0.41643696                0.19667432               -0.44916743               -0.31554058                9.78988168               -2.46109331
               6.87303732                8.52419606               36.84063511                0.00010000               -1.01350275                0.47197726               -0.40860570               -0.72610279               20.12808120                0.01440876
               7.86181276                8.30236909               36.87496493                0.00010000               -1.14948976                0.59318210               -0.56418143               -0.99461683               20.88712731                0.65442230
               8.85004753                8.07752798               36.91250182                0.00010000               -1.17078520                0.62553449               -0.74339759               -1.44470082               21.44098786                1.12061271
               9.83839706                7.84983957               36.95390939                0.00010000               -1.06830981                0.52493052               -0.89374005               -1.97976731               22.01111750                1.84644155
              10.82868133                7.62191000               36.99833124                0.00218437               -0.96573413                0.17784836               -0.93306389               -2.46650898               22.70662372                3.03962125
              11.81908237                7.39740408               37.04867797                0.23546469               -0.34229287                0.06192968               -0.79390012               -1.37404655               11.67383529                3.47800548
              12.82183548                7.20155604               36.86768578                0.46194510                0.32356145                0.24825511               -1.06321038                0.01562432                0.06711238                1.41147275
              13.82555360                7.00556484               36.68527027                0.89312329                0.37181268                0.50703153               -1.43457638                0.00727553                0.01874647               -0.38479094
               4.09317525               10.16999273               37.10381317                0.99758492                0.05366632                0.00126348               -0.04650884               -0.02366020               -0.01980876                0.72603520
               5.09371191                9.95835006               36.92597066                0.54756295                0.08922594                0.10293152               -0.31253607               -0.00244280                0.04298080               -0.64409183
               6.09495977                9.74622451               36.74927301                0.00664052               -0.34021321                0.20256788               -0.59409559               -0.18426755               11.72272642               -1.61561213
               7.08690765                9.52990318               36.80490551                0.00010000               -0.94449288                0.61073132               -0.62597355               -0.40150242               23.33463248               -0.16885774
               8.07606991                9.30940016               36.85669354                0.00010000               -1.18397786                0.74099145               -0.72815867               -0.62066543               23.42475196                0.29159354
               9.06322809                9.08514808               36.90944413                0.00010000               -1.43112438                0.85706126               -0.85362203               -0.95432794               23.99957926                0.62075621
              10.04744742                8.85731680               36.96814220                0.00010000               -1.73871643                0.94691205               -0.97487453               -1.56654897               25.10079005                1.09078343
              11.02845376                8.62501414               37.03823393                0.06564868               -1.67830134                0.86568698               -1.09112891               -2.22891711               25.38147123                2.32399905
              12.01388140                8.39864778               37.09740742                0.29948873               -0.59530773                0.17776472               -0.66373514               -1.61190169               12.59220955                1.91885269
              13.01654761                8.20430568               36.90817330                0.47274504                0.32339794                0.29809170               -1.07017547               -0.02386858                0.08299607                0.91857012
              14.02034936                8.01045265               36.71669236                0.88217780                0.38017473                0.47914797               -1.47540110                0.01045967               -0.00761381               -0.57018212
               4.30408536               11.17027747               37.05109500                1.00000000                0.10000720                0.02847404               -0.19522884                0.02015586                0.39583183                0.62195563
               5.30508543               10.95956892               36.86959900                0.81652001                0.13794922                0.12188621               -0.46122113                0.03996825                0.80557557               -0.52384166
               6.30684434               10.74832981               36.69616665                0.49646627               -0.16269041                0.21052973               -0.73669263                0.03054549               13.63416094               -0.98205106
               7.30183162               10.53641069               36.77106044                0.36901367               -0.63448942                0.65075059               -0.79468413               -0.06464731               25.88443973               -0.16044040
               8.29415455               10.31718892               36.83572458                0.35862701               -0.93936445                0.77887544               -0.88193157               -0.27860992               25.66658235                0.10076511
               9.28304433               10.09466921               36.90083327                0.37109762               -1.34772676                0.95211276               -0.99230281               -0.43893166               26.26901072                0.30364397
              10.26720002                9.86877781               36.97272744                0.40545158               -2.01361599                1.14610044               -1.10887363               -0.79701402               27.75306291                0.58702896
              11.24277201                9.63922374               37.06300763                0.55748968               -2.98236115                1.42096021               -1.30445378               -1.95909674               27.53755252                1.59274566
              12.20755280                9.40095937               37.12587455                0.68159373               -1.66093905                0.23115949               -0.75649298               -2.21815355               13.95329241                0.92650475
              13.20955323                9.20751788               36.94251210                0.75321245                0.29580329                0.32121926               -1.13058739                0.00998325                1.10202879                0.62904898
              14.21346886                9.01514780               36.74795535                0.94049293                0.39156295                0.46951437               -1.53873086                0.07494226                0.56320814               -0.55670753
               2.23725833                1.25135387               38.54234478                1.00000000               -0.34973497               -0.37794462                1.30367197               -0.05951597               -1.01607119                1.01640111
               3.23376098                1.01885446               38.42582560                1.00000000               -0.30513670               -0.28815199                1.03208745               -0.03596877               -1.34007430                0.14443604
               4.23115560                0.78589751               38.30288531                1.00000000               -0.20978012               -0.20085610                0.74025299               -0.04232022               -1.32277579               -0.20741169
               5.22956538                0.55249611               38.18667885                0.63376557               -0.02391408               -0.13150086                0.45810720               -0.09167934               -0.55098086               -0.91801966
               6.23067731                0.31775556               38.07907511                0.69848103                0.17524914               -0.11869799                0.11424281               -0.06191016               -0.13454920                0.28149570
               7.23307036                0.08276922               37.97136012                0.76204316                0.25344980                0.00369432               -0.14972250               -0.08017229               -0.24872379                0.15922713
               8.23574631               -0.15077458               37.86054562                0.75461001                0.30064613                0.08054536               -0.37533928               -0.05110900               -0.39521558               -0.06253215
               9.23908328               -0.38305681               37.74871501                0.84811054                0.32463649                0.15147901               -0.56449513               -0.06946848               -0.67622378                0.11168786
              10.24223904               -0.61413358               37.63116062                1.00000000                0.31337193                0.23364853               -0.78654271               -0.06585389               -1.05418928                0.63497824
              11.24535072               -0.84463663               37.51120640                1.00000000                0.33700200                0.32249229               -1.03973892               -0.04127692               -1.06278628                0.02024717
              12.24897908               -1.07534333               37.39328222                1.00000000                0.36283583                0.41936831               -1.32079600               -0.01579662               -0.95629584               -0.93196305
               2.46916258                2.24757442               38.49175330                1.00000000               -0.30331079               -0.36786677                1.15709880               -0.01272402               -0.17487523                1.38543843
               3.46612947                2.01597294               38.37508951                1.00000000               -0.26255075               -0.26781310                0.88848977                0.01074779               -0.23678513                0.20726977
               4.46391157                1.78388895               38.25721655                0.96573960               -0.17049566               -0.17427736                0.59779744               -0.00849124               -0.13304515               -0.46843257
               5.46271956                1.55118110               38.14253555                0.27572558                0.05050461               -0.10148277                0.30646317               -0.10702978                1.47412948               -1.27273009
               6.46492166                1.31656858               38.05652571                0.40843880                0.19070723               -0.07532679               -0.01839509               -0.05685714                2.42943552                0.91226160
               7.46653371                1.08280616               37.95817502                0.49649700                0.16132895                0.04458056               -0.27362356               -0.04493006                1.68606771                0.45364735
               8.46814824                0.85003088               37.85566488                0.42018006                0.17671967                0.13224875               -0.48852371               -0.02043448                1.65679897               -0.26306055
               9.47006810                0.61845798               37.75582168                0.51032340                0.21110867                0.20159255               -0.67307747               -0.04443918                1.69431638                0.48929339
              10.47237041                0.38820291               37.65350286                1.00000000                0.27373654                0.26051890               -0.90046531               -0.03848021                0.88219016                0.86211060
              11.47554283                0.15858829               37.53724661                1.00000000                0.35787002                0.33696500               -1.17409008                0.00221199                0.11560552                0.17415497
              12.47952781               -0.07114965               37.41957761                1.00000000                0.39849824                0.44441658               -1.45445500                0.02984833                0.04514412               -1.08861009
               2.70020682                3.24399653               38.44865186                1.00000000               -0.25454065               -0.35165528                1.02258962               -0.00735912                0.04194955                1.75161678
               3.69766141                3.01349820               38.32564157                1.00000000               -0.22146071               -0.22961677                0.75437635                0.01120655                0.22438180                0.20458487
               4.69577761                2.78241196               38.20628492                0.68439970               -0.14581301               -0.11167865                0.48583481               -0.02705244                0.62339729               -1.20585455
               5.69474515                2.55046646               38.09118109                0.00010000                0.10687533               -0.05985050                0.17443375               -0.14089789                4.37663868               -1.91665748
               6.69791511                2.31624902               38.04676705                0.00010000                0.19821537               -0.10222864               -0.21685661               -0.45113857                5.66953367               -1.03753332
               7.69870946                2.08366083               37.95082433                0.00010000                0.08853484               -0.04946411               -0.41288110               -0.46219924                2.76653923                0.00851458
               8.69968581                1.85187040               37.84671186                0.00010000                0.06565037               -0.00824024               -0.60449031               -0.44837320                3.78381662                0.84130124
               9.70002247                1.62097504               37.77047171                0.00010000                0.08266571                0.01645339               -0.78647394               -0.34471553                4.49252959                1.41468540
              10.70133912                1.39107680               37.68034603                0.41465483                0.23625245                0.26583453               -1.02852113               -0.17227024                2.58932406                1.80190281
              11.70474752                1.16210267               37.56630500                1.00000000                0.38563992                0.35175791               -1.30781275               -0.05337747                0.91256786                0.84723635
              12.70905192                0.93354500               37.44271155                1.00000000                0.43044045                0.49807952               -1.57749381                0.01836576                0.43190613               -1.02205788
               2.93001207                4.24054132               38.40550497                1.00000000               -0.20738962               -0.33437772                0.88710963               -0.01547092                0.12373232                1.61708003
               3.92793818                4.01138060               38.27486366                1.00000000               -0.18049090               -0.18720540                0.61965466                0.00112205                0.20317816                0.01633643
               4.92640226                3.78165537               38.14580548                0.36972929               -0.09368177               -0.04797463                0.36822566               -0.09072248                1.14515868               -1.65659210
               5.92606454                3.54998409               38.03395795                0.00010000               -0.18488718                0.00666061                0.08872286               -0.33296909                5.19641911               -2.58649108
               6.92270451                3.31452400               37.98580815                0.00010000               -0.21980996               -0.06444759               -0.21890339               -0.85325759                8.06146469               -2.54303057
               7.92166834                3.08181688               37.92881143                0.00010000               -0.04189721               -0.12575011               -0.48824803               -0.91767924                7.36792301               -0.36211551
               8.92186657                2.84986607               37.86379492                0.00010000                0.11495205               -0.17147648               -0.73653239               -0.96103991                6.94953380                1.79895900
               9.92396738                2.61878704               37.79601658                0.00010000                0.29654041               -0.18996783               -0.99941499               -0.61385259                6.58451276                2.31391908
              10.92779738                2.39351960               37.72148503                0.14432915                0.40198471               -0.12815164               -1.19065610               -0.31136088                4.27957812                3.45534570
              11.93200708                2.16562345               37.60574839                0.62630333                0.46065406                0.27234758               -1.49494007               -0.18074261                1.24181776                1.91799540
              12.93701046                1.93881194               37.47043001                1.00000000                0.50033795                0.58088086               -1.72727120               -0.06775452                0.25380582               -0.23950050
               3.15821883                5.23730898               38.35984956                1.00000000               -0.16490325               -0.30264933                0.74027194               -0.03009231                0.20303603                1.33366113
               4.15656980                5.00975409               38.22164269                0.78806266               -0.14295833               -0.12803286                0.47400639               -0.02443150                0.31679428               -0.32638178
               5.15535966                4.78145247               38.08569135                0.18930261               -0.06763285                0.02574404                0.22105313               -0.15395945                1.39295330               -1.82339051
               6.15521714                4.55059967               37.96896527                0.00010000               -0.31712459                0.12351844               -0.03510662               -0.57417693                7.06940444               -2.57316285
               7.14901717                4.31496007               37.94647932                0.00010000               -0.51016665                0.09881281               -0.27945769               -0.96125016               11.39950580               -0.91086069
               8.14501381                4.08114583               37.91413359                0.00010000               -0.27611621                0.00192957               -0.55964967               -1.05184144               10.63979153                0.32957443
               9.14349485                3.84844087               37.87398612                0.00010000               -0.04609599               -0.08467538               -0.85210443               -1.09405936               10.13885252                1.62786286
              10.14409189                3.61717568               37.82880374                0.00010000                0.23903265               -0.15569920               -1.17122875               -1.00602884                9.93107573                2.86996973
              11.14827550                3.38851377               37.78148807                0.12188863                0.58742155               -0.47838583               -1.61762850               -0.46281200                6.10972700                4.34411542
              12.15584032                3.16754962               37.65615486                0.49942540                0.65221696                0.14835911               -1.55518673               -0.01183391                1.20457706                2.67141380
              13.16131984                2.94516262               37.50953001                0.91109865                0.54795210                0.64843545               -1.78782552               -0.08437369                0.15162367                0.55676352
               3.38452001                6.23448833               38.31117654                1.00000000               -0.12139506               -0.25200938                0.58280053               -0.03473737                0.12631056                1.05434087
               4.38330606                6.00881995               38.16396425                0.61507695               -0.10212624               -0.06133928                0.30283223               -0.04023444                0.37500217               -0.66033249
               5.38247749                5.78217025               38.02169328                0.11066923               -0.11163282                0.11844314                0.05103739               -0.20184022                2.23663482               -2.24062100
               6.38107340                5.55245446               37.91166356                0.00010000               -0.47720681                0.13660406               -0.05800370               -0.92001802                9.67655546               -0.44760896
               7.37293335                5.31650026               37.91798751                0.00010000               -0.69613438                0.18095221               -0.31770462               -1.26946691               14.71606836                0.11314266
               8.36715072                5.08185547               37.90640573                0.00010000               -0.44889094                0.11669667               -0.62917640               -1.28910465               13.61568140                0.94685770
               9.36395553                4.84817256               37.88810627                0.00010000               -0.16884042                0.00897246               -0.94071579               -1.32865753               13.24336993                1.99723767
              10.36377391                4.61567306               37.86612921                0.00010000                0.21058342               -0.13585106               -1.30078641               -1.33441759               13.09862446                3.23231245
              11.36816720                4.38395188               37.84148183                0.12664687                0.56738210               -0.39978169               -1.81397438               -0.57052353                7.92225602                4.61067950
              12.37512155                4.16859063               37.71125021                0.46403307                0.59648927                0.11355524               -1.39490019                0.07466409                1.40778031                2.68498369
              13.38009698                3.95178065               37.55392821                0.89575090                0.49754349                0.63029126               -1.64753739               -0.05040350                0.08787085                0.68631201
               3.60886085                7.23226879               38.26006338                1.00000000               -0.07776678               -0.18782066                0.41965156               -0.03024076                0.04790686                0.87186202
               4.60808319                7.00852730               38.10394647                0.52164733               -0.05862559               -0.00660548                0.13715653               -0.03384912                0.30562288               -0.79732983
               5.60768834                6.78382133               37.95293498                0.06858250               -0.27982053                0.18836203               -0.13579192               -0.32157541                4.93170419               -2.58255354
               6.60248678                6.55333175               37.88928716                0.00010000               -0.67307591                0.10170086                0.11158773               -1.13563948               12.99791346                1.40465594
               7.59422682                6.31857911               37.89909222                0.00010000               -0.74636818                0.24582634               -0.37982459               -1.39447066               16.57926131                0.82716284
               8.58755941                6.08347976               37.90421684                0.00010000               -0.55613565                0.21398459               -0.69508272               -1.50899653               16.32885071                1.35574906
               9.58310411                5.84862032               37.90602607                0.00010000               -0.29675969                0.08146250               -0.99273033               -1.61131976               16.27251531                2.26278406
              10.58162422                5.61445866               37.90670890                0.00010000                0.04216750               -0.09407511               -1.31351511               -1.74337443               16.43238974                3.44992931
              11.58394746                5.38051813               37.90781755                0.14459558                0.39403063               -0.26998478               -1.71519936               -0.86527020                9.45410371                4.99477329
              12.58950483                5.16982072               37.76334655                0.44710924                0.49921328                0.14186088               -1.24637191                0.08592109                1.16578247                2.30967810
              13.59393173                4.95776844               37.59631373                0.88897387                0.44268959                0.57686135               -1.52556186               -0.02560083                0.06919101                0.40205902
               3.83139817                8.23073192               38.20783219                1.00000000               -0.03216347               -0.12046449                0.25770725               -0.02734101                0.01455724                0.80277347
               4.83107654                8.00868784               38.04337432                0.48830973               -0.00783221                0.03523336               -0.02312489               -0.01678095                0.15554688               -0.81300622
               5.83124153                7.78593750               37.88166503                0.04863326               -0.37368535                0.21379912               -0.31216558               -0.42884478                7.79597385               -2.69344919
               6.82360283                7.55448848               37.86993691                0.00010000               -0.81728026                0.24628759               -0.16080248               -1.06810501               16.72306548                0.82648208
               7.81489592                7.32141679               37.88498052                0.00010000               -0.83366252                0.37505768               -0.48859074               -1.31706322               18.45067061                0.95862988
               8.80692958                7.08613517               37.90474850                0.00010000               -0.70728425                0.36464440               -0.77225847               -1.63084491               18.91372689                1.44465585
               9.80075024                6.84980181               37.92559460                0.00010000               -0.49604899                0.19640651               -1.01491226               -1.91120338               19.27270173                2.28774576
              10.79700860                6.61379156               37.94865696                0.00010000               -0.26252539               -0.02947520               -1.22236691               -2.14217839               19.85938508                3.38360089
              11.79549973                6.37855219               37.97670486                0.17525950                0.12905299               -0.10435304               -1.36938096               -1.16786396               10.75842597                4.79428468
              12.79958966                6.17142785               37.81194783                0.44035789                0.40948979                0.19012548               -1.16655731                0.06612458                0.60883047                1.91898882
              13.80368953                5.96331788               37.63537863                0.88414355                0.40998657                0.54309924               -1.48127062               -0.00649241                0.04632988                0.03776471
               4.05240220                9.22985950               38.15539226                1.00000000                0.01397928               -0.05579873                0.09757786               -0.02525146                0.00053412                0.80714520
               5.05254199                9.00923197               37.98288626                0.50591547                0.04543025                0.07317517               -0.18131462               -0.00477757               -0.00100493               -0.78346295
               6.05331080                8.78809731               37.81025509                0.03568401               -0.34483032                0.21204185               -0.47615660               -0.40789648                9.92813648               -2.46389786
               7.04564538                8.55825750               37.83621564                0.00010000               -0.85359639                0.46347225               -0.47384022               -0.88199507               20.33861001               -0.09342270
               8.03623887                8.32608027               37.86889839                0.00010000               -0.95439483                0.56490267               -0.65570475               -1.13937062               21.00773738                0.65245738
               9.02655749                8.09077265               37.90446672                0.00010000               -0.95076118                0.59367757               -0.86974066               -1.56400752               21.57317221                1.18752553
              10.01722365                7.85254845               37.94416258                0.00010000               -0.82636050                0.49382849               -1.06259465               -2.08731858               22.22682173                1.95905090
              11.01003028                7.61386916               37.98813057                0.00010000               -0.71348794                0.14965952               -1.12299442               -2.57428139               23.08677011                3.15383266
              12.00295389                7.37843107               38.04001990                0.22122749               -0.19843242                0.06311616               -0.96875539               -1.44674697               11.98798898                3.85450780
              13.00606163                7.17362323               37.85670622                0.44332978                0.35339617                0.25362083               -1.13718326                0.01708607                0.13144989                1.50902952
              14.01002182                6.96863043               37.67063728                0.88023931                0.39601865                0.51830562               -1.49490351                0.00443777                0.01940909               -0.36309176
               4.27214821               10.22961594               38.10326684                0.99305996                0.05949680                0.00413428               -0.06237098               -0.02421285               -0.01848799                0.71983858
               5.27274318               10.01015134               37.92274346                0.54492859                0.09549292                0.11098208               -0.33478636               -0.00305159                0.03659091               -0.64468107
               6.27405807                9.79017833               37.74320134                0.00525513               -0.23815996                0.21444866               -0.62362457               -0.29638958               11.82782915               -1.60673473
               7.26797998                9.56375793               37.79835017                0.00010000               -0.72323518                0.55627453               -0.68973545               -0.53888716               23.54040242               -0.20738525
               8.25959336                9.33271484               37.84893245                0.00010000               -0.93993635                0.69179251               -0.82913518               -0.72468016               23.60491379                0.28863978
               9.24918125                9.09800872               37.90024480                0.00010000               -1.18430000                0.81598004               -0.99226741               -1.03180929               24.19422111                0.66094794
              10.23590736                8.85967838               37.95748053                0.00010000               -1.47704514                0.91501905               -1.16014938               -1.64299491               25.31970235                1.15610067
              11.21964035                8.61678475               38.02595413                0.05909916               -1.45483242                0.86631644               -1.34935749               -2.30556268               25.96499712                2.27766368
              12.20681072                8.37981451               38.09040233                0.28788938               -0.49541601                0.19650127               -0.75094253               -1.68840743               13.05028880                2.08059981
              13.20973203                8.17650026               37.89714532                0.45445774                0.34765883                0.31385000               -1.14100242               -0.02578154                0.07844039                0.97306906
              14.21376389                7.97368399               37.70158464                0.86911074                0.40318641                0.49863894               -1.55103659                0.00779943               -0.01178730               -0.57802721
               4.49084715               11.22994219               38.04904989                1.00000000                0.10714218                0.03262443               -0.21457548                0.02083634                0.39261409                0.61955594
               5.49191857               11.01145161               37.86486651                0.81622760                0.14646382                0.13002720               -0.48794266                0.03974427                0.79859511               -0.52283195
               6.49377643               10.79238629               37.68865310                0.49518685                0.02062813                0.22079545               -0.77017801               -0.13159513               13.72451792               -0.97008687
               7.49233113               10.56938299               37.76277647                0.36913407               -0.31409724                0.56250680               -0.86639920               -0.18839297               26.08299057               -0.18335528
               8.48749448               10.33991612               37.82638359                0.35876663               -0.66866870                0.72012767               -0.99148321               -0.32442542               25.86297369                0.09753102
               9.47895776               10.10709225               37.89018413                0.37085806               -1.09533793                0.90835352               -1.14263011               -0.47571363               26.47976165                0.32026007
              10.46558772                9.87084883               37.96063077                0.40454020               -1.75874308                1.11704452               -1.30893281               -0.82680260               27.93840593                0.60912786
              11.44378290                9.63119548               38.04812720                0.55491673               -2.80587469                1.44107361               -1.63700416               -2.01013154               28.19377593                1.50081699
              12.40947023                9.38236110               38.11793322                0.67682720               -1.60531906                0.25465893               -0.84344781               -2.29881132               14.55311839                0.96660566
              13.41167652                9.17990023               37.93089912                0.74410630                0.31700612                0.33999685               -1.19647550                0.00655427                1.14851420                0.65956089
              14.41581035                8.97860321               37.73218744                0.93380485                0.41338341                0.49192158               -1.62010182                0.07494326                0.58841422               -0.57067528
               2.34486727                1.31290601               39.55546768                1.00000000               -0.35349770               -0.38452261                1.32554814               -0.06190930               -1.03809541                1.03017453
               3.34133230                1.07178981               39.43617125                1.00000000               -0.30615160               -0.29018933                1.03903255               -0.03741824               -1.37489544                0.15238425
               4.33874424                0.83020239               39.31023625                1.00000000               -0.20592864               -0.19854651                0.72957224               -0.04357003               -1.36375370               -0.20732770
               5.33721372                0.58812700               39.19113559                0.63805388               -0.02315335               -0.12487990                0.43039801               -0.13368708               -0.62126996               -0.93537556
               6.33828117                0.34375916               39.07992432                0.69828122                0.19880034               -0.12650392                0.04758060               -0.05531160               -0.19289623                0.27513883
               7.34118973                0.09813215               38.96949857                0.75602722                0.31252701                0.00780198               -0.23335771               -0.08449719               -0.22846481                0.14862844
               8.34453171               -0.14597272               38.85646435                0.74731263                0.36573833                0.08474308               -0.45144599               -0.05216929               -0.31236414               -0.07109516
               9.34850450               -0.38848314               38.74286752                0.84300278                0.37216140                0.15199775               -0.61078996               -0.07305731               -0.57093754                0.11299802
              10.35197494               -0.62948773               38.62319245                1.00000000                0.33483980                0.23584373               -0.81104706               -0.06817929               -0.97808590                0.64417938
              11.35520129               -0.86974207               38.50073691                1.00000000                0.34591846                0.32563402               -1.05740084               -0.04128574               -1.01782312                0.02896207
              12.35889331               -1.11011624               38.38001483                1.00000000                0.36920189                0.42095459               -1.33549516               -0.01827180               -0.92407004               -0.89882610
               2.58536438                2.30906078               39.50339159                1.00000000               -0.30544538               -0.37460205                1.17472128               -0.01300962               -0.18599536                1.40294504
               3.58230992                2.06888792               39.38398157                1.00000000               -0.26122174               -0.26926237                0.89132306                0.01117324               -0.26132225                0.21910255
               4.58013994                1.82821692               39.26312812                0.97919589               -0.16057287               -0.17136744                0.58295336               -0.00987340               -0.16869358               -0.45256495
               5.57909847                1.58687820               39.14547206                0.28368164                0.12927714               -0.09252175                0.27685925               -0.16704413                1.42133053               -1.27889285
               6.58272549                1.34249412               39.05609817                0.41022102                0.30561147               -0.09419632               -0.07394309               -0.03977682                2.40115808                0.87243073
               7.58521070                1.09821017               38.95515214                0.49398018                0.22960894                0.04529722               -0.33993560               -0.04955354                1.73013307                0.43645212
               8.58731767                0.85487471               38.85054840                0.42093060                0.21603652                0.13863545               -0.54344290               -0.02927806                1.75259847               -0.27228699
               9.58953143                0.61303683               38.74900427                0.51234469                0.23024738                0.20339626               -0.69424807               -0.05089224                1.78627835                0.48888816
              10.59192261                0.37287071               38.64446673                1.00000000                0.27856321                0.26091479               -0.90508110               -0.04087093                0.92349021                0.86428080
              11.59510269                0.13351427               38.52549010                1.00000000                0.35810763                0.33885717               -1.17513059                0.00272110                0.12753914                0.18321655
              12.59908477               -0.10590670               38.40502603                1.00000000                0.39820742                0.44206678               -1.45313226                0.02737931                0.05231203               -1.04915219
               2.82495281                3.30541397               39.45893244                1.00000000               -0.25531902               -0.35882456                1.03720141               -0.00751482                0.03738604                1.77307473
               3.82239962                3.06640456               39.33317855                1.00000000               -0.21981637               -0.22990831                0.75371205                0.01041580                0.21787398                0.22056737
               4.82055648                2.82677504               39.21107065                0.70078741               -0.14019886               -0.10548914                0.46867870               -0.03107573                0.59658814               -1.17627678
               5.81959564                2.58627657               39.09279815                0.00010000                0.27985956               -0.04704699                0.14319713               -0.23145757                4.28778565               -1.88938726
               6.82615368                2.34187523               39.04432260                0.00010000                0.41112110               -0.12956935               -0.27834462               -0.63412223                5.64421374               -1.01417535
               7.82781807                2.09903809               38.94643265                0.00010000                0.14829036               -0.05158092               -0.47403721               -0.62583359                2.86192632                0.01402786
               8.82911948                1.85679999               38.84048268                0.00010000                0.08362931               -0.00141425               -0.65279303               -0.57998579                3.89746218                0.81914299
               9.82949065                1.61558478               38.76263217                0.00010000                0.07803025                0.01728081               -0.78845934               -0.41462478                4.56448130                1.34463046
              10.83068009                1.37573057               38.67009488                0.40932668                0.22712327                0.25922597               -1.01495902               -0.17663622                2.59945790                1.78319064
              11.83403312                1.13703507               38.55326932                1.00000000                0.38013712                0.35128619               -1.29179033               -0.04716759                0.90532451                0.82860176
              12.83828283                0.89872509               38.42700478                1.00000000                0.42497124                0.48584742               -1.55606581                0.01718579                0.42590368               -0.99103371
               3.06323289                4.30188429               39.41441918                1.00000000               -0.20757214               -0.34190612                0.89872885               -0.01612017                0.12558754                1.63089024
               4.06115717                4.06428975               39.28104383                1.00000000               -0.17932347               -0.18588394                0.61658229               -0.00003300                0.21207338                0.02619985
               5.05964642                3.82610714               39.14941264                0.36916812               -0.08940237               -0.03864591                0.35082845               -0.09591124                1.14804285               -1.64355384
               6.05936912                3.58593726               39.03469215                0.00010000               -0.11824515                0.02445365                0.05221073               -0.44709308                5.17310183               -2.55274008
               7.05728152                3.33990273               38.98337022                0.00010000               -0.07999281               -0.07165513               -0.27458599               -1.15387982                8.05060891               -2.44022897
               8.05776927                3.09717855               38.92362588                0.00010000                0.09448685               -0.13637053               -0.55470982               -1.18945483                7.39268504               -0.31502230
               9.05917126                2.85484642               38.85611869                0.00010000                0.22695425               -0.17946834               -0.80114441               -1.19715448                6.97982916                1.78397548
              10.06230835                2.61338245               38.78577262                0.00010000                0.38841703               -0.20661031               -1.04648680               -0.76141791                6.65166804                2.21234916
              11.06693960                2.37805523               38.70979474                0.13094051                0.44282300               -0.15483708               -1.14424468               -0.32923224                4.29279394                3.22159542
              12.07116481                2.14053999               38.59095818                0.59955083                0.45544220                0.25391518               -1.45380469               -0.16420454                1.20957910                1.91895444
              13.07604844                1.90381025               38.45333656                0.99658436                0.48836293                0.54639129               -1.68219378               -0.06150873                0.25600747               -0.18380841
               3.29981949                5.29857585               39.36728039                1.00000000               -0.16433754               -0.30988862                0.74838886               -0.03178383                0.21080970                1.33506553
               4.29817611                5.06268688               39.22635211                0.77626373               -0.14143723               -0.12379250                0.46785669               -0.02787289                0.33076690               -0.33542421
               5.29699075                4.82600212               39.08782151                0.18483917               -0.06589616                0.03867186                0.20263817               -0.15967173                1.41182153               -1.83675039
               6.29685819                4.58676564               38.96845712                0.00010000               -0.25779745                0.12978890               -0.07173779               -0.69174874                7.09276751               -2.49728361
               7.29183480                4.34044213               38.94343832                0.00010000               -0.38864579                0.10648796               -0.33360954               -1.17892718               11.41616438               -0.82099480
               8.28908528                4.09631068               38.90818397                0.00010000               -0.14311534               -0.00990522               -0.63378606               -1.26583441               10.63398254                0.38810085
               9.28897249                3.85321062               38.86501573                0.00010000                0.09841077               -0.10273133               -0.94154591               -1.30433460               10.11051760                1.64251430
              10.29105349                3.61145258               38.81654082                0.00010000                0.39827053               -0.18494176               -1.27199915               -1.17217131                9.80673469                2.81677260
              11.29693790                3.37263382               38.76450548                0.10926259                0.69702556               -0.52111392               -1.74709263               -0.51017137                6.18240155                4.08056588
              12.30499400                3.14211338               38.64064917                0.47338616                0.67871198                0.09174044               -1.52087187                0.00122804                1.38451486                2.81217563
              13.31051214                2.90965292               38.49186349                0.89722704                0.55181375                0.59354099               -1.72890950               -0.07686674                0.14010150                0.71686005
               3.53437514                6.29568652               39.31701480                1.00000000               -0.12016998               -0.25796679                0.58711162               -0.03581728                0.12303906                1.04634076
               4.53317344                6.06181390               39.16693677                0.60262753               -0.10004543               -0.05434729                0.29125396               -0.04442730                0.38522556               -0.67873631
               5.53237423                5.82688058               39.02208797                0.10506056               -0.10396492                0.13739686                0.02364373               -0.22705885                2.33955955               -2.27132545
               6.53109414                5.58853304               38.91104322                0.00010000               -0.41081462                0.10899875               -0.06736287               -1.04343316                9.76934837               -0.22440125
               7.52415794                5.34203249               38.91455874                0.00010000               -0.57050276                0.18322335               -0.37296893               -1.46800825               14.70431890                0.20410931
               8.51968409                5.09698044               38.89969359                0.00010000               -0.31076351                0.11530258               -0.71579183               -1.47469779               13.58081413                1.01485248
               9.51794267                4.85279180               38.87810955                0.00010000               -0.01211820                0.00087361               -1.05769923               -1.51420682               13.17331657                2.05029119
              10.51944172                4.60968362               38.85226380                0.00010000                0.40663509               -0.15363503               -1.46418947               -1.49198996               12.89485030                3.26730858
              11.52607537                4.36763295               38.82192178                0.11388063                0.73642784               -0.45188441               -2.06619880               -0.63988879                8.14082185                4.66434188
              12.53417028                4.14237480               38.69702413                0.44024435                0.66783267                0.04540296               -1.41913735                0.06617182                1.77989857                2.92018126
              13.53943202                3.91568107               38.53740646                0.88179877                0.52617443                0.58396154               -1.63399605               -0.04502971                0.06872170                0.88533332
               3.76684838                7.29341651               39.26425030                1.00000000               -0.07548691               -0.19201306                0.41937614               -0.03072302                0.04473465                0.86057691
               4.76609351                7.06159994               39.10524990                0.51175950               -0.05589772                0.00143714                0.12318760               -0.03665055                0.30622464               -0.80930267
               5.76573043                6.82875006               38.95143814                0.06371603               -0.26279486                0.21106772               -0.16426182               -0.38576553                5.20615368               -2.61447010
               6.76083762                6.58894562               38.89036188                0.00010000               -0.58515978                0.07658813                0.09291161               -1.25357176               13.16547922                1.48278871
               7.75402723                6.34410659               38.89497480                0.00010000               -0.60028016                0.24352302               -0.44748090               -1.54954161               16.45327344                0.88744595
               8.74883201                6.09861673               38.89676541                0.00010000               -0.40210253                0.21500955               -0.79794623               -1.66547699               16.29884925                1.42960375
               9.74598518                5.85322809               38.89537999                0.00010000               -0.12297356                0.08224015               -1.13742858               -1.76045827               16.22003683                2.36262714
              10.74637254                5.60837988               38.89251040                0.00010000                0.27318787               -0.09880481               -1.52630084               -1.88238916               16.28306840                3.61601178
              11.75144894                5.36359614               38.88888939                0.13077265                0.59483876               -0.32702086               -2.07454179               -0.92738948                9.76639656                5.36275617
              12.75826932                5.14302144               38.75053055                0.42594106                0.57750351                0.09929448               -1.30143663                0.07322282                1.59336861                2.50760799
              13.76299901                4.92133215               38.58091215                0.87578083                0.47296921                0.55313467               -1.54438447               -0.02620820                0.05871686                0.52716717
               3.99739382                8.29184626               39.21038020                1.00000000               -0.02869407               -0.12280296                0.25319973               -0.02798544                0.01323369                0.79186293
               4.99710688                8.06184264               39.04305968                0.48081213               -0.00402905                0.04359780               -0.04066815               -0.01773532                0.14997490               -0.82053247
               5.99731324                7.83110193               38.87840700                0.04589735               -0.32203567                0.23570650               -0.34225962               -0.50960499                7.99970139               -2.70967722
               6.99066617                7.59006480               38.86799109                0.00010000               -0.69086250                0.24843648               -0.23834400               -1.19351855               16.92815140                0.67851877
               7.98349599                7.34690295               38.87968507                0.00010000               -0.67065603                0.36798575               -0.57288566               -1.45474857               18.43830086                0.97612371
               8.97725305                7.10128063               38.89643981                0.00010000               -0.52628167                0.35827285               -0.89273619               -1.75257886               18.93359165                1.51695434
               9.97297036                6.85443660               38.91463630                0.00010000               -0.29135763                0.19532790               -1.18124885               -2.01443307               19.31165258                2.41255352
              10.97142589                6.60770752               38.93531232                0.00010000               -0.00421690               -0.03451917               -1.45871122               -2.25785978               19.91087053                3.64158514
              11.97288602                6.36109253               38.96137919                0.16001022                0.32364134               -0.13996829               -1.74203972               -1.22646275               11.09763217                5.35519688
              12.97789872                6.14436069               38.79991421                0.42104313                0.47002062                0.17588551               -1.23768193                0.06145067                0.91990749                2.05564182
              13.98228643                5.92674376               38.62034687                0.87163077                0.43877105                0.53824215               -1.52552101               -0.00766008                0.04392790                0.08017062
               4.22629590                9.29096045               39.15631761                1.00000000                0.01872325               -0.05571935                0.08842449               -0.02593388               -0.00074009                0.79611674
               5.22648313                9.06247189               38.98097236                0.50108471                0.05101321                0.08167767               -0.20264242               -0.00469551               -0.01005474               -0.78678278
               6.22731617                8.83346419               38.80534630                0.03318862               -0.26584545                0.22949397               -0.50890082               -0.49805729               10.05479147               -2.46308451
               7.22116622                8.59391435               38.83115830                0.00010000               -0.67998673                0.45649232               -0.53963080               -1.03397282               20.52907466               -0.19532752
               8.21371643                8.35146631               38.86185084                0.00010000               -0.74597205                0.53924060               -0.75743005               -1.26772972               21.10341015                0.64700613
               9.20624678                8.10578219               38.89510701                0.00010000               -0.72233987                0.56844969               -1.00610909               -1.65101356               21.67007675                1.25024852
              10.19926963                7.85713465               38.93265750                0.00010000               -0.58436849                0.47670125               -1.24236546               -2.14654520               22.40088665                2.07067234
              11.19455941                7.60768949               38.97587136                0.00010000               -0.45015616                0.14316351               -1.34628069               -2.64659332               23.43559489                3.27825028
              12.19026651                7.36079677               39.02930286                0.20508614               -0.03561591                0.06269611               -1.21955521               -1.51701918               12.34615613                4.36433982
              13.19384710                7.14653915               38.84494212                0.42477581                0.39065752                0.26067352               -1.22011538                0.01678041                0.25236536                1.60675075
              14.19807966                6.93209699               38.65537220                0.86784335                0.42325651                0.52990879               -1.56405517                0.00321156                0.02113500               -0.37430080
               4.45385226               10.29073187               39.10256575                0.98856124                0.06569777                0.00710212               -0.07711368               -0.02514187               -0.01653627                0.71233788
               5.45450924               10.06347620               38.91927493                0.54211543                0.10286926                0.11971500               -0.36039629               -0.00345337                0.03052707               -0.64509798
               6.45590964                9.83569181               38.73680051                0.00346334               -0.12623232                0.22801858               -0.65981472               -0.40864867               11.91988898               -1.59568065
               7.45198459                9.59919465               38.79111081                0.00010000               -0.48180442                0.49883209               -0.76202043               -0.67046658               23.71788132               -0.24459985
               8.44627355                9.35768776               38.84011083                0.00010000               -0.67100771                0.63854769               -0.93905018               -0.81275446               23.75346420                0.28601754
               9.43856443                9.11264963               38.88959878                0.00010000               -0.90707024                0.77067849               -1.14146934               -1.07857679               24.35094564                0.70077649
              10.42813215                8.86397063               38.94493921                0.00010000               -1.18662633                0.87626175               -1.34864060               -1.66617010               25.48806604                1.22501578
              11.41483191                8.61057079               39.01124678                0.04931664               -1.22180838                0.86022231               -1.56313297               -2.34192539               26.58273117                2.20512854
              12.40369598                8.36234645               39.08238857                0.27306060               -0.39489003                0.22164644               -0.87482883               -1.77099479               13.59110048                2.31843260
              13.40693411                8.14957416               38.88535325                0.43621002                0.37694945                0.33311732               -1.22558401               -0.02911575                0.08630951                1.03530460
              14.41123497                7.93734194               38.68567163                0.85633672                0.43008634                0.52158421               -1.64016828                0.00581952               -0.01620784               -0.61030749
               4.68030441               11.29110249               39.04680349                1.00000000                0.11497158                0.03706220               -0.23460861                0.02158554                0.38847571                0.61597265
               5.68145413               11.06486619               38.85984014                0.81578835                0.15601627                0.13899970               -0.51879502                0.04059250                0.79076248               -0.52242921
               6.68342474               10.83802456               38.68076309                0.49369771                0.21534066                0.23327485               -0.81163319               -0.29725083               13.79923542               -0.95658274
               7.68576094               10.60389099               38.75373246                0.36922123                0.02908139                0.46963365               -0.94612459               -0.31172955               26.25015090               -0.20649643
               8.68400637               10.36423726               38.81589491                0.35889238               -0.36842784                0.65495013               -1.11000618               -0.36148040               26.02420658                0.09433363
               9.67839238               10.12119576               38.87798067                0.37062375               -0.79906480                0.85461304               -1.30215533               -0.49607392               26.65044859                0.33736787
              10.66802507                9.87465989               38.94654879                0.40362071               -1.45236533                1.06892604               -1.50536960               -0.82579899               28.05661816                0.63561655
              11.64934508                9.62489394               39.03026755                0.55022834               -2.60909138                1.43231488               -1.86922746               -2.02019236               28.90065213                1.35956875
              12.61584324                9.36522970               39.10900560                0.67000868               -1.55378921                0.28832460               -0.96176805               -2.36989629               15.28653799                1.03760489
              13.61826929                9.15320149               38.91858259                0.73502452                0.34086263                0.36273305               -1.27548371               -0.00153253                1.21989733                0.70217687
              14.62266049                8.94252868               38.71555332                0.92716231                0.43912010                0.51867363               -1.71663731                0.07527076                0.61833292               -0.60094629
               2.45508927                1.37610954               40.56885574                1.00000000               -0.35947677               -0.39409796                1.35791041               -0.06545943               -1.06354204                1.04560657
               3.45149450                1.12628150               40.44660625                1.00000000               -0.30865386               -0.29338148                1.05044998               -0.03991732               -1.41485500                0.16084705
               4.44891619                0.87596720               40.31747676                1.00000000               -0.20212953               -0.19639566                0.71783058               -0.04519150               -1.41171654               -0.20753630
               5.44745191                0.62511565               40.19528681                0.64335701               -0.02298920               -0.11749591                0.39461463               -0.18040772               -0.71289926               -0.95296464
               6.44845641                0.37091062               40.08002672                0.70018182                0.22545644               -0.12917172               -0.03519105               -0.05321510               -0.28270926                0.26770087
               7.45196104                0.11443466               39.96669296                0.75193399                0.38368354                0.01664646               -0.33902248               -0.09125043               -0.21660083                0.13317661
               8.45613008               -0.14036459               39.85151670                0.74015547                0.44876968                0.09313942               -0.55034585               -0.05345081               -0.21041818               -0.08689372
               9.46093643               -0.39307035               39.73649921                0.83684862                0.43389261                0.15414403               -0.67046576               -0.07780705               -0.43471634                0.10997382
              10.46480793               -0.64379855               39.61493968                1.00000000                0.36177229                0.23846362               -0.84292429               -0.07002474               -0.88237830                0.65192598
              11.46817188               -0.89356376               39.49005839                1.00000000                0.35669585                0.32839776               -1.08012451               -0.04094225               -0.96421907                0.03739974
              12.47194185               -1.14334225               39.36657232                1.00000000                0.37699694                0.42196194               -1.35418014               -0.02181531               -0.88639812               -0.86223928
               2.70426270                2.37216856               40.51524772                1.00000000               -0.30962117               -0.38395478                1.20181095               -0.01343400               -0.19926992                1.42195391
               3.70116649                2.12334769               40.39291597                1.00000000               -0.26077501               -0.27171105                0.89760890                0.01104382               -0.28994086                0.23114031
               4.69904720                1.87400325               40.26887562                0.99453062               -0.14951857               -0.16826453                0.56532951               -0.01167090               -0.20831286               -0.43562248
               5.69817612                1.62394069               40.14807274                0.29294932                0.21087723               -0.08285122                0.24153912               -0.22936685                1.35964399               -1.28188411
               6.70326475                1.36961891               40.05504685                0.41371173                0.42550091               -0.11085798               -0.14453908               -0.03155450                2.36214912                0.82547080
               7.70668614                1.11460112               39.95137630                0.49280629                0.30416623                0.05164928               -0.42706415               -0.06126132                1.77817401                0.41004675
               8.70934807                0.86056680               39.84479603                0.42143126                0.25945998                0.15237786               -0.61983054               -0.04122878                1.87592968               -0.29604869
               9.71187534                0.60847109               39.74193672                0.51214380                0.25031566                0.20848258               -0.72625006               -0.06086289                1.90914317                0.48019443
              10.71435439                0.35858609               39.63540124                1.00000000                0.28294840                0.26055719               -0.90644810               -0.04338338                0.97699022                0.86399257
              11.71753431                0.10972022               39.51374400                1.00000000                0.35738999                0.33851915               -1.17177231                0.00317580                0.14151548                0.19191900
              12.72150219               -0.13912263               39.39051496                1.00000000                0.39678791                0.43780268               -1.44606528                0.02357666                0.06066431               -1.00495889
               2.95246232                3.36843044               40.46939589                1.00000000               -0.25816347               -0.36786903                1.06005685               -0.00772541                0.03093326                1.79583261
               3.94988069                3.12084728               40.34071582                1.00000000               -0.21862730               -0.23083258                0.75548181                0.00955820                0.20792982                0.23719508
               4.94808977                2.87260191               40.21565850                0.71899961               -0.13158870               -0.09849072                0.44418482               -0.03605372                0.56573930               -1.14315712
               5.94724891                2.62345862               40.09404503                0.00010000                0.45375525               -0.03351816                0.09701003               -0.32577889                4.18830025               -1.85761796
               6.95716488                2.36869346               40.04120016                0.00010000                0.62695003               -0.15075967               -0.35604917               -0.82363807                5.61009615               -0.99970457
               7.95978791                2.11546764               39.94134358                0.00010000                0.21353274               -0.04180013               -0.55921785               -0.79615293                2.96839675                0.00433203
               8.96143553                1.86268297               39.83365600                0.00010000                0.09559879                0.02228613               -0.73139432               -0.71999996                4.04955340                0.77293052
               9.96169989                1.61109930               39.75470252                0.00010000                0.06277996                0.03271452               -0.80773409               -0.49105090                4.67959356                1.24108759
              10.96269113                1.36141260               39.66004685                0.40145739                0.21221134                0.24774116               -0.98812102               -0.18896859                2.62004922                1.76448916
              11.96594412                1.11320662               39.54046920                1.00000000                0.37039741                0.34512367               -1.26196213               -0.04381289                0.89652885                0.81278688
              12.97009908                0.86541380               39.41159024                1.00000000                0.41549665                0.46998488               -1.52012386                0.01430075                0.42002144               -0.95307582
               3.19927451                4.36481118               40.42347955                1.00000000               -0.20883255               -0.35078889                0.91715348               -0.01655111                0.12664240                1.64526648
               4.19718619                4.11873104               40.28719531                1.00000000               -0.17798594               -0.18473067                0.61397311               -0.00072095                0.21997996                0.03716488
               5.19571479                3.87203343               40.15282205                0.36804317               -0.08085964               -0.02798950                0.32890246               -0.10296977                1.14762529               -1.62695406
               6.19556899                3.62327032               40.03500216                0.00010000               -0.04659135                0.04221555                0.00449778               -0.56114703                5.14599454               -2.51548662
               7.19478296                3.36660371               39.98031643                0.00010000                0.06022926               -0.06709032               -0.34411242               -1.45282382                8.04015848               -2.33373072
               8.19677358                3.11376512               39.91771724                0.00010000                0.22667262               -0.13137546               -0.63625361               -1.46315276                7.42501252               -0.27660563
               9.19931642                2.86101253               39.84777203                0.00010000                0.32755572               -0.16913359               -0.87520514               -1.43634622                7.02922385                1.74689341
              10.20332469                2.60912538               39.77508685                0.00010000                0.45756378               -0.20396751               -1.09119391               -0.92173339                6.77753210                2.05849681
              11.20846769                2.36354091               39.69860014                0.11777741                0.46660768               -0.17072709               -1.08771975               -0.36893184                4.34678897                2.90615801
              12.21265685                2.11662269               39.57667230                0.57277067                0.44530768                0.22602809               -1.39533099               -0.15176777                1.17108657                1.91813882
              13.21737385                1.87027706               39.43678613                0.98041193                0.47170010                0.50080607               -1.61890903               -0.05485545                0.25382171               -0.12247567
               3.44429157                5.36141466               40.37481734                1.00000000               -0.16475631               -0.31829691                0.76184529               -0.03308161                0.21879375                1.33679430
               4.44264401                5.11715267               40.23099982                0.76172316               -0.14002403               -0.11918013                0.46168577               -0.03106627                0.34596741               -0.34501372
               5.44149109                4.87204212               40.08974412                0.17951191               -0.05941602                0.05468440                0.17772040               -0.17011528                1.43058973               -1.85329081
               6.44145569                4.62430293               39.96753051                0.00010000               -0.19387436                0.13956744               -0.11940210               -0.81349256                7.11977777               -2.40571377
               7.43761361                4.36735166               39.93980713                0.00010000               -0.26698239                0.12211238               -0.39784484               -1.39382040               11.43211875               -0.72481016
               8.43611604                4.11284013               39.90145787                0.00010000               -0.01326279               -0.00970187               -0.71639425               -1.48043753               10.62689303                0.44223732
               9.43734835                3.85930030               39.85515520                0.00010000                0.23103964               -0.10991986               -1.03061669               -1.51424720               10.08406988                1.63583491
              10.44073684                3.60701995               39.80336376                0.00010000                0.52334178               -0.20378639               -1.35197103               -1.33841227                9.67621488                2.70868343
              11.44781519                3.35799805               39.74654622                0.09704484                0.77178864               -0.53430495               -1.82017014               -0.57685752                6.31532356                3.66822040
              12.45617261                3.11772718               39.62573742                0.44865814                0.69390205                0.02450903               -1.44839791                0.00049296                1.63369981                2.91268164
              13.46169323                2.87542992               39.47495182                0.88301761                0.55206187                0.50807980               -1.64293881               -0.06308093                0.13427325                0.85559061
               3.68713686                6.35844524               40.32291877                1.00000000               -0.11994636               -0.26498665                0.59573054               -0.03654171                0.11838185                1.03786937
               4.68593740                6.11634744               40.16978933                0.59082489               -0.09873200               -0.04671688                0.27949402               -0.04711463                0.39374905               -0.69705154
               5.68516222                5.87312712               40.02216615                0.09869486               -0.09738969                0.15853886               -0.00912902               -0.25387118                2.46128419               -2.30473216
               6.68398961                5.62606167               39.91031630                0.00010000               -0.33964346                0.08683595               -0.08125424               -1.16385757                9.86355583                0.00871785
               7.67836935                5.36904596               39.91052813                0.00010000               -0.43867089                0.19250245               -0.43862620               -1.66077157               14.67041702                0.29701680
               8.67521619                5.11357108               39.89208990                0.00010000               -0.17588486                0.12427462               -0.80714587               -1.66083319               13.53487169                1.07673580
               9.67485166                4.85881413               39.86695229                0.00010000                0.13212493                0.00229066               -1.17037267               -1.70549615               13.08470689                2.08297068
              10.67785869                4.60504965               39.83684542                0.00010000                0.56858256               -0.16447877               -1.60379936               -1.64599813               12.64653798                3.24916766
              11.68622331                4.35285481               39.80015786                0.10135362                0.86880753               -0.48411042               -2.23708227               -0.72483629                8.42645321                4.58659192
              12.69523484                4.11711287               39.68286746                0.41759128                0.72417228               -0.03221940               -1.39031481                0.03803399                2.25180270                3.09204392
              13.70070675                3.88043866               39.52124829                0.86821126                0.54719163                0.49707290               -1.58289847               -0.03493899                0.05469112                1.03611497
               3.92775635                7.35611493               40.26845090                1.00000000               -0.07365083               -0.19716863                0.42259986               -0.03130861                0.04202195                0.84842815
               4.92701984                7.11621833               40.10641022                0.50179879               -0.05284559                0.01036448                0.10799843               -0.03950970                0.30752534               -0.81962664
               5.92669943                6.87521290               39.94964974                0.06007787               -0.23800688                0.23543352               -0.19700580               -0.45183787                5.48816463               -2.64020642
               6.92225970                6.62603965               39.89114540                0.00010000               -0.49053342                0.06003806                0.05526625               -1.35565004               13.32347977                1.53072423
               7.91688877                6.37120171               39.89014260                0.00010000               -0.45642448                0.25086329               -0.52479453               -1.69350741               16.30639242                0.94282241
               8.91313121                6.11532563               39.88825792                0.00010000               -0.25644531                0.22807842               -0.90405190               -1.82108035               16.24936503                1.49381988
               9.91175986                5.85934611               39.88327750                0.00010000                0.03224904                0.09806238               -1.27963219               -1.91680660               16.13029892                2.44163879
              10.91377619                5.60373038               39.87618289                0.00010000                0.47476914               -0.08936738               -1.72877174               -2.02029121               16.03710725                3.74176788
              11.92125524                5.34831585               39.86632672                0.11693380                0.77866257               -0.38060831               -2.40750025               -1.00102035               10.15174231                5.64416542
              12.92934944                5.11708280               39.73731782                0.40547844                0.65438146                0.05081240               -1.32535049                0.04204134                2.16701054                2.66151905
              13.93434287                4.88537138               39.56542604                0.86309910                0.49934291                0.50112911               -1.54519916               -0.02134052                0.04803026                0.60425973
               4.16630389                8.35450187               40.21289618                1.00000000               -0.02546494               -0.12593195                0.25140592               -0.02863666                0.01197612                0.78046148
               5.16604924                8.11655472               40.04256096                0.47297653                0.00001306                0.05313681               -0.06024459               -0.01868538                0.14477878               -0.82691372
               6.16630415                7.87783579               39.87481984                0.04246556               -0.25807189                0.26146070               -0.37859422               -0.58855180                8.18440233               -2.72193416
               7.16088780                7.62726243               39.86517003                0.00010000               -0.55454583                0.25957949               -0.32543026               -1.31549611               17.11319713                0.51910316
               8.15521323                7.37406323               39.87352281                0.00010000               -0.51188098                0.36964580               -0.66310473               -1.58300882               18.42104552                0.98309080
               9.15065018                7.11813265               39.88689377                0.00010000               -0.35512267                0.36465097               -1.01674109               -1.86333472               18.92539573                1.57715378
              10.14811078                6.86077538               39.90196962                0.00010000               -0.10835268                0.21564358               -1.35139380               -2.10765832               19.29851863                2.52124341
              11.14848313                6.60326230               39.91948274                0.00010000                0.23698516               -0.01153394               -1.71011593               -2.36060565               19.83842153                3.88813080
              12.15285048                6.34524265               39.94186407                0.14412853                0.52685029               -0.18036770               -2.19600713               -1.27910856               11.50450848                5.97118592
              13.15902013                6.11812912               39.78719419                0.40213063                0.54261489                0.16182073               -1.30166657                0.04543776                1.39348583                2.16717212
              14.16370278                5.89046124               39.60486821                0.85961916                0.46826469                0.52241358               -1.57291430               -0.00471371                0.04092809                0.07800564
               4.40307789                9.35359629               40.15716075                1.00000000                0.02343115               -0.05625230                0.08107425               -0.02676039               -0.00170407                0.78397550
               5.40331220                9.11728107               39.97883341                0.49569262                0.05713980                0.09134372               -0.22622564               -0.00422299               -0.01844014               -0.78883450
               6.40422069                8.88044211               39.80007707                0.03003243               -0.17949314                0.25060707               -0.54860145               -0.58670018               10.17344723               -2.45825609
               7.39972234                8.63123124               39.82542302                0.00010000               -0.49311589                0.45146720               -0.61174853               -1.18540024               20.70153791               -0.28543238
               8.39435837                8.37859462               39.85374979                0.00010000               -0.52849888                0.51639445               -0.86403938               -1.38255766               21.17571312                0.63325459
               9.38915236                8.12261865               39.88434454                0.00010000               -0.49406657                0.55089695               -1.14684686               -1.71070199               21.73409883                1.30151941
              10.38447704                7.86365898               39.91931527                0.00010000               -0.35277778                0.47560159               -1.42669270               -2.16045233               22.52235010                2.17352879
              11.38209681                7.60349970               39.96120496                0.00010000               -0.18353919                0.16144114               -1.60307491               -2.67939968               23.71549961                3.43873793
              12.38080626                7.34470849               40.01562880                0.18733127                0.14713969                0.06188908               -1.57991243               -1.57523539               12.76140949                5.03239070
              13.38503960                7.12031921               39.83230391                0.40641559                0.43890482                0.27183791               -1.31180344                0.01330905                0.47193294                1.69447110
              14.38958435                6.89581965               39.63935617                0.85589892                0.45447500                0.54177405               -1.64921517                0.00505396                0.02471482               -0.42448312
               4.63839912               10.35337682               40.10172457                0.98423671                0.07198317                0.00949330               -0.08995249               -0.02624854               -0.01441289                0.70286788
               5.63911895               10.11838160               39.91553553                0.53880023                0.11104243                0.12957674               -0.38912042               -0.00334345                0.02492704               -0.64430719
               6.64061997                9.88284793               39.73000505                0.00114760               -0.00458343                0.24436842               -0.70360543               -0.52208453               12.00072207               -1.58111943
               7.63902729                9.63629178               39.78310976                0.00010000               -0.22226494                0.43892619               -0.84117486               -0.79884161               23.87090239               -0.28208223
               8.63617467                9.38439111               39.83015145                0.00010000               -0.38277520                0.58200026               -1.05413038               -0.88845794               23.87133144                0.28101368
               9.63137178                9.12915059               39.87741542                0.00010000               -0.60769957                0.72285945               -1.29626348               -1.09716054               24.46807863                0.73363815
              10.62402068                8.87028741               39.93050772                0.00010000               -0.87630806                0.83415185               -1.53766276               -1.63516493               25.62335959                1.29190065
              11.61384562                8.60649113               39.99469147                0.03620118               -0.97472115                0.84228172               -1.73149210               -2.32823304               27.19356746                2.17401394
              12.60452626                8.34648043               40.07290575                0.25502696               -0.28352333                0.25853209               -1.05915287               -1.84227821               14.17679297                2.65960676
              13.60817515                8.12356588               39.87263364                0.41820702                0.41383601                0.35829358               -1.32871929               -0.03482825                0.12290491                1.10183243
              14.61280298                7.90129672               39.66878127                0.84391303                0.46278245                0.55006280               -1.75130174                0.00564517               -0.01937261               -0.66943458
               4.87254336               11.35378616               40.04435772                1.00000000                0.12308612                0.04093376               -0.25393163                0.02306857                0.38279194                0.60996584
               5.87377422               11.11987260               39.85449061                0.81506584                0.16627290                0.14910041               -0.55331678                0.04269311                0.78108636               -0.52080654
               6.87586882               10.88532948               39.67242043                0.49201091                0.42140516                0.24815502               -0.86118845               -0.46825705               13.85956748               -0.94034238
               7.88220233               10.64000977               39.74385398                0.36929152                0.39307897                0.37179877               -1.03174136               -0.43723868               26.38993800               -0.22952758
               8.88373040               10.39023463               39.80418346                0.35901010               -0.04447338                0.58435125               -1.23313297               -0.39112381               26.15074943                0.08990768
               9.88131286               10.13707584               39.86414102                0.37040161               -0.46485976                0.79252452               -1.46648313               -0.50052279               26.77824688                0.35241632
              10.87443320                9.88034202               39.93052338                0.40268447               -1.09868651                1.00546081               -1.70009519               -0.79527294               28.14980792                0.66844241
              11.85933913                9.62034533               40.01074265                0.54320641               -2.37736314                1.38542037               -1.98316738               -1.97379337               29.60151425                1.24330849
              12.82688594                9.34987913               40.09869786                0.66095303               -1.49061931                0.33987057               -1.13036505               -2.40704411               16.08157318                1.15105104
              13.82952674                9.12748508               39.90538945                0.72605506                0.36748118                0.39192053               -1.37507132               -0.01775250                1.32717148                0.75642362
              14.83423557                8.90682091               39.69785470                0.92066161                0.47088226                0.55241841               -1.83784530                0.07684107                0.65188692               -0.64837118
               2.56809543                1.44103419               41.58262588                1.00000000               -0.36812442               -0.40744681                1.40328054               -0.06998238               -1.09267515                1.06285424
               3.56441418                1.18238731               41.45718025                1.00000000               -0.31330387               -0.29861502                1.06776148               -0.04210945               -1.46056566                0.16964921
               4.56182935                0.92325394               41.32459286                1.00000000               -0.20042014               -0.19312056                0.70428143               -0.04581596               -1.46935422               -0.21015372
               5.56040578                0.66349585               41.19902788                0.64952700               -0.03042569               -0.10135511                0.34778059               -0.23761778               -0.82874011               -0.96849144
               6.56122083                0.39907291               41.07922050                0.70408172                0.24809753               -0.12428208               -0.13309077               -0.05893556               -0.40448389                0.25828671
               7.56536773                0.13142900               40.96271812                0.74971507                0.46481343                0.03314826               -0.46682365               -0.10138081               -0.21520264                0.11261052
               8.57051710               -0.13426925               40.84545743                0.73284067                0.55097323                0.10836822               -0.67501873               -0.05350927               -0.08662901               -0.11237089
               9.57638719               -0.39715868               40.72945821                0.82819956                0.51255489                0.15960899               -0.74706175               -0.08296646               -0.26123264                0.09947504
              10.58076820               -0.65737234               40.60633396                1.00000000                0.39485375                0.24157291               -0.88065847               -0.07163852               -0.76366467                0.66164708
              11.58428427               -0.91636531               40.47913442                1.00000000                0.36846413                0.33071469               -1.10565332               -0.04019817               -0.90214412                0.04619695
              12.58813748               -1.17524632               40.35293123                1.00000000                0.38532143                0.42225294               -1.37455429               -0.02623710               -0.84396085               -0.82207866
               2.82604248                2.43695972               41.52742781                1.00000000               -0.31592723               -0.39676971                1.24076674               -0.01404648               -0.21428126                1.44232434
               3.82288321                2.17940116               41.40193375                1.00000000               -0.26127828               -0.27590904                0.90827194                0.01222223               -0.32220329                0.24361472
               4.82081692                1.92132273               41.27443471                1.00000000               -0.13815469               -0.16442391                0.54769444               -0.01030764               -0.24908369               -0.42296135
               5.82012012                1.66248230               41.15030285                0.30404612                0.29239939               -0.06505307                0.20310882               -0.30392204                1.28960898               -1.29223813
               6.82666490                1.39783009               41.05320739                0.41964305                0.54524417               -0.12306746               -0.23361328               -0.04428024                2.30680622                0.76990981
               7.83102500                1.13176048               40.94661085                0.49343232                0.38054711                0.06774008               -0.54068786               -0.08266106                1.82915615                0.37166304
               8.83427585                0.86681443               40.83815179                0.42135471                0.30420380                0.17759193               -0.72582149               -0.05442770                2.03421753               -0.34162017
               9.83710908                0.60443741               40.73447927                0.50826605                0.26896420                0.22075404               -0.77509502               -0.07332804                2.07807674                0.45634599
              10.83965513                0.34504339               40.62633777                1.00000000                0.28551010                0.25968951               -0.90443759               -0.04746890                1.05113593                0.86437089
              11.84281928                0.08694184               40.50205465                1.00000000                0.35504973                0.33639103               -1.16344672                0.00344287                0.15769116                0.20105617
              12.84675613               -0.17102379               40.37610473                1.00000000                0.39368481                0.43193641               -1.43284216                0.01862181                0.07011819               -0.95579556
               3.08293162                3.43309879               41.48013358                1.00000000               -0.26360117               -0.37957745                1.09293475               -0.00837980                0.02404710                1.81924622
               4.08029561                3.17686912               41.34828819                1.00000000               -0.21947844               -0.23260556                0.76054957                0.00988635                0.19345269                0.25356834
               5.07854205                2.91996546               41.21995435                0.73806456               -0.12378129               -0.09201481                0.41384454               -0.03495884                0.52936322               -1.10884247
               6.07781998                2.66219479               41.09473835                0.00010000                0.62574977               -0.01701212                0.03741861               -0.43396894                4.08260802               -1.83279251
               7.09105705                2.39661156               41.03720162                0.00010000                0.84550890               -0.16044689               -0.45814163               -1.03531395                5.56751532               -0.99127758
               8.09473016                2.13278380               40.93524830                0.00010000                0.28472835               -0.01141652               -0.68207961               -0.97700283                3.08343997               -0.01603440
               9.09675162                1.86928259               40.82585479                0.00010000                0.09807585                0.07353291               -0.85501849               -0.87085583                4.25128919                0.70814927
              10.09669168                1.60725640               40.74647749                0.00010000                0.02813909                0.07268673               -0.85318177               -0.57696648                4.86569063                1.10733738
              11.09731440                1.34782145               40.65033246                0.39096366                0.18643138                0.23178118               -0.94819712               -0.21295497                2.66734375                1.74395075
              12.10042031                1.09036251               40.52803008                1.00000000                0.35633923                0.33463518               -1.21987246               -0.04238848                0.88573691                0.79821797
              13.10444118                0.83339241               40.39660230                1.00000000                0.40208747                0.45114712               -1.47109061                0.01004348                0.41392860               -0.90959273
               3.33833422                4.42936817               41.43276224                1.00000000               -0.21199530               -0.36131426                0.94363030               -0.01697326                0.12669842                1.65904615
               4.33621427                4.17474904               41.29332329                1.00000000               -0.17710717               -0.18382685                0.61227289               -0.00063265                0.22800163                0.04820950
               5.33479208                3.91948244               41.15599069                0.36669937               -0.07098141               -0.01866299                0.30095175               -0.10385957                1.14467396               -1.60558584
               6.33479464                3.66214206               41.03478211                0.00010000                0.02887690                0.05712207               -0.05526893               -0.67452678                5.11134473               -2.47058083
               7.33536962                3.39462115               40.97648798                0.00010000                0.20096365               -0.04386708               -0.43300835               -1.75585712                8.02946061               -2.21605992
               8.33881391                3.13153215               40.91090081                0.00010000                0.35082546               -0.10005168               -0.74063618               -1.73955788                7.47149469               -0.23425055
               9.34238612                2.86828509               40.83861459                0.00010000                0.41084874               -0.12677631               -0.96851509               -1.68223092                7.11191328                1.70756920
              10.34703089                2.60589115               40.76394874                0.00010000                0.49518993               -0.16943675               -1.14061149               -1.10554953                6.97879976                1.87320828
              11.35228992                2.34967901               40.68804035                0.10462500                0.46848318               -0.16904665               -1.01620545               -0.43501469                4.44657142                2.51609722
              12.35640055                2.09363454               40.56305156                0.54484077                0.43036419                0.19046680               -1.32056733               -0.14188851                1.12765258                1.91418214
              13.36089721                1.83799915               40.42095838                0.96148145                0.44966562                0.44550840               -1.53720423               -0.04715792                0.24746989               -0.05938988
               3.59183041                5.42587251               41.38251730                1.00000000               -0.16617182               -0.32789110                0.78151750               -0.03461976                0.22712519                1.33746589
               4.59016869                5.17319259               41.23558583                0.74925934               -0.13792781               -0.11432885                0.45487213               -0.03467655                0.36109714               -0.35390015
               5.58907185                4.91959220               41.09137592                0.17317122               -0.04889759                0.06989322                0.14343076               -0.17872442                1.44833039               -1.86827627
               6.58919074                4.66333723               40.96606907                0.00010000               -0.12610189                0.14752283               -0.17927265               -0.93246722                7.14372208               -2.28276609
               7.58654981                4.39573422               40.93548142                0.00010000               -0.14578368                0.15080994               -0.47535943               -1.60656998               11.45275516               -0.61951098
               8.58627506                4.13078276               40.89385608                0.00010000                0.10990929                0.00914812               -0.81109079               -1.69218500               10.63012401                0.50199041
               9.58874800                3.86674706               40.84440340                0.00010000                0.34558532               -0.09780914               -1.12200043               -1.72099691               10.08291088                1.62068264
              10.59318677                3.60386767               40.78950140                0.00010000                0.60613551               -0.20216526               -1.41084024               -1.50852611                9.57558972                2.56009224
              11.60087071                3.34444052               40.72810208                0.08512273                0.80378145               -0.50473604               -1.84455619               -0.67016742                6.52821224                3.14527571
              12.60926240                3.09417185               40.61168121                0.42400042                0.69490494               -0.04996279               -1.35252993               -0.02112964                1.94420388                2.97912282
              13.61476881                2.84230258               40.45900471                0.86750024                0.55064093                0.39650020               -1.53634648               -0.04357839                0.12931093                0.96645631
               3.84300166                6.42281035               41.32892941                1.00000000               -0.12006217               -0.27324206                0.60882012               -0.03779952                0.11349631                1.02862601
               4.84180104                6.17246247               41.17252665                0.57829689               -0.09643579               -0.03784036                0.26744709               -0.05267794                0.40188659               -0.71459707
               5.84107295                5.92088030               41.02190539                0.09156841               -0.08988816                0.18500188               -0.04551512               -0.28416301                2.60237067               -2.33506340
               6.84000328                5.66509251               40.90941814                0.00010000               -0.26401337                0.06845720               -0.10206876               -1.28096677                9.96721951                0.25279869
               7.83579268                5.39763735               40.90578622                0.00010000               -0.30229561                0.21170740               -0.51574567               -1.84423264               14.62485969                0.39253335
               8.83395737                5.13171511               40.88355068                0.00010000               -0.04556990                0.14532439               -0.90318147               -1.84495445               13.49533432                1.14046008
               9.83488128                4.86632891               40.85470210                0.00010000                0.26047732                0.01482350               -1.27552802               -1.89745382               13.00546409                2.10226593
              10.83916691                4.60184784               40.82018781                0.00010000                0.68505566               -0.16448765               -1.70820941               -1.79329579               12.41203888                3.17783031
              11.84858239                4.33958429               40.77718013                0.08916619                0.94744935               -0.48336423               -2.30263200               -0.83672054                8.80642268                4.37412817
              12.85811590                4.09263529               40.66921783                0.39545513                0.75908958               -0.11233823               -1.32602452               -0.02036645                2.80279436                3.19669773
              13.86376419                3.84592915               40.50574849                0.85421129                0.56482870                0.37474242               -1.50846094               -0.02189500                0.04436905                1.12247886
               4.09177017                7.42040767               41.27270230                1.00000000               -0.07250015               -0.20323551                0.42966565               -0.03208181                0.03922967                0.83581290
               5.09104517                7.17243578               41.10740987                0.49109968               -0.05058152                0.02093552                0.09085183               -0.04188355                0.30913865               -0.82855310
               6.09075854                6.92329224               40.94749802                0.05559085               -0.21154099                0.26778074               -0.23794952               -0.52050686                5.77629981               -2.66119842
               7.08681435                6.66470637               40.89146721                0.00010000               -0.38579923                0.05383642               -0.01381115               -1.45500035               13.50087518                1.55636387
               8.08304256                6.39996837               40.88447891                0.00010000               -0.30649703                0.26601144               -0.60790482               -1.83083226               16.15885072                0.99767874
               9.08068441                6.13368925               40.87868437                0.00010000               -0.11881848                0.25109898               -1.01031131               -1.97840236               16.20052951                1.55341708
              10.08066619                5.86704353               40.86978735                0.00010000                0.16905289                0.12473950               -1.41164504               -2.08204263               16.02956820                2.50045769
              11.08406547                5.60057792               40.85793496                0.00010000                0.63413312               -0.06998907               -1.90059170               -2.15686686               15.74310470                3.81164146
              12.09334885                5.33477323               40.84073938                0.10331038                0.92223672               -0.41850608               -2.64623201               -1.09852459               10.64342031                5.74878523
              13.10251021                5.09192508               40.72402354                0.38556385                0.71971592                0.00413779               -1.32321961               -0.01637054                2.88116396                2.75092032
              14.10774317                4.84979742               40.55000816                0.85051976                0.52329660                0.42222933               -1.53723631               -0.01312741                0.03961318                0.61030839
               4.33830380                8.41874564               41.21540832                1.00000000               -0.02250001               -0.12980466                0.25263948               -0.02913000                0.01056280                0.76854399
               5.33807880                8.17288118               41.04185479                0.46443366                0.00442104                0.06424223               -0.08244070               -0.01784432                0.14009570               -0.83153712
               6.33839222                7.92623592               40.87083512                0.03817524               -0.19258263                0.29108106               -0.42249316               -0.66374913                8.35671176               -2.72950910
               7.33422714                7.66616924               40.86148249                0.00010000               -0.40995313                0.27797951               -0.40840076               -1.42842121               17.28805992                0.35330636
               8.33019315                7.40295758               40.86642297                0.00010000               -0.34564967                0.37671984               -0.76012088               -1.70827633               18.40967680                0.98727302
               9.32731415                7.13673709               40.87610498                0.00010000               -0.19206947                0.38008398               -1.13845835               -1.97275060               18.90627265                1.62616318
              10.32635177                6.86882370               40.88760842                0.00010000                0.04928635                0.25117971               -1.51471826               -2.20495047               19.24967690                2.60892727
              11.32829988                6.60044806               40.90111000                0.00010000                0.44564848                0.03388030               -1.95573846               -2.45595602               19.63649064                4.09412373
              12.33526473                6.33121417               40.91745904                0.12811874                0.72322098               -0.21851655               -2.68062873               -1.33415596               12.01570978                6.54489097
              13.34276430                6.09271804               40.77388088                0.38368695                0.62461124                0.15320193               -1.35831711                0.01038714                2.07774539                2.23348084
              14.34775696                5.85437374               40.58888858                0.84791705                0.49926626                0.49484219               -1.63159822                0.00188260                0.03953090                0.01512603
               4.58291649                9.41781157               41.15793909                0.99776930                0.02815135               -0.05766894                0.07561138               -0.02718104               -0.00149413                0.77150820
               5.58319801                9.17372062               40.97644785                0.48939624                0.06395029                0.10258416               -0.25257085               -0.00246044               -0.02579358               -0.78951911
               6.58419550                8.92911386               40.79437427                0.02608385               -0.08368690                0.27450726               -0.59667553               -0.67485110               10.28627786               -2.44991723
               7.58152427                8.67026596               40.81892333                0.00010000               -0.29431580                0.44764070               -0.69269149               -1.32910023               20.86466347               -0.36578948
               8.57830918                8.40750276               40.84457005                0.00010000               -0.30804945                0.49583906               -0.97062690               -1.48868289               21.23619802                0.61380817
               9.57536328                8.14129093               40.87217007                0.00010000               -0.27264860                0.53944055               -1.28481610               -1.75900247               21.77704336                1.33839148
              10.57285621                7.87206713               40.90412364                0.00010000               -0.14036996                0.48884156               -1.60873304               -2.15319417               22.59081014                2.26035972
              11.57255588                7.60125552               40.94380986                0.00010000                0.07697706                0.20326593               -1.88466633               -2.68294405               23.88039904                3.64174549
              12.57439575                7.33040290               40.99770461                0.16841419                0.35012481                0.06276766               -2.08513402               -1.61207320               13.25628243                5.85796263
              13.57955838                7.09498912               40.81870605                0.38854759                0.50368370                0.29036158               -1.41231864                0.00218772                0.85695857                1.75832164
              14.58446943                6.85969427               40.62238789                0.84434462                0.49110494                0.55404918               -1.75990766                0.01027896                0.03120314               -0.51998366
               4.82594207               10.41759226               41.10076670                0.97950791                0.07852293                0.01119681               -0.10050881               -0.02704034               -0.01260673                0.69262869
               5.82672730               10.17493286               40.91149252                0.53450145                0.12038935                0.14096478               -0.42227438               -0.00255295                0.01973128               -0.64300973
               6.82834986                9.93172606               40.72272841                0.00010000                0.12644685                0.26365385               -0.75665401               -0.63767944               12.07483196               -1.56442454
               7.82925624                9.67512205               40.77428731                0.00010000                0.05223352                0.37730213               -0.92505969               -0.92896511               24.00903812               -0.31787008
               8.82939453                9.41287436               40.81902822                0.00010000               -0.08432504                0.52343085               -1.16865921               -0.95855141               23.96778225                0.27288179
               9.82756974                9.14752590               40.86367351                0.00010000               -0.30356179                0.67509693               -1.44830284               -1.10098491               24.55285284                0.75505164
              10.82332329                8.87860053               40.91418596                0.00010000               -0.56322559                0.79651437               -1.72577300               -1.57245649               25.74359524                1.34846309
              11.81630522                8.60451338               40.97661694                0.01985423               -0.70168108                0.82011110               -1.90397686               -2.27430048               27.75830392                2.24474196
              12.80928967                8.33246952               41.06120551                0.23395207               -0.13942693                0.31318000               -1.34284527               -1.87779739               14.78320841                3.13977700
              13.81351669                8.09852527               40.85877887                0.40064916                0.46312899                0.39146142               -1.45373421               -0.04586441                0.22023536                1.16609929
              14.81855225                7.86545473               40.65064559                0.83189549                0.50355647                0.58600671               -1.89479689                0.00786007               -0.01917927               -0.75542704
               5.06769448               11.41803551               41.04172486                0.99980693                0.13186626                0.04432507               -0.27223467                0.02568222                0.37634939                0.60245442
               6.06901314               11.17653992               40.84877381                0.81403804                0.17791179                0.16070600               -0.59302196                0.04615577                0.77126748               -0.51871155
               7.07125272               10.93438694               40.66353932                0.49005965                0.63917632                0.26608751               -0.92061299               -0.64610988               13.91248191               -0.92200826
               8.08179667               10.67781201               40.73309763                0.36933948                0.77407955                0.26899511               -1.11997440               -0.56673459               26.51319064               -0.25140052
               9.08673431               10.41797138               40.79123225                0.35913963                0.29103701                0.50970209               -1.35448884               -0.41697881               26.25162438                0.08352987
              10.08761741               10.15479287               40.84865101                0.37016901               -0.11573520                0.72669688               -1.62710273               -0.49393084               26.86715081                0.36286897
              11.08441960                9.88799742               40.91254688                0.40171279               -0.72082655                0.93968850               -1.89454359               -0.74712520               28.25823183                0.70349587
              12.07320088                9.61765774               40.99060420                0.53391569               -2.07958469                1.31443645               -2.05938528               -1.87698029               30.24503134                1.23551124
              13.04282791                9.33666650               41.08639830                0.64980736               -1.37724960                0.41969779               -1.37762335               -2.38814573               16.87839978                1.32574113
              14.04565589                9.10281835               40.89108117                0.71736531                0.39699084                0.42930769               -1.50144384               -0.04868486                1.49011965                0.81957764
              15.05076773                8.87141440               40.67879641                0.91430690                0.51118399                0.59596767               -1.99476290                0.08115266                0.68740227               -0.71090814
               2.68412703                1.50776278               42.59692136                1.00000000               -0.38108159               -0.42554283                1.46461483               -0.07571170               -1.12462560                1.08156525
               3.68031621                1.24016749               42.46796148                1.00000000               -0.32227730               -0.30554454                1.09266196               -0.04418680               -1.51227312                0.17733635
               4.67768148                0.97208042               42.33156239                1.00000000               -0.20333708               -0.18978873                0.69051984               -0.04708511               -1.53831962               -0.21187674
               5.67624947                0.70319588               42.20224242                0.65649980               -0.05024968               -0.08104257                0.29275597               -0.30427712               -0.96706705               -0.97596056
               6.67667649                0.42810257               42.07736490                0.70990493                0.25852923               -0.10665896               -0.24190053               -0.07308583               -0.55511987                0.24515149
               7.68142005                0.14890140               41.95735649                0.74935328                0.54904624                0.06028034               -0.61363032               -0.11468376               -0.22785489                0.08680832
               8.68765741               -0.12800073               41.83801633                0.72530447                0.67075960                0.13377676               -0.82689840               -0.05055930                0.05866238               -0.15059800
               9.69483525               -0.40112298               41.72155798                0.81626890                0.61005029                0.17017013               -0.84343209               -0.08705871               -0.04297733                0.07775171
              10.69985842               -0.67057321               41.59732651                1.00000000                0.43482415                0.24482172               -0.92126572               -0.07353476               -0.61645216                0.67637054
              11.70353173               -0.93848028               41.46794532                1.00000000                0.38053019                0.33259676               -1.13255165               -0.03893647               -0.83258580                0.05567461
              12.70746902               -1.20613082               41.33908123                1.00000000                0.39372925                0.42212081               -1.39640820               -0.03151619               -0.79822760               -0.77895754
               2.95096519                2.50350735               42.54006306                1.00000000               -0.32496716               -0.41409245                1.29395048               -0.01417901               -0.23121241                1.46323607
               3.94771552                2.23711205               42.41108141                1.00000000               -0.26343782               -0.28191938                0.92451088                0.01439746               -0.35568131                0.25584637
               4.94569643                1.97018253               42.27982951                1.00000000               -0.12599484               -0.16056645                0.53001952               -0.00905954               -0.28736299               -0.41590898
               5.94519562                1.70238546               42.15213492                0.31767950                0.36982159               -0.04361872                0.15496490               -0.38711119                1.20804848               -1.31341333
               6.95309287                1.42703598               42.05037458                0.42876937                0.65646209               -0.12576200               -0.34401394               -0.07762490                2.22660825                0.70346684
               7.95832486                1.14950421               41.94056255                0.49642479                0.45355707                0.09777978               -0.68606362               -0.11577267                1.88012198                0.31747589
               8.96216401                0.87333704               41.83027960                0.42063689                0.34630172                0.21919420               -0.87035353               -0.06753837                2.23525139               -0.41716970
               9.96525090                0.60057873               41.72643482                0.49950261                0.28188564                0.24497774               -0.84683127               -0.08806238                2.31298167                0.40848598
              10.96780172                0.33187501               41.61731249                1.00000000                0.28351350                0.25811193               -0.89732291               -0.05530155                1.15716651                0.86826321
              11.97092117                0.06484569               41.49047507                1.00000000                0.35013410                0.33271770               -1.14924699                0.00363354                0.17554582                0.21062412
              12.97480440               -0.20190961               41.36185812                1.00000000                0.38832339                0.42495578               -1.41379260                0.01267914                0.07995732               -0.90220735
               3.21663404                3.49948093               42.49125458                1.00000000               -0.27050709               -0.39494818                1.13734137               -0.00912270                0.01692086                1.84195754
               4.21392897                3.23452911               42.35592681                1.00000000               -0.22035816               -0.23572305                0.76862517                0.00952111                0.17603757                0.26952593
               5.21222688                2.96886909               42.22393539                0.75624376               -0.11375878               -0.08411972                0.38168084               -0.03762889                0.49130768               -1.07877924
               6.21165380                2.70232351               42.09479341                0.00010000                0.78891777                0.00712621               -0.02958557               -0.55893938                3.96975617               -1.82699202
               7.22800524                2.42558733               42.03203733                0.00010000                1.05748714               -0.15166318               -0.59147327               -1.26529478                5.50508066               -0.98315318
               8.23280354                2.15085700               41.92770199                0.00010000                0.36134445                0.04840571               -0.85526786               -1.17260903                3.20028184               -0.03874874
               9.23523213                1.87638315               41.81655563                0.00010000                0.08662445                0.16391331               -1.04061806               -1.03688373                4.51419787                0.63499322
              10.23453603                1.60377658               41.73763888                0.00010000               -0.03733515                0.14934554               -0.94142736               -0.67850503                5.16069825                0.94995031
              11.23448542                1.33458903               41.64108290                0.37759173                0.14264946                0.21091190               -0.89384986               -0.25539622                2.76245184                1.72088930
              12.23738902                1.06817408               41.51607175                1.00000000                0.33738940                0.32047566               -1.16543694               -0.04250178                0.87136923                0.78307351
              13.24123321                0.80236829               41.38216842                1.00000000                0.38441915                0.42982337               -1.40972915                0.00468185                0.40685398               -0.86161715
               3.48068638                4.49560838               42.44235216                1.00000000               -0.21686018               -0.37420573                0.97891225               -0.01793148                0.12621184                1.67108164
               4.47851778                4.23239759               42.29944077                1.00000000               -0.17684617               -0.18288955                0.61175948               -0.00149460                0.23611980                0.05857868
               5.47714946                3.96850014               42.15884109                0.36407007               -0.06095898               -0.00536012                0.26391710               -0.10610152                1.14029564               -1.58212811
               6.47729860                3.70252798               42.03389678                0.00010000                0.10520114                0.08440393               -0.13122054               -0.79632923                5.07442334               -2.42703160
               7.47925348                3.42400272               41.97165626                0.00010000                0.33891304                0.00379344               -0.54640566               -2.05895978                8.02005332               -2.07579725
               8.48407686                3.15047232               41.90290451                0.00010000                0.46266378               -0.03134617               -0.87609188               -2.01972040                7.53712657               -0.16677710
               9.48850675                2.87661530               41.82840173                0.00010000                0.46990337               -0.03783571               -1.09235576               -1.93887782                7.24133193                1.69559118
              10.49347493                2.60356564               41.75227462                0.00010000                0.48947729               -0.08969286               -1.20395953               -1.32540690                7.27859067                1.68534429
              11.49829630                2.33609324               41.67827603                0.09138157                0.44084709               -0.14126196               -0.92814277               -0.52981171                4.60242047                2.06071491
              12.50229187                2.07125520               41.55026095                0.51479110                0.41066527                0.14846472               -1.22900649               -0.13206794                1.07843843                1.90323451
              13.50650961                1.80668685               41.40604205                0.93945229                0.42177375                0.38003223               -1.43664300               -0.03687353                0.23731216                0.00191859
               3.74269701                5.49199681               42.39044769                1.00000000               -0.16896817               -0.33878128                0.80798233               -0.03625255                0.23478693                1.33602259
               4.74100733                5.23087131               42.24009726                0.73666599               -0.13612753               -0.10830652                0.44694620               -0.03767741                0.37469650               -0.36168391
               5.73997446                4.96876189               42.09261273                0.16559607               -0.03913453                0.09018057                0.09989275               -0.18455178                1.46583118               -1.87801645
               6.74022464                4.70401159               41.96394506                0.00010000               -0.05463793                0.15957667               -0.25584032               -1.04720567                7.17261555               -2.13163474
               7.73888170                4.42566320               41.93029994                0.00010000               -0.02140461                0.19482097               -0.57103556               -1.81504899               11.48536343               -0.49444417
               8.73979654                4.15023008               41.88523605                0.00010000                0.22397775                0.05398377               -0.92233034               -1.89533105               10.65553050                0.58451855
               9.74336125                3.87562644               41.83271519                0.00010000                0.43767042               -0.05699017               -1.22110841               -1.92151521               10.12915875                1.61889987
              10.74854995                3.60198272               41.77514695                0.00010000                0.64191842               -0.16964720               -1.45468860               -1.68580736                9.53866020                2.39582194
              11.75619962                3.33176379               41.70965510                0.07348081                0.78020493               -0.41965860               -1.81697795               -0.79069540                6.83100229                2.55453451
              12.76415405                3.07114337               41.59868682                0.39850716                0.67164080               -0.12753548               -1.23711749               -0.06821760                2.30162215                3.00989639
              13.76963244                2.80996894               41.44422489                0.85016853                0.54783875                0.25989656               -1.41086254               -0.01628264                0.12371821                1.03891824
               4.00221232                6.48883276               42.33509518                1.00000000               -0.12131703               -0.28222661                0.62704443               -0.03869089                0.10838794                1.01814457
               5.00099915                6.23023146               42.17513827                0.56467965               -0.09470867               -0.02760945                0.25377977               -0.05647273                0.41039235               -0.73017105
               6.00031815                5.97030375               42.02125585                0.08598022               -0.07729884                0.21486584               -0.08950375               -0.31591555                2.76493385               -2.35802485
               6.99945318                5.70571951               41.90827492                0.00010000               -0.17920706                0.05454950               -0.13292492               -1.36664673               10.08128920                0.48974741
               7.99673401                5.42789913               41.90021322                0.00010000               -0.16230904                0.24276640               -0.60709484               -2.01003006               14.57603946                0.50521715
               8.99620699                5.15155200               41.87402627                0.00010000                0.07948980                0.18047928               -1.00486823               -2.01934063               13.47957255                1.22000198
               9.99832380                4.87547550               41.84144173                0.00010000                0.37072181                0.04112467               -1.37331625               -2.08199643               12.96504109                2.12344176
              11.00362143                4.60017269               41.80268123                0.00010000                0.74989698               -0.14708531               -1.77399825               -1.93195663               12.25025367                3.06589296
              12.01332174                4.32770007               41.75410522                0.07746175                0.95504677               -0.43755759               -2.26123429               -0.98163753                9.28800974                4.05731367
              13.02272237                4.06870449               41.65634697                0.37337398                0.76055370               -0.18526095               -1.24169025               -0.11327005                3.39534741                3.23145554
              14.02853282                3.81188478               41.49107907                0.83945272                0.58104514                0.22342589               -1.42420962               -0.00529837                0.03575907                1.12346976
               4.25912579                7.48635228               42.27704421                1.00000000               -0.07189132               -0.20984061                0.44085781               -0.03282148                0.03607615                0.82316398
               5.25840688                7.23031913               42.10822726                0.47931634               -0.04788518                0.03272726                0.07136284               -0.04339365                0.31042442               -0.83580557
               6.25816809                6.97305921               41.94489075                0.05011211               -0.15552821                0.30328054               -0.28768743               -0.58620067                6.05590178               -2.67977527
               7.25529632                6.70510258               41.89086917                0.00010000               -0.26597379                0.05764604               -0.11444414               -1.54663545               13.68262178                1.56740310
               8.25284861                6.43051853               41.87798451                0.00010000               -0.17314755                0.29092064               -0.69454536               -1.96063247               16.03650613                1.05830364
               9.25183337                6.15383966               41.86805169                0.00010000                0.01260080                0.28091080               -1.11563372               -2.13432040               16.17029660                1.62038541
              10.25310063                5.87644893               41.85504460                0.00010000                0.29264419                0.15710627               -1.52878889               -2.25115757               15.95150319                2.54926432
              11.25768625                5.59904102               41.83817105                0.00010000                0.74672209               -0.04514034               -2.02604334               -2.28477049               15.47362757                3.82228423
              12.26803507                5.32301264               41.81340208                0.09024055                1.00088442               -0.42624199               -2.73765376               -1.22654069               11.25518826                5.61612270
              13.27770394                5.06743815               41.71085343                0.36614728                0.75654080               -0.02941314               -1.30750318               -0.10760221                3.69267262                2.76421536
              14.28316589                4.81443745               41.53468131                0.83783800                0.54619504                0.32496239               -1.53598171               -0.00281052                0.03484218                0.52015483
               4.51362220                8.48463595               42.21794897                1.00000000               -0.01978476               -0.13421014                0.25726000               -0.02975895                0.00877080                0.75636516
               5.51342435                8.23088600               42.04091214                0.45477426                0.00942424                0.07669158               -0.10767793               -0.01561552                0.13608762               -0.83400480
               6.51381069                7.97636936               41.86636998                0.03297877               -0.11816036                0.32456389               -0.47581628               -0.73554488                8.52792999               -2.73413654
               7.51106115                7.70687243               41.85700201                0.00010000               -0.25132066                0.30040285               -0.49515827               -1.55641478               17.47812362                0.20090230
               8.50878427                7.43371755               41.85832039                0.00010000               -0.17354839                0.38735029               -0.86055641               -1.83576222               18.41707926                0.99295919
               9.50759018                7.15717021               41.86412461                0.00010000               -0.03424871                0.39891433               -1.25410888               -2.08968242               18.90154473                1.67325792
              10.50809930                6.87861763               41.87167526                0.00010000                0.18860700                0.29198532               -1.66212309               -2.31737497               19.19468488                2.67945579
              11.51136232                6.59926989               41.88036797                0.00010000                0.61472481                0.08933244               -2.17315784               -2.55024138               19.33986757                4.23801470
              12.52039379                6.31917523               41.88825149                0.11244136                0.88915922               -0.24456773               -3.09276548               -1.40765062               12.66731230                6.92618416
              13.52914550                6.06811623               41.76002785                0.36594249                0.70421022                0.15747550               -1.41355692               -0.04998219                2.98383616                2.24053752
              14.53447800                5.81838403               41.57223625                0.83644664                0.53324960                0.46127546               -1.71494594                0.01072183                0.04168099               -0.12601424
               4.76603050                9.48366808               42.15867298                0.99270550                0.03306527               -0.05961585                0.07273918               -0.02785479                0.00045578                0.75979601
               5.76636116                9.23185296               41.97378200                0.48215249                0.07201289                0.11547224               -0.28318952                0.00049637               -0.03193858               -0.78958900
               6.76747076                8.97955048               41.78814356                0.02132305                0.02293391                0.30125165               -0.65443142               -0.76155936               10.39645303               -2.43905832
               7.76681983                8.71111063               41.81156920                0.00010000               -0.08175848                0.44438237               -0.78163974               -1.47189348               21.03107537               -0.43818051
               8.76583559                8.43826553               41.83433725                0.00010000               -0.08400975                0.47344991               -1.07401679               -1.59664212               21.30727195                0.59811717
               9.76513964                8.16181795               41.85864821                0.00010000               -0.05910663                0.53002394               -1.41376059               -1.81479830               21.82203784                1.36649013
              10.76465346                7.88228864               41.88714061                0.00010000                0.04920889                0.51079025               -1.78168112               -2.15702136               22.62531477                2.33109719
              11.76612382                7.60082766               41.92351163                0.00010000                0.31911286                0.26608688               -2.17080383               -2.67687635               23.88606668                3.85741713
              12.77103572                7.31812128               41.97392612                0.14899267                0.56858387                0.07035276               -2.73670690               -1.63026471               13.86683873                6.77382739
              13.77749549                7.07058766               41.80405754                0.37139518                0.59045024                0.31982559               -1.52332984               -0.02320230                1.49502604                1.78530795
              14.78284472                6.82366296               41.60415802                0.83318370                0.53492266                0.56978166               -1.90800089                0.01792709                0.04174747               -0.66733987
               5.01669534               10.48344363               42.09971439                0.97485463                0.08565303                0.01254250               -0.10933509               -0.02772064               -0.01220817                0.68272452
               6.01755188               10.23319545               41.90709005                0.52910491                0.13132395                0.15414226               -0.46097988               -0.00126392                0.01545021               -0.64216534
               7.01932182                9.98239439               41.71487197                0.00010000                0.26781769                0.28585024               -0.81969175               -0.75557446               12.14938454               -1.54596424
               8.02290823                9.71576008               41.76460857                0.00010000                0.34111455                0.31252413               -1.01169904               -1.06272382               24.14901257               -0.34708928
               9.02614411                9.44318655               41.80677826                0.00010000                0.21814376                0.46158173               -1.27733641               -1.03077355               24.06407652                0.26454460
              10.02727110                9.16777069               41.84844936                0.00010000               -0.00974798                0.62801392               -1.58915025               -1.10757530               24.62865502                0.76738959
              11.02594916                8.88883343               41.89599226                0.00010000               -0.26394769                0.77007248               -1.91089496               -1.50939409               25.85999626                1.39299521
              12.02199215                8.60459162               41.95661193                0.00079990               -0.39603257                0.81266868               -2.14381905               -2.19933099               28.25378905                2.41392151
              13.01802850                8.32058229               42.04604885                0.21063110                0.05738121                0.39435495               -1.78410200               -1.85688139               15.43134335                3.78867551
              14.02313977                8.07451274               41.84355895                0.38395982                0.53287154                0.43421839               -1.60132311               -0.06835478                0.43908131                1.21845251
              15.02868593                7.82977966               41.63088533                0.82031781                0.55461601                0.63190735               -2.08239924                0.01211261               -0.01301089               -0.86796077
               5.26597245               11.48391893               42.03891303                0.99770412                0.14126578                0.04752982               -0.28932353                0.02939854                0.36982993                0.59334298
               6.26738511               11.23493580               41.84263017                0.81221856                0.19110910                0.17403560               -0.63829082                0.05075178                0.76255724               -0.51613129
               7.26979464               10.98526749               41.65400817                0.48783411                0.86940463                0.28730944               -0.99129693               -0.83145309               13.96700097               -0.90266254
               8.28477320               10.71736112               41.72145449                0.36937034                1.17074367                0.16010337               -1.20872754               -0.70201848               26.63876046               -0.27031185
               9.29320951               10.44749717               41.77709369                0.35924622                0.62840213                0.43106201               -1.46866626               -0.44260492               26.34904243                0.07608097
              10.29734125               10.17437823               41.83159897                0.36994934                0.22175677                0.66075348               -1.77513036               -0.48333947               26.94118150                0.36786093
              11.29764465                9.89769009               41.89263251                0.40074102               -0.34764531                0.88566584               -2.08588376               -0.69531042               28.39782872                0.73505747
              12.29038834                9.61708104               41.96955494                0.52254694               -1.68338378                1.24894148               -2.22494217               -1.74446636               30.82715229                1.35278106
              13.26397697                9.32600838               42.07114539                0.63692540               -1.17286604                0.54260936               -1.74508205               -2.29560387               17.68610665                1.58967651
              14.26693102                9.07927203               41.87536057                0.70911704                0.42880781                0.47592873               -1.65704100               -0.10623887                1.74692814                0.88412261
              15.27255313                8.83630111               41.65795944                0.90820810                0.56221054                0.65214463               -2.19830911                0.08962737                0.72357215               -0.78641838
               2.80352267                1.57638209               43.61191818                1.00000000               -0.39949829               -0.44908764                1.54469656               -0.08290618               -1.15706364                1.09959255
               3.79952769                1.29969417               43.47903349                1.00000000               -0.33703289               -0.31414154                1.12638110               -0.04745170               -1.56561950                0.18386155
               4.79678201                1.02248216               43.33840326                1.00000000               -0.21328821               -0.18506090                0.67881460               -0.05171229               -1.61179924               -0.21208978
               5.79526192                0.74419165               43.20488300                0.66418887               -0.08888223               -0.05286004                0.23249730               -0.37887077               -1.11907302               -0.97707153
               6.79500437                0.45795658               43.07438249                0.71754178                0.24486421               -0.07295772               -0.35263527               -0.09542263               -0.72915214                0.22948574
               7.80015921                0.16675305               42.95044551                0.75077148                0.62422488                0.10114449               -0.77075369               -0.13189428               -0.25889088                0.05615881
               8.80748887               -0.12180775               42.82891946                0.71724662                0.80291298                0.17394837               -1.00515383               -0.04354453                0.22065477               -0.20530132
               9.81621747               -0.40535732               42.71258956                0.80018640                0.72814742                0.18835452               -0.96290119               -0.08862238                0.22794573                0.03923882
              10.82205181               -0.68381690               42.58790865                1.00000000                0.48301804                0.24691506               -0.95954020               -0.07705995               -0.43260052                0.69831879
              11.82587783               -0.96031131               42.45648339                1.00000000                0.39246455                0.33392056               -1.15964335               -0.03744424               -0.75778774                0.06590072
              12.82990110               -1.23637925               42.32500306                1.00000000                0.40232773                0.42241206               -1.42192993               -0.03798791               -0.75150490               -0.73406556
               3.07938153                2.57189121               43.55330682                1.00000000               -0.33783960               -0.43666229                1.36351394               -0.01369996               -0.24900269                1.48239562
               4.07600313                2.29655275               43.42042397                1.00000000               -0.26826893               -0.28969418                0.94754318                0.01741060               -0.38925466                0.26670154
               5.07401615                2.02063155               43.28503510                1.00000000               -0.11335615               -0.15519337                0.50876417               -0.00850556               -0.32443743               -0.41017631
               6.07373601                1.74366305               43.15340214                0.33425005                0.43766447               -0.01492832                0.08894548               -0.47766575                1.11354188               -1.33210761
               7.08276944                1.45722700               43.04632711                0.44188066                0.74932083               -0.11448778               -0.47506651               -0.13264219                2.11958434                0.62733162
               8.08872243                1.16776450               42.93288958                0.50243390                0.51695834                0.14569037               -0.86595498               -0.16184870                1.92628282                0.24558335
               9.09310861                0.87993173               42.82074472                0.41924561                0.38066949                0.28340346               -1.06478647               -0.08142290                2.48825279               -0.53064251
              10.09633582                0.59652622               42.71754264                0.48471548                0.28248014                0.28864660               -0.95165825               -0.10592873                2.64196696                0.32205724
              11.09875821                0.31865226               42.60839131                1.00000000                0.27243731                0.25462945               -0.88019573               -0.07097857                1.31108939                0.87763188
              12.10178456                0.04302789               42.47906971                1.00000000                0.34154773                0.32747046               -1.12793821                0.00384802                0.19382325                0.22003734
              13.10558916               -0.23215513               42.34782887                1.00000000                0.38046015                0.41776930               -1.39088687                0.00588790                0.08883543               -0.84506434
               3.35392559                3.56764884               43.50288041                1.00000000               -0.27900331               -0.41472591                1.19452304               -0.00987058                0.00893846                1.86173643
               4.35113556                3.29390028               43.36366069                1.00000000               -0.22119911               -0.24012953                0.77997209                0.00870263                0.15664665                0.28424802
               5.34950161                3.01937830               43.22758796                0.77227846               -0.10111958               -0.07345114                0.34657174               -0.04406899                0.45282901               -1.05067455
               6.34911317                2.74389308               43.09414664                0.00010000                0.93742336                0.03933628               -0.10542285               -0.69897769                3.83819118               -1.82438224
               7.36825007                2.45566682               43.02537216                0.00010000                1.25521655               -0.11922005               -0.75622347               -1.51163551                5.40761287               -0.96365712
               8.37421750                2.16966686               42.91814294                0.00010000                0.44243023                0.14490249               -1.08630350               -1.38589763                3.30754521               -0.04810814
               9.37709868                1.88386032               42.80504243                0.00010000                0.05804377                0.30528104               -1.30842811               -1.22585972                4.84725289                0.57195219
              10.37537837                1.60041561               42.72764894                0.00010000               -0.14840539                0.27818703               -1.10605474               -0.80960211                5.61683890                0.78105169
              11.37413057                1.32127569               42.63245547                0.36082437                0.06919005                0.18344308               -0.82052464               -0.32918631                2.93825706                1.69287976
              12.37676217                1.04623810               42.50472134                1.00000000                0.31271686                0.30281306               -1.09767023               -0.04404092                0.85091891                0.76499011
              13.38038491                0.77197614               42.36840771                1.00000000                0.36227364                0.40680908               -1.33773165               -0.00159147                0.39760244               -0.80956438
               3.62668123                4.56359669               43.45234049                1.00000000               -0.22335018               -0.38994531                1.02365425               -0.01958267                0.12492585                1.67993077
               4.62444773                4.29175016               43.30555848                1.00000000               -0.17696294               -0.18194405                0.61228885               -0.00360708                0.24224070                0.06853598
               5.62314197                4.01916253               43.16126903                0.35983976               -0.04898994                0.01194062                0.21694473               -0.11306598                1.13266698               -1.55629154
               6.62346793                3.74444977               43.03215770                0.00010000                0.18104887                0.12166567               -0.22546681               -0.92386305                5.03743175               -2.38384009
               7.62676295                3.45484260               42.96555986                0.00010000                0.46715199                0.08107780               -0.68610578               -2.35356091                8.01382733               -1.89825769
               8.63281097                3.17066255               42.89337897                0.00010000                0.55398537                0.08422613               -1.04818981               -2.30261597                7.62421704               -0.04466583
               9.63784266                2.88603736               42.81676747                0.00010000                0.49587137                0.11123731               -1.25864556               -2.21254944                7.43044812                1.75297903
              10.64272840                2.60208996               42.73986955                0.00010000                0.42546679                0.04809404               -1.29453877               -1.60372714                7.70843467                1.53753340
              11.64635200                2.32232112               42.66947749                0.07788047                0.37374507               -0.07868358               -0.82426716               -0.65927482                4.83349329                1.55378418
              12.65020330                2.04908416               42.53847143                0.48160139                0.38646308                0.10228311               -1.11997350               -0.11885958                1.02250589                1.87995576
              13.65408126                1.77598105               42.39222552                0.91412738                0.38779554                0.30338909               -1.31792261               -0.02120396                0.22346102                0.05769946
               3.89722700                5.55984994               43.39867694                1.00000000               -0.17294230               -0.35099892                0.84141795               -0.03875347                0.24149900                1.33202409
               4.89549758                5.29026140               43.24452475                0.72372790               -0.13431609               -0.10105565                0.43793485               -0.04161726                0.38703068               -0.36841127
               5.89454068                5.01961711               43.09337378                0.15762322               -0.02708688                0.11396245                0.04789406               -0.19210052                1.48186772               -1.88201933
               6.89495584                4.74632639               42.96095227                0.00010000                0.02127027                0.17567855               -0.35464663               -1.15624865                7.21373407               -1.95041405
               7.89496608                4.45728838               42.92406071                0.00010000                0.10072892                0.26072638               -0.68741591               -2.00879206               11.53986079               -0.33835704
               8.89697042                4.17135138               42.87540948                0.00010000                0.32270940                0.13184845               -1.05382972               -2.08469857               10.71351053                0.71290213
               9.90142027                3.88608507               42.81998123                0.00010000                0.50248247                0.02154903               -1.33419335               -2.11447054               10.24228459                1.66054752
              10.90702007                3.60137749               42.76040763                0.00010000                0.62653060               -0.09741796               -1.49249876               -1.88014742                9.60336623                2.24947910
              11.91395088                3.31970202               42.69176252                0.06215892                0.68524890               -0.26687655               -1.73534592               -0.93844366                7.23269903                1.93451628
              12.92072505                3.04828376               42.58693886                0.37191577                0.61080754               -0.19931788               -1.10476015               -0.14062063                2.68653689                2.99802190
              13.92616703                2.77804392               42.43078746                0.83111089                0.54419896                0.09805392               -1.27135516                0.02271127                0.11677176                1.05617782
               4.16508323                6.55657672               43.34147030                1.00000000               -0.12350158               -0.29163931                0.65072792               -0.03983641                0.10275397                1.00645310
               5.16384821                6.28972905               43.17760224                0.55040425               -0.09241280               -0.01578019                0.23755929               -0.06126961                0.41910751               -0.74333507
               6.16323497                6.02144178               43.02011532                0.07944170               -0.05882604                0.24827483               -0.14461556               -0.35358599                2.95230283               -2.37506763
               7.16267169                5.74796334               42.90675964                0.00010000               -0.08364249                0.05004764               -0.18923281               -1.44837291               10.22796115                0.71977144
               8.16156212                5.46005712               42.89364432                0.00010000               -0.01756916                0.28694460               -0.71058077               -2.15198735               14.53389910                0.64939377
               9.16232031                5.17329951               42.86345331                0.00010000                0.19825070                0.23236210               -1.11516222               -2.17644781               13.50456667                1.33362306
              10.16552714                4.88646834               42.82723577                0.00010000                0.45940930                0.08551127               -1.46644565               -2.25006441               12.99058246                2.16780226
              11.17150850                4.60014160               42.78470785                0.00010000                0.75748574               -0.10203131               -1.80534126               -2.06621354               12.21188339                2.93673382
              12.18067685                4.31698359               42.73195544                0.06635909                0.87702484               -0.33763071               -2.13490777               -1.16122232                9.86413761                3.68776036
              13.18904899                4.04509780               42.64438403                0.35113723                0.71691561               -0.23776247               -1.14924551               -0.23410391                3.99068802                3.19270871
              14.19501517                3.77794213               42.47726430                0.82403003                0.59661723                0.04997136               -1.34600093                0.01529365                0.02813472                1.01303060
               4.43012560                7.55401715               43.28151945                1.00000000               -0.07184855               -0.21662708                0.45641536               -0.03365297                0.03265415                0.81069687
               5.42940712                7.28994580               43.10883712                0.46657489               -0.04454701                0.04586471                0.04913320               -0.04516090                0.31186675               -0.84045220
               6.42923466                7.02458261               42.94174428                0.04367484               -0.10170407                0.34292978               -0.34730420               -0.64962396                6.32540933               -2.69311321
               7.42737304                6.74732735               42.88917832                0.00010000               -0.13222494                0.07619613               -0.22226257               -1.61939137               13.86688157                1.56377670
               8.42659017                6.46302727               42.87058800                0.00010000               -0.01713941                0.32034459               -0.79400015               -2.07393520               15.95575859                1.14158940
               9.42703025                6.17599862               42.85637170                0.00010000                0.14933636                0.31531064               -1.22088607               -2.27810524               16.17975632                1.71066967
              10.42957689                5.88779529               42.83921157                0.00010000                0.40751485                0.19242353               -1.63043995               -2.40933980               15.93078164                2.60550247
              11.43518055                5.59933686               42.81741410                0.00010000                0.80966758               -0.01369157               -2.09761706               -2.39166949               15.30861242                3.78297676
              12.44577024                5.31294941               42.78598631                0.07795596                0.99519377               -0.38848861               -2.67520391               -1.37670540               11.97610551                5.25649895
              13.45508442                5.04352851               42.69787348                0.34725486                0.75069981               -0.03865576               -1.29282640               -0.22493933                4.53380659                2.69838372
              14.46078424                4.77904335               42.51928853                0.82503880                0.56998189                0.22173083               -1.56223632                0.00941471                0.03510655                0.31100375
               4.69255287                8.55224417               43.22055352                1.00000000               -0.01733305               -0.13875403                0.26545897               -0.03068477                0.00694393                0.74466243
               5.69237954                8.29064634               43.03970123                0.44406988                0.01540382                0.09025699               -0.13614075               -0.01311340                0.13274456               -0.83424985
               6.69286095                8.02830038               42.86131879                0.02688410               -0.02701685                0.36240507               -0.53974274               -0.80281907                8.69892776               -2.73425465
               7.69183920                7.74948727               42.85157932                0.00010000               -0.07244015                0.32842246               -0.60028340               -1.66286549               17.68890962                0.07276999
               8.69141215                7.46646402               42.84921184                0.00010000                0.00754884                0.39899841               -0.96268874               -1.95480507               18.46377997                1.01241782
               9.69199018                7.17960573               42.85102281                0.00010000                0.12949774                0.41486792               -1.36375442               -2.20883907               18.93773522                1.73456880
              10.69400210                6.89031681               42.85436596                0.00010000                0.32654046                0.32883888               -1.78920371               -2.44078803               19.17108181                2.74561078
              11.69852099                6.59986777               42.85764684                0.00010000                0.74744997                0.14115198               -2.34311594               -2.63959161               19.03352158                4.31461841
              12.70895110                6.30921381               42.85560373                0.09754757                0.99676394               -0.24336557               -3.31543638               -1.50633557               13.47572212                6.95973003
              13.71845627                6.04432468               42.74560974                0.34903310                0.76113452                0.18178341               -1.47679798               -0.13472482                4.05905438                2.18273141
              14.72417379                5.78237675               42.55458966                0.82520590                0.57175206                0.43275178               -1.83960038                0.02116471                0.04948949               -0.35979973
               4.95270757                9.55124207               43.15939388                0.98758363                0.03810778               -0.06187379                0.07327040               -0.02942659                0.00303845                0.74864545
               5.95308865                9.29175094               42.97078406                0.47355563                0.08148951                0.12975202               -0.31850648                0.00439136               -0.03642773               -0.78873222
               6.95433736                9.03183071               42.78128564                0.01573709                0.14317200                0.33208957               -0.72258381               -0.84485323               10.50956176               -2.42463280
               7.95595209                8.75389580               42.80329054                0.00010000                0.15191211                0.44038546               -0.87767101               -1.61662419               21.21820643               -0.49254524
               8.95737560                8.47100724               42.82308971                0.00010000                0.15242945                0.44723991               -1.17485865               -1.70883474               21.41465248                0.59670659
               9.95900068                8.18429598               42.84389486                0.00010000                0.15617413                0.51586054               -1.53133465               -1.88482535               21.89978968                1.39997041
              10.96049909                7.89437207               42.86849002                0.00010000                0.22455149                0.53258662               -1.93923905               -2.18887643               22.66290377                2.39270864
              11.96349171                7.60215990               42.90039378                0.00010000                0.53437692                0.34403635               -2.43619110               -2.67432733               23.71680181                4.03334283
              12.97118662                7.30808210               42.94297048                0.12994586                0.78676422                0.09049703               -3.43901387               -1.64886559               14.64096874                7.60895681
              13.97922699                7.04716418               42.78823945                0.35525131                0.69583902                0.36333050               -1.64864878               -0.06890807                2.46363455                1.76782884
              14.98510340                6.78769838               42.58422788                0.82244795                0.58764127                0.59586713               -2.10592687                0.02669425                0.05721843               -0.87232379
               5.21094660               10.55100670               43.09858000                0.96988319                0.09321312                0.01315155               -0.11659005               -0.02907001               -0.01287628                0.67301687
               6.21187873               10.29324138               42.90227292                0.52220666                0.14362135                0.16930579               -0.50447190                0.00079815                0.01322932               -0.64058047
               7.21381903               10.03494217               42.70633457                0.00010000                0.42257301                0.31152828               -0.89415080               -0.87576785               12.23286195               -1.52589100
               8.22033019                9.75829497               42.75405333                0.00010000                0.65081192                0.24090651               -1.10059827               -1.19995392               24.31172106               -0.36407136
               9.22683527                9.47540881               42.79348150                0.00010000                0.52993242                0.39274565               -1.37879165               -1.10884826               24.19030164                0.26315545
              10.23092884                9.18992294               42.83189051                0.00010000                0.27626910                0.57774452               -1.71484230               -1.12693655               24.73042855                0.77963755
              11.23236065                8.90096854               42.87596806                0.00010000                0.01977882                0.75230010               -2.08953540               -1.46266597               25.97745418                1.42941584
              12.23132442                8.60674850               42.93374056                0.00010000               -0.06955673                0.83337169               -2.46096898               -2.11027287               28.64875033                2.60602361
              13.23096951                8.31102375               43.02552347                0.18622738                0.30687033                0.50924195               -2.44809136               -1.77997073               16.18773630                4.58980103
              14.23746182                8.05159129               42.82675240                0.36843829                0.63348786                0.48666980               -1.77000362               -0.10881264                0.88012583                1.25102380
              15.24363927                7.79429409               42.60899761                0.80937277                0.61774470                0.69197209               -2.32525909                0.01718077                0.00012815               -1.00629556
               5.46765680               11.55150510               43.03593839                0.99546415                0.15123419                0.04984027               -0.30489707                0.03421541                0.36330995                0.58368158
               6.46916914               11.29513706               42.83600799                0.80971917                0.20558065                0.18956719               -0.68943969                0.05684961                0.75540608               -0.51194069
               7.47176841               11.03806127               42.64371338                0.48533829                1.11586110                0.31191044               -1.07404554               -1.02621789               14.03276838               -0.88291958
               8.49148636               10.75871393               42.70892308                0.36941494                1.59011311                0.04189516               -1.29904703               -0.84433899               26.78982864               -0.28425027
               9.50357068               10.47886215               42.76185893                0.35935616                0.97079290                0.34533342               -1.57500619               -0.46961180               26.47531276                0.06993673
              10.51090222               10.19585087               42.81314840                0.36971114                0.54247642                0.59279335               -1.90668268               -0.47486568               27.04126994                0.36931254
              11.51442020                9.90941807               42.87082921                0.39978791                0.01644065                0.84495324               -2.27163322               -0.64522104               28.55846791                0.75777065
              12.51123103                9.61882734               42.94610536                0.50967282               -1.18378931                1.20788379               -2.53040347               -1.56689497               31.35626848                1.52510485
              13.49074442                9.31826694               43.05149665                0.62294122               -0.87253158                0.72431811               -2.28914158               -2.11899772               18.57934679                1.97613700
              14.49378040                9.05689757               42.85794035                0.70156960                0.46485036                0.53062824               -1.83949327               -0.20459762                2.16826506                0.94225128
              15.50004142                8.80153782               42.63483023                0.90245509                0.62610213                0.72437327               -2.45806298                0.10424024                0.76162953               -0.87214544
               2.92675513                1.64697735               44.62781529                1.00000000               -0.42363860               -0.47843224                1.64488067               -0.09178796               -1.18633002                1.11422857
               3.92251874                1.36106377               44.49048910                1.00000000               -0.35795701               -0.32448937                1.16925944               -0.05178183               -1.61436476                0.18936714
               4.91959599                1.07457493               44.34513868                1.00000000               -0.23149831               -0.17806289                0.66874094               -0.05902865               -1.68107318               -0.21126530
               5.91788878                0.78661616               44.20689237                0.67211224               -0.15325311               -0.01364921                0.16608882               -0.46002746               -1.26611526               -0.97247045
               6.91653093                0.48880303               44.07031220                0.72669116                0.19082419               -0.02100880               -0.45262295               -0.12736648               -0.90563187                0.21282286
               7.92170526                0.18513645               43.94194142                0.75379395                0.66977645                0.15820013               -0.92298633               -0.15524988               -0.30768898                0.02358949
               8.92992646               -0.11575727               43.81791325                0.70797703                0.93498556                0.23584909               -1.20534090               -0.03408582                0.39195474               -0.27902324
               9.94040497               -0.41024436               43.70229995                0.77710311                0.86930613                0.22048500               -1.11587531               -0.08687626                0.56047667               -0.02532048
              10.94731258               -0.69757215               43.57813570                1.00000000                0.54382920                0.24529788               -0.98815705               -0.08614149               -0.19734110                0.72999431
              11.95128156               -0.98233491               43.44475245                1.00000000                0.40434987                0.33433975               -1.18566547               -0.03672904               -0.68063648                0.07627632
              12.95539958               -1.26646375               43.31064263                1.00000000                0.41180196                0.42482023               -1.45583780               -0.04656339               -0.70637287               -0.68880483
               3.21175083                2.64219303               44.56733334                1.00000000               -0.35486950               -0.46476868                1.45091667               -0.01255976               -0.26620185                1.49672381
               4.20820214                2.35781888               44.43003227                1.00000000               -0.27606616               -0.29921111                0.97747506                0.02184375               -0.42157865                0.27576086
               5.20622951                2.07279430               44.29000479                1.00000000               -0.10138433               -0.14766262                0.48358739               -0.00688420               -0.36062307               -0.40342046
               6.20617445                1.78647967               44.15391383                0.35388651                0.48838037                0.02320747                0.00619260               -0.57283523                1.01064568               -1.34090564
               7.21599712                1.48859294               44.04087325                0.45953423                0.81292315               -0.08607970               -0.62083768               -0.20654769                1.98912056                0.54813781
               8.22243291                1.18671845               43.92324345                0.51209972                0.56394417                0.21344990               -1.07682787               -0.22064086                1.96165182                0.16049370
               9.22727600                0.88660122               43.80898387                0.41703433                0.40053679                0.37783588               -1.32180522               -0.10066164                2.80363544               -0.68532968
              10.23044365                0.59196049               43.70740165                0.46130159                0.26102189                0.36575334               -1.11400417               -0.13327965                3.11249668                0.17222663
              11.23249644                0.30488083               43.59970857                1.00000000                0.24582079                0.24662944               -0.84472954               -0.10432060                1.54112220                0.89389855
              12.23536007                0.02100849               43.46791630                1.00000000                0.32831749                0.32035344               -1.09799485                0.00386076                0.21058750                0.22792540
              13.23906279               -0.26221555               43.33404038                1.00000000                0.37027221                0.41220573               -1.36847673               -0.00175774                0.09526890               -0.78535491
               3.49525224                3.63768198               44.51514504                1.00000000               -0.28978925               -0.43912840                1.26555898               -0.01033950                0.00003152                1.87544259
               4.49235435                3.35507955               44.37152625                1.00000000               -0.22273625               -0.24573167                0.79507300                0.00858054                0.13594767                0.29707149
               5.49079752                3.07162168               44.23086682                0.78568290               -0.08604607               -0.06029037                0.30633032               -0.05125862                0.41597796               -1.02217114
               6.49063343                2.78708031               44.09268495                0.00010000                1.06818360                0.07829403               -0.19421512               -0.84791461                3.68532545               -1.81698259
               7.51216119                2.48708144               44.01691286                0.00010000                1.43253700               -0.06219671               -0.94537923               -1.76816128                5.26710170               -0.91484488
               8.51928417                2.18940545               43.90597592                0.00010000                0.52549950                0.27970090               -1.37033963               -1.61806595                3.39077050               -0.01913824
               9.52267118                1.89179944               43.79038707                0.00010000                0.00878015                0.50674337               -1.67383399               -1.44927987                5.24950305                0.54946806
              10.51945977                1.59707071               43.71551779                0.00010000               -0.32465058                0.47985642               -1.41822346               -0.99745311                6.32097235                0.63030828
              11.51617817                1.30736044               43.62467241                0.34056745               -0.05023120                0.14905256               -0.72008268               -0.45653513                3.25418187                1.65181921
              12.51845515                1.02407216               43.49411834                1.00000000                0.28171677                0.28141536               -1.01518201               -0.04730902                0.82080660                0.74051021
              13.52181250                0.74178036               43.35541379                1.00000000                0.33573557                0.38383241               -1.25914056               -0.00878713                0.38469457               -0.75300269
               3.77674891                4.63341046               44.46282524                1.00000000               -0.23148530               -0.40872500                1.07851524               -0.02166595                0.12245766                1.68359420
               4.77443405                4.35290424               44.31168654                1.00000000               -0.17726631               -0.18101094                0.61378029               -0.00626089                0.24503566                0.07795605
               5.77320358                4.07158849               44.16317998                0.35397587               -0.03388276                0.03267671                0.16047875               -0.12359591                1.12068945               -1.52638051
               6.77375640                3.78804555               44.02938745                0.00010000                0.25525864                0.16605299               -0.33749872               -1.05302626                4.99860227               -2.33844285
               7.77830875                3.48734901               43.95793415                0.00010000                0.57985949                0.18650814               -0.85140866               -2.63362822                8.00993593               -1.66654662
               8.78535359                3.19231247               43.88194072                0.00010000                0.61581935                0.25041664               -1.25736830               -2.58754305                7.73282465                0.16617085
               9.79062514                2.89673609               43.80322882                0.00010000                0.47900048                0.32848239               -1.47649047               -2.51086149                7.69187032                1.93356120
              10.79493360                2.60155762               43.72638384                0.00010000                0.28695715                0.25316481               -1.42638766               -1.97489958                8.30924744                1.50230415
              11.79636428                2.30786188               43.66179069                0.06410725                0.25301812                0.03078640               -0.70535193               -0.83883097                5.17221738                1.00621805
              12.79999396                2.02663680               43.52786148                0.44463468                0.35531817                0.05595257               -0.99231278               -0.09980412                0.96086442                1.83570626
              13.80347065                1.74546110               43.37968360                0.88573092                0.34766864                0.21366776               -1.18362291                0.00533817                0.20554832                0.10273430
               4.05583136                5.62950748               44.40727605                1.00000000               -0.17802593               -0.36455771                0.88209282               -0.04208432                0.24673521                1.32470027
               5.05405110                5.35145933               44.24885596                0.70933519               -0.13235325               -0.09259300                0.42763206               -0.04650190                0.39782417               -0.37378158
               6.05318430                5.07227521               44.09357061                0.15139659               -0.01193584                0.14217031               -0.01302901               -0.20273664                1.49282984               -1.87763035
               7.05381239                4.79040137               43.95685212                0.00010000                0.10187032                0.19216698               -0.47667762               -1.23683050                7.26935189               -1.74367401
               8.05522171                4.49081160               43.91655162                0.00010000                0.21669222                0.35053524               -0.82521463               -2.17890130               11.61987192               -0.12938419
               9.05814623                4.19441378               43.86415946                0.00010000                0.39935459                0.24748857               -1.20877979               -2.25446102               10.81307543                0.91028556
              10.06320880                3.89836909               43.80603133                0.00010000                0.53448790                0.14325615               -1.46603405               -2.30119977               10.44174961                1.78160806
              11.06883599                3.60213400               43.74529698                0.00010000                0.55567877                0.01716387               -1.53227181               -2.10935511                9.81318425                2.16311409
              12.07432237                3.30797616               43.67494818                0.05111538                0.50119278               -0.03151929               -1.60938690               -1.11893791                7.74817079                1.31289249
              13.07885985                3.02519121               43.57659162                0.34391267                0.49741481               -0.25063749               -0.95932709               -0.23445666                3.08246993                2.93479606
              14.08427067                2.74605372               43.41879779                0.81055145                0.54108228               -0.09083850               -1.12882370                0.07946645                0.10791567                0.99366892
               4.33200352                6.62611931               44.34810974                1.00000000               -0.12672349               -0.30122417                0.68002755               -0.04108422                0.09584513                0.99363549
               5.33073629                6.35105238               44.17988946                0.53515117               -0.08983547               -0.00241199                0.21829499               -0.06595623                0.42678512               -0.75297333
               6.33020681                6.07443190               44.01836354                0.07208576               -0.01264435                0.28591279               -0.21251918               -0.40063604                3.15306683               -2.38196714
               7.33048340                5.79188889               43.90449027                0.00010000                0.02557521                0.05785282               -0.26850541               -1.50471763               10.37435040                0.98101198
               8.33071832                5.49435971               43.88600160                0.00010000                0.11117383                0.34855946               -0.82819690               -2.25389701               14.51069547                0.82943131
               9.33270688                5.19726224               43.85172302                0.00010000                0.30813014                0.30348912               -1.23837713               -2.30499049               13.58220987                1.50002213
              10.33688092                4.89960121               43.81211281                0.00010000                0.52162747                0.15298492               -1.55974488               -2.39481371               13.10919656                2.25841405
              11.34313943                4.60190090               43.76657441                0.00010000                0.70236994               -0.01862255               -1.81275052               -2.20609740               12.33721158                2.82074932
              12.35092832                4.30723149               43.71140706                0.05599149                0.70439245               -0.17409193               -1.96374949               -1.37507098               10.53282804                3.31627827
              13.35722727                4.02162405               43.63336206                0.32893460                0.62033258               -0.25055529               -1.05944885               -0.36845820                4.56820381                3.07697716
              14.36333497                3.74364433               43.46415905                0.80807009                0.61076946               -0.13607756               -1.29629594                0.04039023                0.02309585                0.75987081
               4.60514353                7.62348300               44.28617252                1.00000000               -0.07241394               -0.22322713                0.47686450               -0.03408394                0.02903905                0.79884407
               5.60441939                7.35141109               44.10920992                0.45289459               -0.04042266                0.06008434                0.02355028               -0.04559220                0.31305193               -0.84123959
               6.60433508                7.07799347               43.93794467                0.03644886               -0.03145856                0.38555004               -0.41921753               -0.70741640                6.59539033               -2.69714069
               7.60379022                6.79155842               43.88642392                0.00010000                0.02176676                0.11633667               -0.34445232               -1.68738929               14.09621579                1.56426427
               8.60477041                6.49778279               43.86210450                0.00010000                0.15073540                0.35522402               -0.90786529               -2.15883940               15.92922495                1.25581678
               9.60680493                6.20048356               43.84363397                0.00010000                0.29517253                0.35380932               -1.33059733               -2.39350557               16.25261571                1.84106082
              10.61067386                5.90142879               43.82243580                0.00010000                0.51394160                0.23250908               -1.71980714               -2.53530144               16.00134541                2.68775866
              11.61708376                5.60176155               43.79621871                0.00010000                0.82119700                0.03408363               -2.11952328               -2.46394569               15.31232589                3.71166484
              12.62709780                5.30449432               43.75989800                0.06679060                0.89970427               -0.29229147               -2.50652180               -1.52822135               12.78457659                4.75969195
              13.63507785                5.02018011               43.68499690                0.32905103                0.69700555               -0.01095813               -1.29317351               -0.35243851                5.34823012                2.55537133
              14.64103791                4.74333216               43.50343659                0.81221802                0.59600686                0.13021818               -1.64066376                0.02385496                0.04249951               -0.03412686
               4.87546566                8.62165477               44.22325815                0.99975542               -0.01516827               -0.14342440                0.27675565               -0.03170054                0.00560239                0.73379862
               5.87531397                8.35225407               44.03818933                0.43233321                0.02227477                0.10477660               -0.16723839               -0.00952118                0.13036237               -0.83121904
               6.87591115                8.08214290               43.85557512                0.02005812                0.08161585                0.40242921               -0.61496077               -0.86090076                8.86798344               -2.72765627
               7.87694629                7.79421562               43.84499634                0.00010000                0.13526193                0.36136503               -0.72363493               -1.75445164               17.92691656               -0.02816289
               8.87861639                7.50146419               43.83906662                0.00010000                0.21222362                0.40736098               -1.07154635               -2.05616449               18.57371761                1.06602781
               9.88119076                7.20433842               43.83684952                0.00010000                0.31402533                0.42330476               -1.47094838               -2.31413031               19.03996357                1.82728607
              10.88489690                6.90425139               43.83589118                0.00010000                0.48021076                0.35559623               -1.89699610               -2.55085513               19.21783451                2.82452169
              11.89079498                6.60258257               43.83350565                0.00010000                0.85242201                0.18196249               -2.45128760               -2.69850466               18.83345716                4.33057461
              12.90194534                6.30138566               43.82194277                0.08397604                1.02728428               -0.20568197               -3.29760447               -1.61330334               14.42066869                6.58848032
              13.91134066                6.02140488               43.73049189                0.33326797                0.77813075                0.23107359               -1.55795925               -0.23520156                5.19586010                2.06311998
              14.91750795                5.74624869               43.53544424                0.81424184                0.61672884                0.42381880               -2.02196352                0.03309669                0.06418736               -0.68995665
               5.14331091                9.62061451               44.16013839                0.98261148                0.04299231               -0.06476559                0.07776309               -0.03147312                0.00558750                0.73743110
               6.14374084                9.35350662               43.96741187                0.46366458                0.09223012                0.14529168               -0.35806258                0.00877284               -0.03911449               -0.78521607
               7.14515551                9.08604205               43.77369189                0.00952864                0.28195286                0.36529683               -0.80228636               -0.92166958               10.63188371               -2.40671037
               8.14937989                8.79878572               43.79401577                0.00010000                0.41844013                0.43152486               -0.98133713               -1.75313041               21.44203689               -0.51556783
               9.15352432                8.50593001               43.81084008                0.00010000                0.41776169                0.41081226               -1.27721509               -1.81697445               21.58177867                0.62227228
              10.15773513                8.20894966               43.82802152                0.00010000                0.39441487                0.48857413               -1.64049227               -1.95934722               22.04119112                1.45635160
              11.16141261                7.90854072               43.84835583                0.00010000                0.41221347                0.54155856               -2.07626968               -2.23987828               22.74583017                2.45558025
              12.16597940                7.60540080               43.87478781                0.00010000                0.72984036                0.42089744               -2.65971265               -2.67716298               23.42965616                4.13346477
              13.17600942                7.30038068               43.90514584                0.11205431                0.97656947                0.12332340               -3.97886191               -1.68865869               15.61714485                8.10869440
              14.18551079                7.02480158               43.77108456                0.34055850                0.80014074                0.42137170               -1.79189690               -0.13223295                3.75966027                1.70592495
              15.19201224                6.75180854               43.56203948                0.81223603                0.65014515                0.64013555               -2.36002823                0.03520281                0.07689730               -1.13529463
               5.40905197               10.62035946               44.09738259                0.96474151                0.10099220                0.01306341               -0.12148067               -0.03052820               -0.01347594                0.66327441
               6.41006189               10.35515990               43.89700061                0.51382474                0.15733458                0.18601169               -0.55234723                0.00333933                0.01297418               -0.63791849
               7.41219866               10.08944884               43.69698895                0.00010000                0.59669172                0.34047122               -0.98090620               -0.99671935               12.33364487               -1.50437851
               8.42199572                9.80284612               43.74259660                0.00010000                0.99571550                0.15754432               -1.19422046               -1.33620298               24.51863426               -0.36354066
               9.43211297                9.50968044               43.77920243                0.00010000                0.86986939                0.31055133               -1.47743931               -1.18850411               24.37609448                0.27774377
              10.43939311                9.21410991               43.81415251                0.00010000                0.57676075                0.51495188               -1.82749068               -1.15683181               24.89372215                0.80429961
              11.44364818                8.91508256               43.85420155                0.00010000                0.30093186                0.72912470               -2.25350581               -1.43324794               26.10986899                1.46106460
              12.44541175                8.61100052               43.90739255                0.00010000                0.25616021                0.87263692               -2.79388226               -2.01817827               28.87643282                2.73656604
              13.44877139                8.30385213               43.99708702                0.16206262                0.59282000                0.66020306               -3.34600617               -1.67243538               17.13468163                5.41381157
              14.45726815                8.02983232               43.80815888                0.35464986                0.77133479                0.54697923               -1.95647963               -0.16743827                1.67990947                1.26065840
              15.46419808                7.75905140               43.58438015                0.79917606                0.69299349                0.76922121               -2.62542015                0.02159424                0.01674256               -1.17058500
               5.67309945               11.62087578               44.03281509                0.99281958                0.16187914                0.05163219               -0.31881309                0.03985616                0.35604605                0.57410653
               6.67471824               11.35722686               43.82884137                0.80616420                0.22177332                0.20669516               -0.74669287                0.06442009                0.75000437               -0.50739943
               7.67753492               11.09285147               43.63252726                0.48260933                1.38529941                0.34026386               -1.16960852               -1.23088654               14.11924558               -0.86221467
               8.70242423               10.80193661               43.69547355                0.36938347                2.04777639               -0.09095058               -1.39566820               -0.99267137               26.98830263               -0.29200715
               9.71849044               10.51214104               43.74559356                0.35948084                1.33860695                0.24605959               -1.67919216               -0.49664829               26.66295980                0.06883471
              10.72919637               10.21924869               43.79346532                0.36947244                0.86832998                0.51387867               -2.02508460               -0.47056559               27.20936210                0.37205599
              11.73585704                9.92312321               43.84719984                0.39879138                0.38249469                0.80406484               -2.44411794               -0.59887157               28.73442606                0.76660604
              12.73684626                9.62285354               43.91894687                0.49599154               -0.60640647                1.18530229               -2.91124838               -1.33347180               31.78350213                1.65524344
              13.72372891                9.31358475               44.02536256                0.60884871               -0.49417574                0.97326172               -3.05971535               -1.85986627               19.63612003                2.49335268
              14.72696275                9.03574116               43.83857070                0.69498604                0.51385209                0.59088445               -2.04315329               -0.35012921                2.86696638                0.98920008
              15.73400596                8.76719296               43.60879818                0.89717677                0.70432088                0.81415636               -2.77501299                0.12596741                0.80160084               -0.97017602
               3.05444844                1.71963056               45.64481579                1.00000000               -0.45314451               -0.51346310                1.76466694               -0.10242278               -1.20861015                1.12297620
               4.04991700                1.42439516               45.50241868                1.00000000               -0.38455819               -0.33643431                1.22048019               -0.05698605               -1.65249541                0.19329859
               5.04675728                1.12852463               45.35177808                1.00000000               -0.25754497               -0.16896308                0.65906400               -0.06830671               -1.73704123               -0.20976622
               6.04476610                0.83069932               45.20820477                0.68011046               -0.24573000                0.03530320                0.09375605               -0.54024974               -1.38038679               -0.96153886
               7.04184268                0.52109092               45.06533003                0.73679864                0.08191370                0.04981727               -0.53066298               -0.16597219               -1.04341246                0.19583441
               8.04640437                0.20462078               44.93198579                0.75823676                0.65633720                0.23190848               -1.05091019               -0.18697090               -0.35845107               -0.00444269
               9.05496943               -0.10952945               44.80481264                0.69701254                1.04000862                0.32807703               -1.41511733               -0.02902672                0.56640296               -0.36797247
              10.06720455               -0.41606713               44.69027206                0.74366313                1.03415330                0.28200461               -1.32439233               -0.07601568                0.96713169               -0.13067257
              11.07565249               -0.71236275               44.56814551                1.00000000                0.62768101                0.23562713               -0.99693008               -0.11096694                0.12083631                0.77397701
              12.07975817               -1.00511349               44.43277008                1.00000000                0.41703965                0.33339984               -1.20913389               -0.03877104               -0.60318679                0.08525456
              13.08399328               -1.29695085               44.29588631                1.00000000                0.42351171                0.43174632               -1.50469296               -0.05842642               -0.66481496               -0.64461387
               3.34865962                2.71449593               45.58232515                1.00000000               -0.37595126               -0.49823870                1.55619451               -0.01074292               -0.28137186                1.50328698
               4.34490010                2.42103082               45.43997347                1.00000000               -0.28687403               -0.31038604                1.01380221                0.02774015               -0.45010652                0.28244237
               5.34292214                2.12683500               45.29470685                1.00000000               -0.09098215               -0.13824758                0.45524650               -0.00366413               -0.39324877               -0.39536513
               6.34308046                1.83105235               45.15352600                0.37656701                0.51500470                0.06902439               -0.09028431               -0.66191882                0.90932248               -1.33767094
               7.35322223                1.52158909               45.03391036                0.48191744                0.83821941               -0.03909440               -0.77074097               -0.28270170                1.84499088                0.47368182
               8.35984485                1.20693986               44.91135302                0.52638097                0.59004411                0.29830225               -1.30498878               -0.28417239                1.97938240                0.07640189
               9.36502311                0.89375132               44.79430861                0.41462503                0.40080966                0.50670888               -1.64722646               -0.13047498                3.18452106               -0.87064686
              10.36786104                0.58675292               44.69526256                0.42728717                0.20214443                0.50533573               -1.38343978               -0.17249366                3.80403224               -0.08878928
              11.36906600                0.28999352               44.59149672                1.00000000                0.19017307                0.22963589               -0.77943013               -0.17856197                1.90158594                0.91769366
              12.37166450               -0.00177949               44.45710982                1.00000000                0.30901896                0.31083043               -1.05778441                0.00259287                0.22372248                0.23189260
              13.37524638               -0.29263338               44.32045934                1.00000000                0.35818764                0.41118579               -1.35308215               -0.01065844                0.09759380               -0.72439566
               3.64116381                3.70966579               45.52819159                1.00000000               -0.30310776               -0.46791798                1.35094386               -0.01042650               -0.00936681                1.87966840
               4.63813273                3.41818744               45.37956215                1.00000000               -0.22506712               -0.25256239                0.81391938                0.00937465                0.11504735                0.30726401
               5.63666247                3.12575968               45.23371457                0.79617389               -0.06795478               -0.04519356                0.26039317               -0.05874545                0.38284420               -0.99282307
               6.63677364                2.83207981               45.09026233                0.00010000                1.18193342                0.12306935               -0.29726008               -0.99226487                3.51547614               -1.80132979
               7.66030114                2.52030903               45.00646457                0.00010000                1.58925301                0.01419067               -1.14952220               -2.01534062                5.08259452               -0.82052743
               8.66855870                2.21058682               44.89073615                0.00010000                0.61228683                0.44312804               -1.68505179               -1.86881800                3.43293148                0.07852731
               9.67254687                1.90060473               44.77156575                0.00010000               -0.05231097                0.76565013               -2.12374037               -1.71667041                5.67878353                0.61034617
              10.66751248                1.59403959               44.69928447                0.00010000               -0.59666076                0.78019702               -2.00281531               -1.29421626                7.41255811                0.55832145
              11.66061366                1.29222996               44.61805381                0.31747058               -0.25377754                0.10880960               -0.58247188               -0.68418818                3.82573031                1.58426046
              12.66243693                1.00110312               44.48441770                1.00000000                0.24371243                0.25522446               -0.91620367               -0.05469587                0.77663795                0.70552941
              13.66548791                0.71127287               44.34322490                1.00000000                0.30509794                0.36425609               -1.18102496               -0.01794453                0.36591605               -0.69162665
               3.93140778                4.70513757               45.47391079                1.00000000               -0.24140756               -0.43031709                1.14395062               -0.02389624                0.11861604                1.67954404
               4.92899370                4.41597957               45.31783409                1.00000000               -0.17764587               -0.18022924                0.61626009               -0.00898372                0.24362092                0.08632933
               5.92785486                4.12593113               45.16447860                0.34780867               -0.01539440                0.05606308                0.09423957               -0.13635956                1.10373826               -1.49073193
               6.92868582                3.83351374               45.02540773                0.00010000                0.32767698                0.21351428               -0.46678580               -1.17349974                4.95641583               -2.28693301
               7.93440840                3.52187290               44.94853169                0.00010000                0.67434875                0.31621010               -1.04057645               -2.89781316                8.00670566               -1.36642265
               8.94217279                3.21580242               44.86823161                0.00010000                0.64142703                0.45939802               -1.49922088               -2.88075278                7.86316188                0.49348294
               9.94723694                2.90906432               44.78723766                0.00010000                0.40893452                0.61142529               -1.74863729               -2.84373475                8.04090777                2.29103218
              10.95035148                2.60235686               44.71134179                0.00010000                0.05408793                0.52048098               -1.59958082               -2.50200960                9.13247756                1.70225329
              11.94831870                2.29216971               44.65537046                0.05014944                0.05881001                0.20567674               -0.56832736               -1.10129279                5.66615062                0.41798728
              12.95152768                2.00332500               44.51862517                0.40387568                0.31146471                0.01879911               -0.84209165               -0.07150323                0.89617652                1.75677731
              13.95454799                1.71465174               44.36855306                0.85490573                0.30203133                0.10844861               -1.04234560                0.05392909                0.18279137                0.12689821
               4.21900188                5.70105945               45.41631880                1.00000000               -0.18423859               -0.37923088                0.93002290               -0.04601359                0.24994426                1.31319204
               5.21715950                5.41458286               45.25307740                0.69187537               -0.13003871               -0.08319770                0.41588060               -0.05210474                0.40717598               -0.37793097
               6.21640111                5.12688094               45.09311320                0.14415597                0.01011856                0.17486236               -0.08361746               -0.21960618                1.49689917               -1.86439896
               7.21736187                4.83635009               44.95141872                0.00010000                0.18275387                0.22490225               -0.61815039               -1.32064452                7.33752993               -1.49538864
               8.22005619                4.52663323               44.90755642                0.00010000                0.31951760                0.46099816               -0.98509704               -2.32202166               11.73137383                0.14407592
               9.22375222                4.21977478               44.85123388                0.00010000                0.45307785                0.40115111               -1.39154373               -2.40597449               10.96619019                1.19712932
              10.22911774                3.91283323               44.79066055                0.00010000                0.53073387                0.30839083               -1.61995662               -2.48514179               10.75180196                2.01757697
              11.23436690                3.60444921               44.72976219                0.00010000                0.42509568                0.16390013               -1.57917459               -2.39413676               10.21521418                2.17833872
              12.23761966                3.29634350               44.65957478                0.04051041                0.20789673                0.30948111               -1.46130898               -1.33715195                8.40441412                0.69883649
              13.23852483                3.00147910               44.56775232                0.31473321                0.31466772               -0.25464679               -0.80496751               -0.33841307                3.48847589                2.81185444
              14.24391301                2.71344184               44.40821099                0.78887223                0.53881789               -0.30754936               -1.00405510                0.16302883                0.09858519                0.81482000
               4.50344069                6.69755296               45.35507085                1.00000000               -0.13105739               -0.31069153                0.71539521               -0.04224883                0.08699561                0.98026708
               5.50213011                6.41431562               45.18196814                0.51858839               -0.08725917                0.01191410                0.19579984               -0.06940333                0.43212103               -0.75875921
               6.50169550                6.12942838               45.01586494                0.06401081                0.01952624                0.32736318               -0.29499631               -0.43882367                3.37428956               -2.38054989
               7.50252064                5.83801178               44.90138953                0.00010000                0.14238873                0.08782313               -0.34683956               -1.52799295               10.52887367                1.26789734
               8.50454328                5.53109287               44.87708038                0.00010000                0.26663308                0.42226793               -0.97132738               -2.31389531               14.51119153                1.06044616
               9.50785330                5.22382545               44.83868577                0.00010000                0.41582039                0.39592800               -1.37984369               -2.39308415               13.72992538                1.73498718
              10.51285969                4.91523214               44.79604087                0.00010000                0.55525910                0.24694315               -1.66161225               -2.51446353               13.34956371                2.41672646
              11.51895848                4.60563486               44.74845284                0.00010000                0.58430386                0.10948568               -1.81381859               -2.36374192               12.65996871                2.74839514
              12.52454576                4.29835933               44.69268045                0.04656638                0.43512987                0.06320207               -1.79152440               -1.61694312               11.31001458                2.97657442
              13.52766108                3.99823207               44.62319505                0.30713199                0.46686672               -0.19864996               -0.98533620               -0.49364885                5.13620437                2.88642851
              14.53388310                3.70850075               44.45133838                0.79180662                0.62220188               -0.31831097               -1.30849909                0.06896074                0.02576824                0.33514427
               4.78463158                7.69484562               45.29105674                1.00000000               -0.07355724               -0.22993375                0.50263114               -0.03435361                0.02437091                0.78732817
               5.78389601                7.41482114               45.10930813                0.43856948               -0.03515541                0.07521997               -0.00547938               -0.04388531                0.31305408               -0.83651108
               6.78392847                7.13342821               44.93335993                0.02866365                0.06207574                0.42858274               -0.50486909               -0.74982430                6.86093248               -2.69201590
               7.78513752                6.83810656               44.88228928                0.00010000                0.20180736                0.16601858               -0.49888450               -1.69921053               14.35857868                1.57071711
               8.78796462                6.53507859               44.85243070                0.00010000                0.33068716                0.39780647               -1.03559738               -2.19615832               15.97290703                1.41181877
               9.79175126                6.22769334               44.82975975                0.00010000                0.45272209                0.39692253               -1.45161108               -2.45974521               16.40594538                2.02554462
              10.79701906                5.91777210               44.80481542                0.00010000                0.61068016                0.28275367               -1.80457891               -2.61057265               16.19568851                2.81152832
              11.80396487                5.60663892               44.77502363                0.00010000                0.78322650                0.11376521               -2.11018511               -2.49922444               15.52744737                3.63503107
              12.81268359                5.29760754               44.73585587                0.05699264                0.72727845               -0.13118763               -2.30225117               -1.66501717               13.67240829                4.24472803
              13.81851044                4.99750611               44.67201001                0.31209794                0.60356321                0.06336767               -1.31891633               -0.46604985                6.11543796                2.34247595
              14.82475485                4.70707562               44.48647525                0.79954427                0.62444172                0.07369824               -1.79451424                0.04043903                0.05958555               -0.51354491
               5.06280257                8.69295428               45.22608864                0.99299595               -0.01327523               -0.14896833                0.29269321               -0.03138722                0.00791747                0.72519118
               6.06266982                8.41582002               45.03635647                0.41980481                0.03055167                0.12070982               -0.20221793               -0.00486979                0.12954653               -0.82532405
               7.06341360                8.13800003               44.84901958                0.01273387                0.21081140                0.44272330               -0.70179730               -0.90226032                9.03741721               -2.71405376
               8.06688604                7.84133216               44.83710663                0.00010000                0.38098610                0.39388121               -0.86065622               -1.82219613               18.20214852               -0.08726617
               9.07103332                7.53904900               44.82778092                0.00010000                0.45394223                0.41191388               -1.19403284               -2.12637227               18.76048662                1.16142088
              10.07596489                7.23176390               44.82160384                0.00010000                0.53346674                0.42133358               -1.58225311               -2.38021491               19.22824945                1.96557226
              11.08170266                6.92088721               44.81642604                0.00010000                0.65868302                0.37006040               -1.99062877               -2.61116976               19.37192980                2.93140545
              12.08913855                6.60791016               44.80862109                0.00010000                0.93377874                0.21516906               -2.49222030               -2.69108407               18.84183469                4.29614796
              13.10037823                6.29573558               44.78965165                0.07229047                0.98667257               -0.12479047               -3.10001261               -1.69307815               15.46006260                5.92422998
              14.10887200                5.99949942               44.71445056                0.31912508                0.75873053                0.30547911               -1.66091814               -0.33723743                6.28676778                1.89033190
              15.11555284                5.70997472               44.51415039                0.80362993                0.66808434                0.44904756               -2.26752544                0.04636224                0.08418454               -1.09908486
               5.33827236                9.69186625               45.16094914                0.97751802                0.04804986               -0.06793968                0.08663168               -0.03116727                0.00789050                0.72841095
               6.33875286                9.41723534               44.96362281                0.45261229                0.10493845                0.16167448               -0.40339610                0.01392331               -0.03978616               -0.78058069
               7.34037113                9.14228267               44.76523992                0.00285325                0.44458896                0.40095946               -0.89422147               -0.98844130               10.76950531               -2.38434126
               8.34764464                8.84598418               44.78366380                0.00010000                0.73171519                0.41171161               -1.09435983               -1.86812253               21.71432782               -0.50009699
               9.35500543                8.54331687               44.79754541                0.00010000                0.73320568                0.35806034               -1.38812921               -1.90481219               21.82487348                0.68560552
              10.36230875                8.23612002               44.81108502                0.00010000                0.68219834                0.44006184               -1.74825271               -2.01521443               22.27025765                1.55004845
              11.36864940                7.92517331               44.82696463                0.00010000                0.64930354                0.52293023               -2.19058662               -2.27811907               22.90855545                2.53379187
              12.37529482                7.61094230               44.84719953                0.00010000                0.92916874                0.47052972               -2.82245275               -2.66162591               23.16882779                4.15975419
              13.38723277                7.29511173               44.86339324                0.09628602                1.11158656                0.16738406               -4.14888048               -1.74040154               16.77855455                8.04641861
              14.39752655                7.00361569               44.75240151                0.32777863                0.87493655                0.49094496               -1.95172620               -0.20801394                5.24593015                1.60590243
              15.40473150                6.71605657               44.53702731                0.80254834                0.72049518                0.70744882               -2.66176788                0.04302538                0.09787149               -1.44266877
               5.61144105               10.69159549               45.09615038                0.95900530                0.10908085                0.01279977               -0.12352333               -0.03155842               -0.01335934                0.65369635
               6.61253186               10.41905351               44.89122598                0.50381825                0.17274410                0.20361013               -0.60500741                0.00639664                0.01560964               -0.63378071
               7.61489593               10.14601922               44.68671645                0.00010000                0.79787700                0.37288406               -1.07981662               -1.11685492               12.45844719               -1.48073157
               8.62848940                9.84956639               44.73016892                0.00010000                1.39526561                0.05678556               -1.29803565               -1.46337705               24.78441293               -0.34265652
               9.64280124                9.54621020               44.76393271                0.00010000                1.26573823                0.20698526               -1.58230367               -1.25842905               24.64249241                0.31562528
              10.65380416                9.24056513               44.79534069                0.00010000                0.92583743                0.42731860               -1.93428293               -1.18449741               25.14770288                0.85292480
              11.66131799                8.93134582               44.83089794                0.00010000                0.60817207                0.67901529               -2.39161493               -1.41333032               26.29461174                1.49814180
              12.66596760                8.61732076               44.87786292                0.00010000                0.57894111                0.89406296               -3.06137484               -1.94095113               28.87855428                2.77350231
              13.67289681                8.29908326               44.95860334                0.13979825                0.88996377                0.82355853               -4.29524185               -1.56961121               18.33206316                5.98670181
              14.68376688                8.00931832               44.78762281                0.34316802                0.93173821                0.61211233               -2.15531772               -0.24010037                2.95368089                1.24904808
              15.69153158                7.72412369               44.55648921                0.78979011                0.77646993                0.86208365               -2.96633457                0.02488657                0.02975954               -1.35655307
               5.88272515               11.69212225               45.02956213                0.99002998                0.17319060                0.05267593               -0.33081481                0.04693910                0.34850193                0.56491615
               6.88445705               11.42130754               44.82107413                0.80167409                0.23980011                0.22540311               -0.80995022                0.07342497                0.74682873               -0.50206459
               7.88752115               11.14974035               44.62032121                0.47974800                1.68645310                0.37211315               -1.27869221               -1.44686060               14.23222581               -0.84052051
               8.91818611               10.84711989               44.68100971                0.36935803                2.56584774               -0.24464965               -1.50572025               -1.14451736               27.24791654               -0.29285581
               9.93883810               10.54745657               44.72827509                0.35954911                1.76485361                0.12463699               -1.79160955               -0.51898913               26.93466694                0.07669009
              10.95348319               10.24466639               44.77264671                0.36925673                1.23945315                0.41012536               -2.13934438               -0.46724565               27.48003805                0.38220382
              11.96362717                9.93875361               44.82194685                0.39780229                0.76275843                0.74077928               -2.58962442               -0.56122395               28.95387313                0.76486849
              12.96873836                9.62882356               44.88788039                0.48234318                0.01079112                1.15028004               -3.25466539               -1.08146026               32.03962852                1.67544467
              13.96384299                9.31158290               44.99030235                0.59556522               -0.05271213                1.24996413               -3.99420894               -1.55366374               20.89623683                3.04167800
              14.96768411                9.01585793               44.81707728                0.68973457                0.58877479                0.65396161               -2.26087783               -0.52250941                3.97631393                1.02415636
              15.97561849                8.73329825               44.57932997                0.89243522                0.79343723                0.91745538               -3.13076291                0.15272194                0.84101175               -1.08286802
               3.18737715                1.79441817               46.66310863                1.00000000               -0.48705990               -0.55351887                1.90183654               -0.11483983               -1.22055835                1.12373302
               4.18250655                1.48982017               46.51489870                1.00000000               -0.41540405               -0.34959124                1.27825199               -0.06363063               -1.67449966                0.19488102
               5.17906907                1.18452205               46.35831996                1.00000000               -0.28887323               -0.15715482                0.64873063               -0.07956787               -1.77002996               -0.20863056
               6.17672909                0.87674294               46.20876749                0.68767324               -0.35937033                0.09257514                0.01663391               -0.60531926               -1.42946598               -0.94565784
               7.17188167                0.55555906               46.05969894                0.74674794               -0.08377321                0.13729806               -0.58501571               -0.20266634               -1.08854451                0.17665705
               8.17505362                0.22631312               45.92092321                0.76419009                0.55432900                0.31830046               -1.14058708               -0.22651791               -0.37444037               -0.02028029
               9.18296824               -0.10210867               45.78961090                0.68573081                1.06805588                0.45438391               -1.60828536               -0.04873282                0.74642372               -0.45358915
              10.19641474               -0.42283881               45.67581210                0.69793460                1.21315178                0.40111048               -1.61011840               -0.04217310                1.46585190               -0.29135199
              11.20723128               -0.72879503               45.55819710                1.00000000                0.75311385                0.21214246               -0.97009972               -0.17856148                0.58121875                0.82319684
              12.21147702               -1.02930929               45.42056977                1.00000000                0.43197716                0.33080118               -1.22805390               -0.04586584               -0.52511966                0.09051601
              13.21587082               -1.32850209               45.28054877                1.00000000                0.43938045                0.44600343               -1.57357419               -0.07480159               -0.62871566               -0.60293963
               3.49082676                2.78888298               46.59845723                1.00000000               -0.40084506               -0.53642320                1.67780913               -0.00854136               -0.29295230                1.49969723
               4.48681831                2.48632425               46.45030832                1.00000000               -0.30073740               -0.32279788                1.05547999                0.03466431               -0.47198632                0.28594058
               5.48481201                2.18295050               46.29910972                1.00000000               -0.08304558               -0.12642936                0.42301126                0.00147917               -0.41891726               -0.38661535
               6.48515739                1.87766869               46.15210814                0.40184440                0.51289502                0.12145232               -0.20001720               -0.72773018                0.82479003               -1.32185725
               7.49506991                1.55693204               46.02545843                0.50832501                0.82324567                0.02452514               -0.91343618               -0.33574791                1.70608444                0.40622148
               8.50162231                1.22949613               45.89714367                0.54646747                0.59934883                0.38921434               -1.52722086               -0.33544352                1.96802352                0.01465037
               9.50705688                0.90243517               45.77603934                0.41522759                0.38569435                0.65929930               -2.01916313               -0.17967783                3.59830930               -1.04350615
              10.50933619                0.58117229               45.67973285                0.38302310                0.08120081                0.74983588               -1.83560171               -0.21503245                4.83063703               -0.53816167
              11.50868090                0.27332639               45.58411997                1.00000000                0.07678490                0.19834683               -0.67796334               -0.34226465                2.48922365                0.94277879
              12.51087189               -0.02600127               45.44676061                1.00000000                0.28173579                0.29883382               -1.00499644               -0.00143278                0.23091250                0.23179605
              13.51431562               -0.32404206               45.30697874                1.00000000                0.34437248                0.41781003               -1.35374624               -0.02179923                0.09246275               -0.66477419
               3.79232378                3.78368970               46.54216392                1.00000000               -0.31914608               -0.50044225                1.45009964               -0.01015550               -0.01827687                1.87158103
               4.78913232                3.48336421               46.38780464                1.00000000               -0.22847773               -0.26043327                0.83626979                0.01120598                0.09553250                0.31407091
               5.78775422                3.18199346               46.23607468                0.80249766               -0.04696820               -0.02876387                0.20871764               -0.06497617                0.35518410               -0.96177543
               6.78819295                2.87917198               46.08673975                0.00010000                1.27925229                0.17409083               -0.41560277               -1.11348345                3.33637298               -1.77370385
               7.81333927                2.55604956               45.99392242                0.00010000                1.73243337                0.09983371               -1.35744698               -2.22627476                4.84758624               -0.67488962
               8.82284162                2.23409741               45.87227489                0.00010000                0.71796286                0.60941318               -1.99822513               -2.13418478                3.40703887                0.27228765
               9.82769852                1.91107732               45.74791226                0.00010000               -0.08093727                1.05133789               -2.58890681               -2.03316418                5.98583812                0.81093622
              10.82122287                1.59215790               45.67546148                0.00010000               -1.00694866                1.19763391               -2.98178657               -1.78956259                9.06990652                0.63873393
              11.80755955                1.27517190               45.61302297                0.29265951               -0.62030285                0.06871312               -0.40328024               -1.08837486                4.86129203                1.47512036
              12.80881682                0.97666739               45.47579427                1.00000000                0.19784305                0.22194988               -0.79117564               -0.07274026                0.71462052                0.65973407
              13.81151641                0.67985411               45.33179329                1.00000000                0.26995959                0.35275189               -1.11620130               -0.03357430                0.33543623               -0.62893667
               4.09127464                4.77887413               46.48570425                1.00000000               -0.25359720               -0.45392200                1.21965112               -0.02639061                0.11335729                1.66519500
               5.08873866                4.48111559               46.32401175                1.00000000               -0.17849625               -0.17987747                0.61979912               -0.01154990                0.23826835                0.09299724
               6.08770471                4.18237523               46.16506477                0.34134909                0.00464826                0.08037174                0.02066192               -0.14691716                1.08202172               -1.44703407
               7.08883163                3.88115050               46.02005173                0.00010000                0.39571375                0.26699039               -0.61209306               -1.27598484                4.90786478               -2.21926390
               8.09561899                3.55892871               45.93712262                0.00010000                0.75396109                0.45474336               -1.25459864               -3.13856828                8.00423754               -0.98837513
               9.10391085                3.24168439               45.85195630                0.00010000                0.63570604                0.69023960               -1.76687575               -3.19712487                8.01063336                0.95432498
              10.10833311                2.92346193               45.76825607                0.00010000                0.27697529                0.94200511               -2.07362278               -3.22707091                8.50308359                2.85479009
              11.10945036                2.60512497               45.69439222                0.00010000               -0.29645956                0.82159168               -1.78471748               -3.28790523               10.23082485                2.30091626
              12.10240392                2.27470066               45.65042414                0.03625822               -0.23577359                0.47354945               -0.41056622               -1.49131329                6.37461320               -0.22867497
              13.10473489                1.97843772               45.51101965                0.36036357                0.24333923                0.00955179               -0.66051563               -0.02556685                0.84088530                1.62955654
              14.10727070                1.68301298               45.35883668                0.82209647                0.25358151               -0.01446538               -0.91744461                0.14795635                0.15650516                0.10920577
               4.38731305                5.77461126               46.42587651                1.00000000               -0.19128299               -0.39437126                0.98536621               -0.05074952                0.25002108                1.29655726
               5.38540023                5.47976666               46.25717357                0.67080658               -0.12660461               -0.07345613                0.40070619               -0.05822016                0.41469413               -0.38064386
               6.38478096                5.18360090               46.09189826                0.13590619                0.03597720                0.20994736               -0.16555394               -0.23441818                1.49736060               -1.84397294
               7.38611977                4.88451179               45.94448912                0.00010000                0.26265263                0.26128829               -0.76824859               -1.37213370                7.40960011               -1.17293290
               8.39003402                4.56514443               45.89684968                0.00010000                0.41230666                0.58828215               -1.17027055               -2.42913342               11.87910163                0.48332888
               9.39436590                4.24790220               45.83632859                0.00010000                0.48412563                0.58758609               -1.60630805               -2.53964827               11.18655727                1.59134173
              10.39971653                3.92991742               45.77363219                0.00010000                0.49300710                0.51594655               -1.80350840               -2.67702226               11.20176578                2.39987146
              11.40422604                3.60858974               45.71371349                0.00010000                0.23520008                0.32411950               -1.64814645               -2.75128335               10.85617109                2.31922711
              12.40442053                3.28464289               45.64572200                0.03063779               -0.21164439                0.78906166               -1.33212952               -1.58744144                9.25102856                0.09075876
              13.39999316                2.97685843               45.56049227                0.28512873                0.04522512               -0.16713990               -0.64661716               -0.42597712                3.93986270                2.62217808
              14.40532503                2.67956480               45.39871669                0.76640864                0.53318754               -0.54650171               -0.92870062                0.28528586                0.09936469                0.47069895
               4.67994885                6.77098671               46.36241764                1.00000000               -0.13642295               -0.31997420                0.75751234               -0.04326845                0.07564221                0.96690255
               5.67858463                6.47964647               46.18380546                0.50155989               -0.08388190                0.02629435                0.17052524               -0.07177356                0.43337005               -0.75995613
               6.67827122                6.18657417               46.01246361                0.05544710                0.06304012                0.36988031               -0.39434178               -0.47392896                3.63282175               -2.37272444
               7.67984543                5.88637627               45.89755348                0.00010000                0.26873450                0.13719398               -0.42653656               -1.50542832               10.73901196                1.56702418
               8.68364591                5.57069435               45.86657506                0.00010000                0.42497315                0.50871015               -1.13997023               -2.31080464               14.53845213                1.35225208
               9.68834489                5.25343611               45.82412615                0.00010000                0.52296095                0.50870915               -1.54675997               -2.43701429               13.96645415                2.05375120
              10.69410513                4.93378086               45.77888057                0.00010000                0.56771638                0.36783839               -1.78599607               -2.61107644               13.73862742                2.66276430
              11.69969922                4.61160736               45.73029804                0.00010000                0.41406355                0.28520911               -1.83540869               -2.54663772               13.21024359                2.74678074
              12.70238640                4.29048189               45.67557657                0.03824396                0.07971099                0.38873999               -1.65829240               -1.86866836               12.23693378                2.68855902
              13.70129344                3.97509493               45.61365534                0.28652189                0.25886386               -0.05421560               -0.94167246               -0.58124404                5.73525355                2.62866885
              14.70756367                3.67208294               45.43798907                0.77568918                0.62702360               -0.46577731               -1.42249854                0.09750666                0.04418367               -0.26975052
               4.96912817                7.76821178               46.29622514                1.00000000               -0.07508827               -0.23602579                0.53407296               -0.03494891                0.01971125                0.77733821
               5.96837729                7.48029255               46.10910034                0.42420616               -0.02777961                0.08932243               -0.03767102               -0.04119692                0.31167294               -0.82631457
               6.96857258                7.19099851               45.92784729                0.02059458                0.17568660                0.47038301               -0.60305372               -0.76993783                7.11661884               -2.67599731
               7.97189102                6.88725567               45.87644623                0.00010000                0.40927502                0.23597535               -0.68219517               -1.66486897               14.65264440                1.57183573
               8.97675808                6.57531863               45.84139256                0.00010000                0.53240439                0.44417718               -1.18340040               -2.17481411               16.09909915                1.62156126
               9.98253911                6.25807638               45.81460175                0.00010000                0.62828363                0.44442457               -1.59131666               -2.46393520               16.65395296                2.27353782
              10.98932375                5.93727419               45.78634422                0.00010000                0.70265771                0.34747181               -1.89767154               -2.62846755               16.54042133                2.99061572
              11.99659226                5.61429392               45.75401501                0.00010000                0.71179210                0.23611372               -2.09876536               -2.50748236               15.97940193                3.59068939
              13.00355959                5.29241769               45.71385297                0.04889863                0.50874785                0.09255017               -2.12446163               -1.77945394               14.65846436                3.80146459
              14.00676722                4.97577412               45.65861857                0.29698219                0.48697678                0.18625455               -1.37405405               -0.54423030                6.85302650                2.07542164
              15.01329913                4.67024925               45.46754630                0.78727595                0.65319101                0.08159959               -2.03352604                0.05892892                0.08603391               -1.08745193
               5.25508834                8.76626619               46.22911202                0.98625523               -0.01143826               -0.15454003                0.31438648               -0.03366694                0.01081435                0.71902690
               6.25497396                8.48143291               46.03414497                0.40692971                0.04104967                0.13664748               -0.24239974               -0.00036562                0.13067275               -0.81677843
               7.25590934                8.19598183               45.84153918                0.00513502                0.36269814                0.48299260               -0.80061690               -0.92025431                9.21199092               -2.69044935
               8.26222792                7.89109578               45.82778322                0.00010000                0.67097864                0.42329106               -1.01002521               -1.84670012               18.51736883               -0.09510221
               9.26932891                7.57957790               45.81518596                0.00010000                0.74413514                0.40858474               -1.33620563               -2.14643432               19.02810079                1.30150385
              10.27711063                7.26232460               45.80520446                0.00010000                0.79946648                0.40686932               -1.70607789               -2.38328219               19.51562310                2.15599650
              11.28531824                6.94073030               45.79607861                0.00010000                0.86477203                0.37352301               -2.07780916               -2.59247553               19.66622053                3.07609109
              12.29440607                6.61632963               45.78366124                0.00010000                0.99994413                0.25300718               -2.47991243               -2.60311649               19.11130488                4.22986738
              13.30531712                6.29233289               45.75994251                0.06286895                0.90856031               -0.00301676               -2.83840878               -1.73453403               16.56722223                5.19348731
              14.31257727                5.97882002               45.69727353                0.30717439                0.72374276                0.39866303               -1.77862790               -0.42949306                7.28113838                1.67891812
              15.31979198                5.67371494               45.49009373                0.79348143                0.72147039                0.51835488               -2.55989646                0.06043871                0.10451973               -1.53947458
               5.53812139                9.76512098               46.16187102                0.97200815                0.05329460               -0.07228981                0.09895346               -0.03228594                0.00727515                0.72087630
               6.53865434                9.48302550               45.95934395                0.44109622                0.11916204                0.18000251               -0.45358879                0.01857192               -0.03803642               -0.77326039
               7.54050463                9.20065836               45.75580746                0.00010000                0.63533089                0.43855389               -0.99692632               -1.03943391               10.92872793               -2.35473298
               8.55136095                8.89572149               45.77212858                0.00010000                1.10479679                0.37756460               -1.22106984               -1.94641189               22.04063698               -0.44533221
               9.56260057                8.58349032               45.78307749                0.00010000                1.11800557                0.28426867               -1.51602572               -1.95227934               22.14913388                0.79081849
              10.57372107                8.26621377               45.79305647                0.00010000                1.04343230                0.36410549               -1.86362661               -2.02371824               22.60053109                1.68792571
              11.58346921                7.94474465               45.80454410                0.00010000                0.96031371                0.46664388               -2.28501687               -2.25798756               23.17609160                2.64036171
              12.59292734                7.61935406               45.81833876                0.00010000                1.14546585                0.47300351               -2.89996038               -2.57579624               23.10829550                4.13333399
              13.60637853                7.29235736               45.82216823                0.08346180                1.19339878                0.21720820               -3.94054380               -1.76355260               18.05233256                7.41855330
              14.61679532                6.98374738               45.73205004                0.31742040                0.91697691                0.56587461               -2.11602737               -0.29311885                6.70452834                1.47730550
              15.62471807                6.68061635               45.50880413                0.79348155                0.79227526                0.79513734               -2.98062963                0.05032271                0.11418802               -1.76118687
               5.81863359               10.76482040               46.09491213                0.95306185                0.11744296                0.01148191               -0.12255170               -0.03253886               -0.01194705                0.64389088
               6.81980802               10.48503296               45.88490046                0.49250387                0.18955363                0.22318813               -0.66263795                0.00869555                0.02168300               -0.62674259
               7.82242466               10.20475291               45.67539262                0.00010000                1.03298489                0.40865894               -1.18944495               -1.23233372               12.61084649               -1.45308381
               8.84046772                9.89864707               45.71663589                0.00010000                1.86831897               -0.06617932               -1.41898558               -1.57109540               25.11419645               -0.30181173
               9.85979104                9.58526327               45.74755636                0.00010000                1.74571087                0.07498810               -1.70397049               -1.30470657               24.99684204                0.37980222
              10.87538194                9.26960671               45.77546686                0.00010000                1.36135762                0.30334862               -2.04559671               -1.18978966               25.50926490                0.93156014
              11.88701820                8.95006318               45.80636925                0.00010000                0.99477489                0.57890607               -2.49861016               -1.37926999               26.57520647                1.55635350
              12.89527743                8.62578970               45.84616505                0.00010000                0.93172807                0.84867119               -3.21356887               -1.85150632               28.70500893                2.74210857
              13.90565276                8.29667706               45.91118218                0.12094110                1.15892354                0.93314703               -4.89294031               -1.47869822               19.75657847                6.03730502
              14.91845590                7.99013751               45.76505253                0.33449796                1.07038626                0.67839849               -2.35554143               -0.31966415                4.64705271                1.21967975
              15.92706048                7.68961768               45.52505346                0.78145115                0.86045777                0.96188650               -3.30932256                0.02815490                0.03090497               -1.54871018
               6.09704548               11.76535062               46.02619879                0.98676769                0.18502556                0.05302206               -0.34064077                0.05505268                0.34014079                0.55591806
               7.09889573               11.48748926               45.81264237                0.79616224                0.25991877                0.24562938               -0.87840371                0.08281712                0.74554400               -0.49637876
               8.10224385               11.20883154               45.60695342                0.47671591                2.02664766                0.40786251               -1.40090171               -1.67264886               14.37359440               -0.81757584
               9.13942869               10.89439790               45.66535914                0.36934011                3.16514691               -0.42491645               -1.63615243               -1.29597579               27.57183709               -0.28614525
              10.16554679               10.58499009               45.70976137                0.35966156                2.28483412               -0.02731850               -1.92339717               -0.53028334               27.29719880                0.09621360
              11.18512537               10.27228074               45.75067843                0.36899941                1.70770161                0.26740293               -2.26052409               -0.45902256               27.87205011                0.40465522
              12.19970082                9.95632277               45.79540735                0.39682588                1.20789825                0.62595958               -2.70422239               -0.52940008               29.26631595                0.76544962
              13.20928333                9.63632749               45.85385357                0.46945625                0.63779680                1.05377834               -3.46553510               -0.86453370               32.11585188                1.58660039
              14.21245676                9.31102030               45.94547838                0.58422016                0.40890362                1.43432434               -4.78990918               -1.27020688               22.35159659                3.37104668
              15.21746141                8.99731535               45.79335315                0.68616098                0.69320305                0.71778360               -2.48458330               -0.65776086                5.53840663                1.04616614
              16.22632082                8.69985408               45.54618292                0.88829449                0.88594143                1.02363978               -3.48640184                0.17990723                0.87339227               -1.20627402
               3.32645712                1.87140802               47.68285252                1.00000000               -0.52414500               -0.59734418                2.05257806               -0.12932032               -1.21923307                1.11460084
               4.32121567                1.55747356               47.52798372                1.00000000               -0.44846130               -0.36298570                1.34029143               -0.07255534               -1.67513808                0.19348116
               5.31748790                1.24277250               47.36475269                1.00000000               -0.32089350               -0.14245287                0.63661423               -0.09282771               -1.77038590               -0.20966275
               6.31479780                0.92510486               47.20853745                0.69388086               -0.47859154                0.15380882               -0.06511661               -0.64039715               -1.38540354               -0.92929090
               7.30791607                0.59310507               47.05362971                0.75420535               -0.28971010                0.23849768               -0.62663535               -0.22729816               -0.99335954                0.14988930
               8.30900360                0.25177426               46.90917405                0.77068936                0.35464705                0.41069421               -1.19838990               -0.26607691               -0.30555222               -0.02209077
               9.31500901               -0.09145810               46.77264694                0.67789754                0.94658928                0.60379412               -1.75812816               -0.13638546                0.94386340               -0.50019987
              10.32793539               -0.42973567               46.65806969                0.64103282                1.37550948                0.60759729               -1.96160557                0.03145337                2.11228233               -0.49832987
              11.34251920               -0.74774456               46.54874351                1.00000000                0.94843570                0.17677801               -0.87477438               -0.36710725                1.28053573                0.86071850
              12.34690410               -1.05568485               46.40820900                1.00000000                0.44708869                0.33167854               -1.22468379               -0.05426222               -0.44816974                0.10238751
              13.35146097               -1.36186957               46.26441482                1.00000000                0.45568698                0.46961884               -1.67404277               -0.09863120               -0.60070795               -0.56752157
               3.63909839                2.86543458               47.61588133                1.00000000               -0.42905056               -0.57788209                1.81265147               -0.00610243               -0.29949115                1.48414447
               4.63480788                2.55384370               47.46108307                1.00000000               -0.31772097               -0.33540622                1.10047575                0.04151661               -0.48502654                0.28554889
               5.63274397                2.24134797               47.30316708                1.00000000               -0.07901668               -0.11016888                0.38625045                0.00711951               -0.43472964               -0.37870708
               6.63322755                1.92664295               47.14952565                0.42670374                0.47822094                0.17786400               -0.32115805               -0.75011831                0.77746187               -1.29716199
               7.64230839                1.59549004               47.01564164                0.53573774                0.76984335                0.10209953               -1.04148071               -0.34800477                1.60089568                0.34146007
               8.64862442                1.25588120               46.88080861                0.57146243                0.60458638                0.47228471               -1.72257454               -0.36020883                1.91410724               -0.00931488
               9.65440011                0.91457984               46.75392535                0.42449505                0.38843666                0.80324094               -2.37891382               -0.27364319                3.92841256               -1.11903791
              10.65639315                0.57634030               46.65855053                0.33495395               -0.12887005                1.09452817               -2.51076560               -0.23460542                6.28724651               -1.21981585
              11.65182271                0.25402322               46.57793745                1.00000000               -0.14845818                0.15863807               -0.56887770               -0.68604251                3.44861511                0.94097511
              12.65342398               -0.05236806               46.43700989                1.00000000                0.24183346                0.28618078               -0.92751473               -0.00708429                0.23707014                0.23215559
              13.65665938               -0.35717338               46.29338442                1.00000000                0.32353977                0.43528816               -1.39324008               -0.04365130                0.08083738               -0.60052609
               3.94951684                3.85985038               47.55719358                1.00000000               -0.33842233               -0.53528479                1.56052540               -0.01041748               -0.02517266                1.84872167
               4.94613262                3.55076543               47.39628755                1.00000000               -0.23429010               -0.26865580                0.86187954                0.01547038                0.07973661                0.31722451
               5.94483104                3.24056912               47.23788892                0.80002108               -0.02396259               -0.00905484                0.14880673               -0.06959738                0.33437222               -0.92921906
               6.94565337                2.92866214               47.08195028                0.00010000                1.34433414                0.23680717               -0.55614720               -1.19321726                3.16301730               -1.73830152
               7.97171772                2.59514706               46.97931563                0.00010000                1.85281310                0.18440483               -1.55255079               -2.35809963                4.55695512               -0.48743314
               8.98270963                2.26121995               46.85077164                0.00010000                0.86796577                0.74770136               -2.28413923               -2.39563774                3.27808195                0.57793594
               9.98907704                1.92460672               46.71978761                0.00010000                0.05451344                1.29301779               -2.98361714               -2.43012405                5.87971012                1.22347304
              10.98379990                1.59215489               46.63964874                0.00010000               -1.57851620                1.68914373               -4.15088642               -2.63858756               11.27586696                0.98220527
              11.95750671                1.25542820               46.60998821                0.26696363               -1.29204382                0.04369817               -0.20534001               -1.73776505                6.57338765                1.26597569
              12.95795902                0.95003877               46.46859418                1.00000000                0.13459371                0.17930956               -0.61385130               -0.10415762                0.63007838                0.61283772
              13.96019859                0.64683619               46.32090088                1.00000000                0.22395673                0.35429199               -1.09827711               -0.05102544                0.28873753               -0.57171044
               4.25705994                4.85472889               47.49830382                1.00000000               -0.26613885               -0.47865879                1.30622735               -0.03126347                0.11021936                1.63773736
               5.25439855                4.54847058               47.33023007                0.99976640               -0.18023133               -0.17945799                0.62142883               -0.01315024                0.23296543                0.09662814
               6.25345531                4.24116687               47.16489184                0.33254129                0.01933592                0.10167619               -0.04875620               -0.14448770                1.05937665               -1.39241503
               7.25478527                3.93137909               47.01316586                0.00010000                0.45666361                0.33637752               -0.78621908               -1.35198226                4.87425760               -2.15221720
               8.26258858                3.59917814               46.92343972                0.00010000                0.82333654                0.58501567               -1.48516173               -3.32314183                8.00487229               -0.53083009
               9.27125200                3.27083522               46.83289409                0.00010000                0.61370520                0.91059090               -2.05223105               -3.53733591                8.15245602                1.56231141
              10.27486269                2.94044020               46.74576521                0.00010000                0.07739557                1.27997263               -2.44343061               -3.70104627                9.09870315                3.63793936
              11.27279991                2.61012318               46.67564744                0.00010000               -0.78395747                1.13865202               -1.98564907               -4.49711961               11.65700548                3.47928250
              12.25918354                2.25489719               46.64715913                0.02286470               -0.64335337                0.87890201               -0.29677641               -2.02751585                7.39918253               -0.93375774
              13.25993284                1.95121813               46.50541486                0.31531080                0.14302441                0.06241057               -0.45093588                0.06918255                0.85258680                1.45789792
              14.26204403                1.64991246               46.35020417                0.78734524                0.21111834               -0.15663783               -0.83207832                0.33207706                0.13024362                0.01229341
               4.56140818                5.85027721               47.43602612                1.00000000               -0.19765522               -0.40932578                1.05186130               -0.05419546                0.24637662                1.27339354
               5.55943162                5.54717627               47.26109152                0.64938657               -0.11877006               -0.06404254                0.37717785               -0.06607862                0.41753185               -0.38104631
               6.55903278                5.24260264               47.08980212                0.12707950                0.05854149                0.24289953               -0.25995363               -0.23189878                1.49142139               -1.80036919
               7.56060245                4.93538969               46.93605374                0.00010000                0.33829875                0.30080301               -0.93044494               -1.36755558                7.49795517               -0.80245303
               8.56579875                4.60684737               46.88415100                0.00010000                0.50491988                0.72084472               -1.37984969               -2.49034304               12.05269014                0.90731519
               9.57070085                4.27943177               46.81910772                0.00010000                0.49847029                0.78960415               -1.85256398               -2.65081648               11.47683549                2.11146907
              10.57576816                3.95020617               46.75459038                0.00010000                0.43498307                0.76676004               -2.03248126               -2.89530868               11.80731499                2.96773466
              11.57940051                3.61492794               46.69679926                0.00010000                0.00466441                0.50728876               -1.78195548               -3.17662444               11.76708457                2.59615160
              12.57586145                3.27300624               46.63293219                0.02173793               -0.75365575                1.45511762               -1.28603215               -1.84486778               10.36705711               -0.50233984
              13.56432740                2.95128698               46.55481997                0.25686276               -0.32049861                0.07305069               -0.49571995               -0.46410000                4.52994001                2.36591872
              14.56945147                2.64370344               46.38963697                0.74447363                0.51240743               -0.78181644               -0.94718013                0.44440919                0.13930954               -0.07877423
               4.86217790                6.84654237               47.37022110                1.00000000               -0.14263594               -0.32896003                0.80638836               -0.04190177                0.06273527                0.95322141
               5.86075154                6.54718973               47.18537865                0.48544565               -0.07869903                0.03895321                0.14434394               -0.07209062                0.42889845               -0.75457376
               6.86060392                6.24602486               47.00797810                0.04675611                0.12189470                0.41150260               -0.50272203               -0.49562033                3.93515690               -2.35037669
               7.86318943                5.93739515               46.89285880                0.00010000                0.40678641                0.19619185               -0.52305601               -1.41935712               10.98310938                1.88023946
               8.86873965                5.61359503               46.85428098                0.00010000                0.58437183                0.60257720               -1.32974978               -2.23877542               14.58560112                1.70850367
               9.87487687                5.28662731               46.80775057                0.00010000                0.63603505                0.63270135               -1.74429559               -2.43209168               14.29490857                2.46995341
              10.88146035                4.95577540               46.76032095                0.00010000                0.57952392                0.50901027               -1.94935178               -2.68561422               14.28911866                3.02068835
              11.88646735                4.62026895               46.71174466                0.00010000                0.22333957                0.50807814               -1.91117435               -2.75661083               14.00740103                2.85309711
              12.88592714                4.28399954               46.65951461                0.03143437               -0.32568484                0.81323239               -1.60438836               -2.11009704               13.37389066                2.48600337
              13.87995365                3.95267914               46.60436160                0.26835815                0.00860809                0.20546825               -0.94176641               -0.60865836                6.42836729                2.31472594
              14.88609930                3.63427613               46.42288841                0.76039847                0.61456488               -0.52407553               -1.65825684                0.11812842                0.08038319               -1.01417648
               5.15927542                7.84369801               47.30173820                1.00000000               -0.07680994               -0.24267150                0.57147133               -0.03551451                0.01579992                0.76801240
               6.15850732                7.54795534               47.10855471                0.41014199               -0.01802343                0.10255538               -0.07321708               -0.03803704                0.31031829               -0.81034769
               7.15891495                7.25083270               46.92129885                0.01245676                0.30689120                0.51030068               -0.71047125               -0.76152788                7.35887072               -2.64019244
               8.16464514                6.93931353               46.86864537                0.00010000                0.64380681                0.31763072               -0.88391567               -1.57682895               14.97960146                1.56690093
               9.17179109                6.61889891               46.82876269                0.00010000                0.76167562                0.48995512               -1.35524299               -2.08966384               16.31201639                1.88084298
              10.17987866                6.29208579               46.79793342                0.00010000                0.83115700                0.49009005               -1.75645241               -2.40023521               17.00235095                2.58861780
              11.18841423                5.96038637               46.76686199                0.00010000                0.80827499                0.42168837               -2.01453837               -2.59431822               17.04883475                3.24074060
              12.19604416                5.62508950               46.73304832                0.00010000                0.64175446                0.39574047               -2.11681238               -2.50410474               16.67636894                3.62262073
              13.20124932                5.28927089               46.69336664                0.04276871                0.29167427                0.36452673               -2.01361014               -1.87549493               15.77831440                3.48294710
              14.20187764                4.95539635               46.64452893                0.28451078                0.36853781                0.34835860               -1.45009888               -0.58295327                7.59965737                1.77940502
              15.20862007                4.63322192               46.44580473                0.77566692                0.67424307                0.18256357               -2.33214612                0.07773473                0.11517848               -1.66464946
               5.45295295                8.84168894               47.23237636                0.97944306               -0.00968407               -0.16071704                0.34044773               -0.03498052                0.01401556                0.71320187
               6.45285611                8.54924084               47.03150847                0.39401281                0.05311106                0.15296501               -0.28663448                0.00451536                0.13408940               -0.80265320
               7.45401517                8.25623088               46.83300724                0.00010000                0.53652657                0.52509388               -0.91084389               -0.91234857                9.39653999               -2.65270783
               8.46358664                7.94374777               46.81690612                0.00010000                1.00794666                0.44556689               -1.17226798               -1.81472727               18.87256272               -0.04980064
               9.47417410                7.62339414               46.80105680                0.00010000                1.08990329                0.39319647               -1.50252212               -2.10247611               19.37323224                1.48217028
              10.48538470                7.29642911               46.78748228                0.00010000                1.11980887                0.37651673               -1.85026476               -2.31054291               19.90783111                2.39590557
              11.49657028                6.96420916               46.77486986                0.00010000                1.10580166                0.36517595               -2.16869362               -2.48853161               20.12084945                3.26286942
              12.50750074                6.62818376               46.75902284                0.00010000                1.07700568                0.30078363               -2.44755171               -2.45633243               19.65023940                4.17306822
              13.51811039                6.29129007               46.73288347                0.05614727                0.84214077                0.14861193               -2.60023449               -1.76093096               17.74000232                4.58313510
              14.52434355                5.95964632               46.67887800                0.29794147                0.69462214                0.49932267               -1.89160014               -0.51295462                8.18098277                1.45292236
              15.53200284                5.63792740               46.46295246                0.78394557                0.76592832                0.63255895               -2.85392057                0.07245907                0.11718992               -1.93299301
               5.74347201                9.84048366               47.16292821                0.96687425                0.05836795               -0.07717036                0.11420564               -0.03327829                0.00641802                0.71362305
               6.74405569                9.55101464               46.95455103                0.42863077                0.13445212                0.19896963               -0.50635881                0.02399145               -0.03217312               -0.76094346
               7.74616105                9.26133457               46.74530139                0.00010000                0.85658253                0.47903549               -1.11008849               -1.07137537               11.11054936               -2.31528353
               8.76118734                8.94822487               46.75924240                0.00010000                1.54495842                0.32759110               -1.36663877               -1.97743909               22.41748952               -0.35641848
               9.77706022                8.62676284               46.76722490                0.00010000                1.58327147                0.18641168               -1.66808542               -1.94378599               22.55030478                0.93400870
              10.79285277                8.29961613               46.77381248                0.00010000                1.49143592                0.25726328               -1.99522561               -1.96405440               23.03373697                1.86593027
              11.80688894                7.96768989               46.78126429                0.00010000                1.34919142                0.37002343               -2.36627125               -2.14786570               23.57289129                2.77802220
              12.81983660                7.63110517               46.78920032                0.00010000                1.38396027                0.42321785               -2.87917400               -2.38463249               23.34762277                4.07679004
              13.83456814                7.29224313               46.78458236                0.07421597                1.25723116                0.26145670               -3.53120761               -1.73459278               19.36204156                6.51054547
              14.84498122                6.96538280               46.71008096                0.31000907                0.94694699                0.63812439               -2.25942513               -0.39384620                7.98077434                1.33409067
              15.85350708                6.64587310               46.47741472                0.78511071                0.85258632                0.89216464               -3.26394505                0.05627918                0.11919871               -2.03796530
               6.03122544               10.84014553               47.09369935                0.94641501                0.12595870                0.00918075               -0.11839825               -0.03409040               -0.01018936                0.63444590
               7.03248503               10.55322023               46.87797322                0.47991590                0.20759966                0.24407561               -0.72450067                0.01118343                0.03234441               -0.61637976
               8.03537743               10.26581159               46.66292755                0.00010000                1.30622812                0.44663315               -1.30942984               -1.34027175               12.79046725               -1.42144794
               9.05860959                9.95029959               46.70178921                0.00010000                2.42648427               -0.21371935               -1.56253421               -1.65308286               25.50118783               -0.24340120
              10.08390712                9.62712237               46.72985330                0.00010000                2.32834880               -0.08960154               -1.85120828               -1.31613196               25.43291593                0.46752323
              11.10517656                9.30157437               46.75442876                0.00010000                1.91084031                0.13601089               -2.17155965               -1.15436485               25.97830379                1.03758591
              12.12212392                8.97160963               46.78092574                0.00010000                1.50391435                0.41482541               -2.57816550               -1.30184226               26.97532336                1.64024824
              13.13525485                8.63664812               46.81359154                0.00010000                1.35084928                0.70366850               -3.23078109               -1.69713310               28.55391614                2.68551746
              14.14914091                8.29651921               46.86074454                0.10674208                1.37909015                0.90841517               -4.82383066               -1.37160604               21.26567951                5.57818649
              15.16283665                7.97240880               46.74051198                0.32934829                1.15034496                0.73986101               -2.53165262               -0.39910141                6.45744883                1.17419430
              16.17214781                7.65577069               46.49030276                0.77407694                0.93111544                1.05203701               -3.59415748                0.03217358                0.01426523               -1.71728894
               6.31664080               11.84066728               47.02274931                0.98326702                0.19724998                0.05217463               -0.34806061                0.06442339                0.33177774                0.54715508
               7.31861330               11.55589615               46.80350606                0.78971239                0.28177287                0.26759159               -0.95159535                0.09282571                0.74616181               -0.48844965
               8.32227626               11.27026724               46.59230318                0.47368684                2.41007986                0.44556502               -1.53373258               -1.90740055               14.54041165               -0.79475923
               9.36681490               10.94395048               46.64828667                0.36929157                3.85932665               -0.63491097               -1.79144969               -1.44429001               27.95248000               -0.27078604
              10.39946279               10.62497081               46.68980714                0.35973787                2.92316541               -0.21515573               -2.08214271               -0.52513883               27.74225230                0.12792979
              11.42527821               10.30233635               46.72743622                0.36878346                2.31577766                0.07619726               -2.39729111               -0.43905597               28.37939960                0.44133745
              12.44577835                9.97598640               46.76786240                0.39581590                1.78530760                0.43767701               -2.79365903               -0.49244791               29.70653549                0.77815464
              13.46098436                9.64517854               46.81856969                0.45811331                1.27984966                0.85304203               -3.50177220               -0.70579743               32.11929680                1.45989977
              14.47137534                9.31041143               46.89450416                0.57565302                0.83816726                1.38922268               -5.01761146               -1.02648296               23.90447163                3.28771441
              15.47774771                8.98018002               46.76738562                0.68454830                0.80257180                0.77712157               -2.69306615               -0.68377422                7.35272043                1.04776634
              16.48742678                8.66691384               46.50960193                0.88484290                0.96790705                1.11431515               -3.78233075                0.20127936                0.88758810               -1.32393994
               3.47273010                1.95065257               48.70416019                1.00000000               -0.56264707               -0.64277562                2.21160640               -0.14581187               -1.20144220                1.09419212
               4.46710363                1.62749109               48.54170453                1.00000000               -0.48112387               -0.37596881                1.40361754               -0.08478749               -1.64929433                0.18842213
               5.46310762                1.30350002               48.37105224                1.00000000               -0.34798181               -0.12598904                0.62097569               -0.10879763               -1.72990167               -0.21245658
               6.46014399                0.97618072               48.20746516                0.69652500               -0.58648705                0.21319037               -0.15409661               -0.63954292               -1.23246906               -0.91472925
               7.45137788                0.63453300               48.04716623                0.75625902               -0.51093171                0.35423230               -0.67650923               -0.23622779               -0.73125964                0.10989755
               8.44992536                0.28260219               47.89695541                0.77376169                0.07859939                0.51100438               -1.25343092               -0.29058708               -0.09989874               -0.02084178
               9.45294987               -0.07466950               47.75444834                0.67401088                0.63192269                0.75832326               -1.87500732               -0.32512878                1.17985066               -0.48086106
              10.46256381               -0.43376708               47.63657999                0.58555469                1.48764059                0.89640049               -2.32190214                0.08556962                3.01610205               -0.67644945
              11.48270268               -0.76996853               47.54070161                1.00000000                1.21392501                0.08697351               -0.70046390               -0.90569477                2.19393879                0.83544672
              12.48684231               -1.08486330               47.39607610                1.00000000                0.43711713                0.31199596               -1.16052628               -0.05875688               -0.40099273                0.14341042
              13.49144502               -1.39779171               47.24706792                1.00000000                0.46027109                0.52530720               -1.86922920               -0.11901193               -0.56959327               -0.52937515
               3.79443346                2.94422481               48.63471025                1.00000000               -0.46014290               -0.62054589                1.95575453               -0.00422663               -0.30046909                1.45455338
               4.78983203                2.62373140               48.47231783                1.00000000               -0.33793130               -0.34646983                1.14657698                0.04716954               -0.48642245                0.28119118
               5.78767483                2.30224013               48.30683473                1.00000000               -0.07999784               -0.09078493                0.34516190                0.01262664               -0.43436817               -0.37354077
               6.78823207                1.97831262               48.14568498                0.44720186                0.40650182                0.22925110               -0.45065273               -0.71411045                0.79136490               -1.27069345
               7.79580487                1.63807532               48.00462882                0.55936652                0.66943313                0.19849090               -1.15664285               -0.31606345                1.56846305                0.27283811
               8.80162074                1.28771223               47.86269218                0.59518444                0.60391737                0.54842281               -1.88557316               -0.35778352                1.83318556                0.00001973
               9.80788322                0.93291374               47.72846106                0.44146042                0.47241461                0.91882111               -2.68198726               -0.45247744                4.00658514               -1.02223628
              10.81106903                0.57519692               47.62951754                0.30025276               -0.43446873                1.42360869               -3.28185570               -0.40183640                8.03529230               -1.84293829
              11.79919384                0.23090120               47.57274242                0.85463079               -0.54513492                0.06191360               -0.57130294               -1.47805408                4.95590042                1.00592837
              12.80016633               -0.08174334               47.42821032                1.00000000                0.19947335                0.26912364               -0.83616826                0.01117837                0.27715610                0.29118897
              13.80318331               -0.39253863               47.27911394                1.00000000                0.30169796                0.46959251               -1.50103565               -0.01789158                0.05763757               -0.54200955
               4.11363239                3.93824165               48.57337443                1.00000000               -0.36006809               -0.57142375                1.67897294               -0.00834295               -0.02800845                1.81119360
               5.11003170                3.62056169               48.40504223                1.00000000               -0.24267247               -0.27436117                0.88818528                0.02102938                0.06579371                0.31148694
               6.10877894                3.30168432               48.23905082                0.80244888               -0.00025580                0.01868007                0.08117340               -0.07571671                0.31498696               -0.88926734
               7.11002659                2.98076574               48.07561680                0.00010000                1.34390334                0.28450363               -0.72023398               -1.18223340                3.01840122               -1.70210985
               8.13565700                2.63850282               47.96287140                0.00010000                1.89523425                0.27007073               -1.71875367               -2.35058802                4.23438800               -0.27870245
               9.14793127                2.29357064               47.82659210                0.00010000                1.03793129                0.84411557               -2.52126060               -2.58910736                3.03133372                0.98690278
              10.15641563                1.94370693               47.68823992                0.00010000                0.43041729                1.42521080               -3.29973293               -2.95974763                5.23659241                1.90967859
              11.15653962                1.59470509               47.59244376                0.00010000               -2.31668837                2.11815889               -4.85028546               -4.11548361               13.43314018                2.00117150
              12.11008186                1.23126974               47.60891617                0.23967523               -2.30169528                0.10901598               -0.11552074               -2.63798053                9.07826621                1.09046204
              13.11050571                0.92051917               47.46351724                1.00000000                0.12979573                0.15566182               -0.42912733               -0.05471692                0.60320863                0.59336711
              14.11267778                0.61160014               47.30982775                1.00000000                0.21720625                0.35306921               -1.13030074               -0.03622026                0.18868385               -0.51437161
               4.42962651                4.93279634               48.51182880                1.00000000               -0.28165633               -0.50399000                1.39934624               -0.03134539                0.10326225                1.60165130
               5.42680995                4.61824418               48.33644032                0.96168383               -0.18350295               -0.17822686                0.62756737               -0.01197242                0.23942594                0.08566727
               6.42595645                4.30261373               48.16408965                0.32236665                0.04794790                0.14114687               -0.11332734               -0.16866280                1.03293894               -1.34881383
               7.42776891                3.98400269               48.00432735                0.00010000                0.50158761                0.40020275               -0.98113763               -1.37167970                4.85077624               -2.06895194
               8.43598821                3.64347674               47.90741938                0.00010000                0.84327863                0.69733268               -1.71104449               -3.35156576                8.01617836               -0.01314562
               9.44463448                3.30459454               47.81091168                0.00010000                0.57828054                1.08522303               -2.34066765               -3.82634118                8.24831308                2.31264151
              10.44755382                2.96141795               47.71938746                0.00010000               -0.17189680                1.55047230               -2.82174917               -4.26393924                9.75875165                4.69991454
              11.44119654                2.61756010               47.65467924                0.00010000               -1.34668334                1.48552305               -2.30097063               -6.18250617               13.44064400                5.30516852
              12.42062015                2.23308152               47.64448861                0.01044570               -1.12274799                1.54854424               -0.38733367               -2.62655526                8.87149818               -1.60148738
              13.41874158                1.92136989               47.50200093                0.27238425               -0.01615955                0.23554462               -0.22104335                0.24113439                1.06275904                1.21945876
              14.42029696                1.61452275               47.34219512                0.75402888                0.15553747               -0.31475341               -0.77632879                0.60525775                0.14083578               -0.18477064
               4.74210979                5.92816185               48.44691373                1.00000000               -0.21349283               -0.42286398                1.12609828               -0.05337172                0.22891381                1.24149263
               5.73997487                5.61699716               48.26471713                0.62836353               -0.12313139               -0.05761902                0.35550160               -0.05294744                0.42467022               -0.38147384
               6.73964717                5.30450726               48.08669919                0.11774557                0.08775607                0.27280892               -0.37022456               -0.23448057                1.50654507               -1.77680076
               7.74172999                4.98876979               47.92588022                0.00010000                0.41933371                0.36933668               -1.11287067               -1.33109769                7.61827191               -0.37207561
               8.74803384                4.65244947               47.86925269                0.00010000                0.58666239                0.83880027               -1.60197124               -2.45083698               12.25157785                1.41058090
               9.75346323                4.31527510               47.79927731                0.00010000                0.50687233                0.97074708               -2.11826462               -2.70822463               11.81379841                2.76923869
              10.75817129                3.97471637               47.73298257                0.00010000                0.38813466                1.02525320               -2.31363786               -3.12599810               12.54615300                3.76434476
              11.76122593                3.62441555               47.67807438                0.00010000               -0.22151632                0.74300692               -2.02576552               -3.65093542               12.93345348                3.07952456
              12.75374096                3.26224062               47.62000136                0.01396749               -1.36693784                2.33429939               -1.41905769               -2.12791815               11.85703481               -0.95429220
              13.73388717                2.92523006               47.55057787                0.23261985               -0.76318702                0.51552987               -0.38891367               -0.45950732                5.38250920                2.05424891
              14.73847722                2.60530508               47.37977309                0.72478225                0.45900489               -0.94455478               -1.08441048                0.59853936                0.21540095               -0.84283052
               5.05088846                6.92433906               48.37854541                1.00000000               -0.14828702               -0.33725441                0.86132354               -0.03965796                0.05394213                0.93290781
               6.04940559                6.61709180               48.18669233                0.46951169               -0.06971303                0.04793055                0.11642263               -0.06105061                0.42595855               -0.73948694
               7.04949420                6.30806991               48.00240917                0.03800717                0.18995722                0.43291296               -0.61005169               -0.48451044                4.27204426               -2.31232979
               8.05320474                5.99138943               47.88709236                0.00010000                0.54859765                0.28882850               -0.64119520               -1.27639704               11.24763990                2.20948611
               9.06046616                5.66025274               47.83998006                0.00010000                0.74991734                0.68550959               -1.53986231               -2.08517104               14.64769969                2.12465237
              10.06820309                5.32400948               47.78924024                0.00010000                0.77136244                0.74209629               -1.97012487               -2.36530687               14.70629693                2.98440692
              11.07589341                4.98192302               47.73989353                0.00010000                0.62252492                0.64118624               -2.15901251               -2.72874961               14.98525918                3.51545094
              12.08065358                4.63242024               47.69207455                0.00010000                0.06769335                0.75263010               -2.06671789               -2.98832185               15.03949284                3.12869271
              13.07724727                4.27976751               47.64348881                0.02601596               -0.70833006                1.32335752               -1.66224859               -2.34177121               14.77016704                2.43932389
              14.06648698                3.93168049               47.59482001                0.25355785               -0.25647759                0.58078748               -0.99203014               -0.58503768                7.27663958                1.96121264
              15.07211772                3.59563165               47.40482393                0.74642148                0.56307385               -0.42064338               -1.97552158                0.12380946                0.13063033               -1.78077667
               5.35581115                7.92141676               48.30765457                1.00000000               -0.07881476               -0.24994184                0.61321994               -0.03530061                0.01182643                0.75767108
               6.35502300                7.61795577               48.10763599                0.39651466               -0.00759115                0.11458648               -0.11145016               -0.03159844                0.31090811               -0.78953901
               7.35565933                7.31316552               47.91363786                0.00426760                0.44981034                0.54276152               -0.82476614               -0.72305606                7.59165924               -2.58387932
               8.36401921                6.99454636               47.85876792                0.00010000                0.90255174                0.40566554               -1.09479786               -1.42904884               15.33567908                1.55365300
               9.37371036                6.66615966               47.81428770                0.00010000                1.02338061                0.52531772               -1.55190467               -1.93390492               16.60535414                2.17864584
              10.38448682                6.33011703               47.77947270                0.00010000                1.07375883                0.51770824               -1.94986584               -2.26842293               17.44735711                2.96416491
              11.39518554                5.98754010               47.74605346                0.00010000                0.95640878                0.48311880               -2.16628390               -2.51738080               17.71411205                3.57357147
              12.40361500                5.63946815               47.71167876                0.00010000                0.62298706                0.56093821               -2.18694146               -2.50443326               17.60149340                3.77077624
              13.40764528                5.28870777               47.67358077                0.03870161                0.13536358                0.65061804               -1.98844241               -1.98038011               17.06422978                3.32576058
              14.40632227                4.93684581               47.62961659                0.27494959                0.27029013                0.53229669               -1.52994285               -0.60873055                8.39530138                1.49603021
              15.41305108                4.59689221               47.42090338                0.76480936                0.67288135                0.39067178               -2.62739301                0.09809602                0.14077407               -2.11740134
               5.65710444                8.91934022               48.23592097                0.97241084               -0.00795682               -0.16731545                0.37006130               -0.03602145                0.01741123                0.70763733
               6.65702487                8.61938353               48.02841228                0.38144861                0.06690228                0.16930543               -0.33404619                0.00998021                0.14008307               -0.78281586
               7.65844249                8.31892514               47.82332230                0.00010000                0.73023713                0.56334321               -1.02772094               -0.87579356                9.59315891               -2.59714639
               8.67162962                7.99950274               47.80433786                0.00010000                1.38874540                0.45818350               -1.34976272               -1.71990079               19.26380763                0.03946131
               9.68621739                7.67075910               47.78513552                0.00010000                1.49122889                0.36071694               -1.69475462               -1.99064386               19.78764940                1.69129977
              10.70145419                7.33436365               47.76819916                0.00010000                1.49886354                0.32344343               -2.02013346               -2.16520573               20.40320005                2.67294863
              11.71619467                6.99158539               47.75270473                0.00010000                1.39715246                0.33545576               -2.27534304               -2.31854925               20.73712444                3.49205743
              12.72939724                6.64363900               47.73471021                0.00010000                1.20336723                0.34265073               -2.42973518               -2.29294005               20.43559519                4.17826256
              13.74026201                6.29277987               47.70793782                0.05229120                0.83653466                0.29997137               -2.42635507               -1.81095703               18.98498857                4.18316074
              14.74612794                5.94232643               47.65944153                0.29156432                0.68624210                0.59746973               -1.97495632               -0.60393021                9.01191047                1.24617763
              15.75398685                5.60344509               47.43301532                0.77485942                0.78589164                0.78072714               -3.08706057                0.08103887                0.11949706               -2.19412728
               5.95500411                9.91807045               48.16415513                0.96136188                0.06335850               -0.08260046                0.13294681               -0.03397653                0.00582241                0.70718092
               6.95563769                9.62134188               47.94921677                0.41603888                0.15100705                0.21834061               -0.56214305                0.02818827               -0.02283938               -0.74351172
               7.95802425                9.32443238               47.73360569                0.00010000                1.10747721                0.51985144               -1.23186586               -1.08281534               11.31336927               -2.26337469
               8.97778724                9.00371003               47.74479580                0.00010000                2.05061642                0.26160205               -1.53434481               -1.95611362               22.83659320               -0.24301473
               9.99903658                8.67337400               47.74971579                0.00010000                2.12845883                0.06361976               -1.84850822               -1.87658611               23.01775954                1.10316534
              11.02035641                8.33658590               47.75315195                0.00010000                2.02513125                0.11855219               -2.14951726               -1.83517058               23.56435145                2.06949013
              12.03953920                7.99424921               47.75721867                0.00010000                1.81026539                0.23423188               -2.44343584               -1.95487565               24.12090383                2.93970327
              13.05656172                7.64632117               47.76075528                0.00010000                1.65997573                0.32458418               -2.78370979               -2.12011478               23.89451922                4.02663927
              14.07273872                7.29470720               47.75154408                0.06880993                1.35083618                0.27695575               -3.08798143               -1.68710330               20.66037263                5.70312360
              15.08357845                6.94879521               47.68686153                0.30579183                0.98479082                0.69951588               -2.35075049               -0.51408603                9.02846303                1.19772008
              16.09243453                6.61250675               47.44352523                0.77729644                0.88560882                0.98198003               -3.45168927                0.06002366                0.11088738               -2.21390516
               6.24988206               10.91768821               48.09254416                0.93958450                0.13446483                0.00616717               -0.11077084               -0.03561561               -0.00780151                0.62544633
               7.25122671               10.62375034               47.87041045                0.46618353                0.22679791                0.26563560               -0.78974674                0.01306823                0.04701736               -0.60324381
               8.25441802               10.32932217               47.64920402                0.00010000                1.61695048                0.48763568               -1.43824177               -1.43841661               12.99375404               -1.38406801
               9.28356572               10.00473478               47.68538521                0.00010000                3.06958939               -0.38613840               -1.73118859               -1.70517960               25.93367026               -0.17214083
              10.31580981                9.67203149               47.71053219                0.00010000                3.01549248               -0.28665012               -2.02863721               -1.28971940               25.93562514                0.57078304
              11.34387557                9.33673469               47.73203566                0.00010000                2.57760362               -0.07466690               -2.31873057               -1.07298868               26.54343825                1.15999248
              12.36736188                8.99627003               47.75480594                0.00010000                2.13306936                0.18816671               -2.63870981               -1.17225700               27.50863011                1.74060482
              13.38653696                8.65013068               47.78154943                0.00010000                1.83420108                0.46240076               -3.11226802               -1.47426314               28.67021418                2.63504575
              14.40404590                8.29831898               47.81470557                0.09801917                1.57548525                0.72740679               -4.16280232               -1.24111979               22.69526880                4.94489629
              15.41804666                7.95631674               47.71441947                0.32798277                1.18591677                0.78640970               -2.64676667               -0.46973459                8.01016234                1.11814413
              16.42776424                7.62308469               47.45317031                0.76765310                0.97175757                1.11350886               -3.75758734                0.03706563               -0.01720316               -1.82225383
               6.54216754               11.91819380               48.01923758                0.97909091                0.20975663                0.05055849               -0.35243958                0.07462650                0.32273566                0.53852209
               7.54426510               11.62665459               47.79361046                0.78254683                0.30519707                0.29042477               -1.02870135                0.10340392                0.74976858               -0.47977330
               8.54827148               11.33418509               47.57627877                0.47066608                2.83546080                0.48629273               -1.67566353               -2.14802047               14.72911746               -0.76893330
               9.60097432               10.99598727               47.62953015                0.36924038                4.64853991               -0.87475124               -1.97214239               -1.58634498               28.37665417               -0.24693807
              10.64124228               10.66764100               47.66811852                0.35981515                3.68418912               -0.43904929               -2.26976717               -0.50148869               28.25387440                0.17036054
              11.67465810               10.33509256               47.70273261                0.36852394                3.07278960               -0.16421322               -2.55257527               -0.40316961               28.98256520                0.49016279
              12.70269807                9.99801255               47.73953417                0.39481610                2.51847012                0.17425161               -2.86093348               -0.44255018               30.28518731                0.80594891
              13.72502750                9.65556918               47.78381812                0.44857627                1.95160969                0.54384980               -3.37151056               -0.58880594               32.27867433                1.36012046
              14.74173026                9.30925534               47.84512615                0.57039032                1.21952708                1.09363519               -4.51293166               -0.78385317               25.38874745                2.94047701
              15.74941805                8.96452340               47.73949182                0.68513963                0.89548443                0.82066590               -2.84830818               -0.58678212                9.00881328                1.02382029
              16.75963995                8.63477693               47.47053631                0.88204349                1.02219052                1.16922378               -3.95637953                0.21292379                0.87707551               -1.40579573
               3.62733959                2.03219173               49.72708465                1.00000000               -0.60018597               -0.68803219                2.37181094               -0.16420700               -1.16570202                1.06205812
               4.62133773                1.70001540               49.55605607                1.00000000               -0.51051746               -0.38855704                1.46425183               -0.09994390               -1.59406153                0.18080059
               5.61712924                1.36695839               49.37717220                1.00000000               -0.36516468               -0.10798158                0.59853466               -0.12621659               -1.64498160               -0.21509350
               6.61403444                1.03037063               49.20545552                0.69578376               -0.66643126                0.27068027               -0.25630037               -0.60639584               -0.97104764               -0.90059447
               7.60380061                0.68037784               49.04009953                0.75120307               -0.71554598                0.48637977               -0.76330483               -0.23735393               -0.28854092                0.05951867
               8.59972352                0.31988389               48.88410543                0.76737113               -0.24095866                0.63610176               -1.35630353               -0.30069328                0.30542199               -0.03119733
               9.59898144               -0.04910077               48.73514679                0.66223176                0.11403189                0.94443008               -2.02208190               -0.57868082                1.57621685               -0.41559070
              10.60200415               -0.42913976               48.61163165                0.53609642                1.39602129                1.27575325               -2.66728459               -0.21947493                4.34838071               -0.65210669
              11.62690187               -0.79511723               48.53473423                0.74116646                1.52568932                0.10444625               -0.96364682               -1.86265858                2.88710429                0.95301929
              12.63251794               -1.11708508               48.38499848                1.00000000                0.55917981                0.30996552               -1.28766689               -0.06382949               -0.38729299                0.13290281
              13.63808546               -1.43654911               48.22703024                1.00000000                0.55675231                0.57757113               -2.11714691               -0.15446001               -0.67015805               -0.43358146
               3.95787385                3.02531141               49.65499642                1.00000000               -0.49188934               -0.66180106                2.10059275               -0.00408383               -0.29387238                1.41128178
               4.95295496                2.69612983               49.48401461                1.00000000               -0.35921965               -0.35713592                1.19096362                0.05007709               -0.47294750                0.27269006
               5.95068946                2.36587858               49.31007031                1.00000000               -0.08471006               -0.07147701                0.29923443                0.01872830               -0.41187614               -0.36928950
               6.95126076                2.03307743               49.14051260                0.46329274                0.29904938                0.28034718               -0.58850770               -0.62352859                0.88599445               -1.24565034
               7.95667045                1.68524163               48.99250878                0.57412482                0.50975641                0.32023043               -1.27464601               -0.26014791                1.66503032                0.19767595
               8.96145588                1.32624491               48.84309714                0.60718575                0.55180047                0.64273103               -2.04127977               -0.33269170                1.80722621                0.02333998
               9.96770646                0.96034353               48.70028561                0.44675454                0.56808766                1.04873274               -2.95607305               -0.68256699                3.87029747               -0.77860328
              10.97281764                0.58361778               48.59291341                0.26955197               -0.77292555                1.80781906               -3.99470405               -1.23170069                9.74040196               -1.72623543
              11.95224794                0.20592723               48.56651139                0.56390285               -1.01110261                0.03042413               -1.19321921               -2.82532605                7.23401427                1.57165049
              12.95259559               -0.11398543               48.42028652                1.00000000                0.18784757                0.26002905               -0.80190393               -0.00534776                0.52315947                0.34743573
              13.95600490               -0.43077340               48.26336370                1.00000000                0.34093099                0.50083474               -1.64745880               -0.01550815                0.02980386               -0.45274791
               4.28562107                4.01895571               49.59077304                1.00000000               -0.38489740               -0.60444002                1.80060082               -0.00688857               -0.02868232                1.75613064
               5.28177210                3.69287268               49.41405125                1.00000000               -0.25324363               -0.28103999                0.91344247                0.02722041                0.05576222                0.30294681
               6.28055620                3.36552885               49.23951239                0.81021190                0.02143545                0.03318238                0.01230947               -0.06787500                0.29619599               -0.83789667
               7.28220081                3.03597757               49.06754560                0.00010000                1.24369906                0.33296031               -0.89376515               -1.07680522                2.92730179               -1.65194391
               8.30543018                2.68678244               48.94494056                0.00010000                1.78834864                0.36461535               -1.85042531               -2.17908435                3.96177935               -0.07893770
               9.31796778                2.33273851               48.80034643                0.00010000                1.12635239                0.90789728               -2.71191364               -2.60571305                2.73442751                1.44655953
              10.32795723                1.97187389               48.65379296                0.00010000                0.69093316                1.46761518               -3.58689574               -3.35790912                4.50171439                2.84265182
              11.33178645                1.60701663               48.54264303                0.00010000               -2.99793406                2.34890752               -5.02956376               -6.13443183               15.25115574                3.95151027
              12.26799855                1.20549125               48.60767779                0.20905315               -3.13374139                0.29275128               -0.13445611               -4.09286286               12.06183886                1.33765393
              13.26911162                0.88811550               48.46001164                1.00000000                0.16763518                0.12660508               -0.30515334               -0.05688679                0.81550071                0.59398924
              14.27135125                0.57346758               48.29829486                1.00000000                0.22396356                0.35225551               -1.15667853               -0.04141817                0.10700189               -0.42918254
               4.60990214                5.01322261               49.52629074                1.00000000               -0.29759185               -0.52826283                1.49522961               -0.03342856                0.10748397                1.55329445
               5.60692622                4.69050903               49.34278142                0.93145764               -0.18375366               -0.17889480                0.63617024               -0.01564542                0.25858214                0.06839581
               6.60622707                4.36654223               49.16262529                0.31125104                0.07724210                0.16091257               -0.19127874               -0.16640018                0.99617031               -1.31085227
               7.60847106                4.03973664               48.99354311                0.00010000                0.50503789                0.46027996               -1.16613785               -1.28973486                4.82903045               -1.94214217
               8.61632782                3.69253394               48.88921883                0.00010000                0.78895594                0.78579311               -1.91644824               -3.16653748                8.04937262                0.51936211
               9.62425018                3.34440285               48.78608074                0.00010000                0.49711666                1.18747365               -2.60738963               -3.87794737                8.31502017                3.14220101
              10.62627016                2.98969584               48.68933022                0.00010000               -0.38692702                1.65565527               -3.16615941               -4.69350052               10.37772036                6.03938292
              11.61651164                2.63059593               48.62962803                0.00010000               -1.84891715                1.60532475               -2.72612964               -7.93246167               15.49403577                7.54249863
              12.58929181                2.21178225               48.63941246                0.00010000               -1.65150607                2.47144786               -1.02071935               -3.47745770               11.03627991               -1.76409029
              13.58348152                1.88854667               48.50099399                0.23592623               -0.24097218                0.57186920               -0.00323776                0.37918446                1.60717381                0.86374741
              14.58447237                1.57627171               48.33467759                0.72573191                0.09908506               -0.46247853               -0.69662900                0.97339391                0.16276164               -0.52712733
               4.93037966                6.00839045               49.45854809                1.00000000               -0.22400907               -0.43814585                1.20095882               -0.05652948                0.21344803                1.20379410
               5.92813957                5.68929478               49.26820155                0.60381719               -0.11895378               -0.05139499                0.34128452               -0.05813110                0.42985216               -0.38964788
               6.92800059                5.36874711               49.08239763                0.10741901                0.11374126                0.31486836               -0.48146083               -0.23469472                1.53581381               -1.76877809
               7.93041440                5.04518317               48.91379633                0.00010000                0.47163163                0.44802670               -1.30250573               -1.20742588                7.77536078                0.13144676
               8.93743322                4.70249831               48.85211158                0.00010000                0.64162701                0.92595645               -1.82101508               -2.27386278               12.48595935                1.95254060
               9.94324694                4.35648798               48.77674243                0.00010000                0.52304621                1.08586005               -2.38145490               -2.63360789               12.17824383                3.52836751
              10.94789414                4.00498699               48.70831762                0.00010000                0.39019285                1.16588442               -2.61811323               -3.26518990               13.35925706                4.76395874
              11.95105079                3.63912312               48.65628395                0.00010000               -0.36977485                0.93212495               -2.37831783               -4.14582474               14.24640454                3.89936573
              12.94049865                3.25492021               48.60455103                0.00701055               -1.94224704                3.37121725               -1.75982779               -2.51385147               13.75705454               -0.98289445
              13.91220585                2.89955288               48.54704170                0.21247365               -1.25647904                1.21590004               -0.41175181               -0.50162001                6.60614408                1.68346488
              14.91536907                2.56421801               48.36794876                0.70675316                0.31632126               -0.93707028               -1.30489550                0.67809693                0.30291698               -1.77803321
               5.24696289                7.00445969               49.38744757                1.00000000               -0.15559423               -0.34572937                0.92033964               -0.03938456                0.04524766                0.90812198
               6.24540694                6.68948113               49.18770710                0.45218273               -0.06590519                0.05749141                0.08642023               -0.05087412                0.42870913               -0.72228202
               7.24564478                6.37283959               48.99577707                0.02874864                0.25821997                0.47474387               -0.72598518               -0.45841672                4.64576437               -2.26139964
               8.25057134                6.04869717               48.88003489                0.00010000                0.69504877                0.39789559               -0.78213917               -1.07460141               11.54129538                2.56025949
               9.25954576                5.71105307               48.82348373                0.00010000                0.92589968                0.74090331               -1.76465374               -1.84084757               14.73423532                2.57235574
              10.26908934                5.36612005               48.76834807                0.00010000                0.93927308                0.79610944               -2.21228085               -2.21132223               15.18910707                3.56422864
              11.27833122                5.01301353               48.71714070                0.00010000                0.72862979                0.70298051               -2.40399862               -2.71426822               15.78880461                4.13837725
              12.28366193                4.64923843               48.67041030                0.00010000                0.01269007                0.93731208               -2.29346402               -3.21555068               16.25320860                3.61699131
              13.27858502                4.27920660               48.62626963                0.02180584               -0.97553086                1.82084385               -1.82937468               -2.61381590               16.43061097                2.64636773
              14.26415132                3.91286468               48.58452100                0.24147909               -0.49404833                1.05712740               -1.10581841               -0.57105450                8.31032559                1.62632123
              15.26870405                3.55753030               48.38337798                0.73300073                0.45527390               -0.07677482               -2.30744519                0.14120834                0.21643331               -2.41038690
               5.55954910                8.00147586               49.31400260                1.00000000               -0.08069113               -0.25592833                0.65567200               -0.03534192                0.00906022                0.74514893
               6.55874219                7.69044461               49.10632571                0.38247003                0.00335555                0.12613098               -0.15048220               -0.01921937                0.31483409               -0.76305837
               7.55961621                7.37824198               48.90480353                0.00010000                0.59833533                0.57402654               -0.94500845               -0.64977719                7.81962780               -2.51503355
               8.57070889                7.05314108               48.84674942                0.00010000                1.17885898                0.49059685               -1.31277017               -1.22236897               15.71955935                1.52724061
               9.58319339                6.71731637               48.79772460                0.00010000                1.31755718                0.53694852               -1.77058414               -1.71054410               16.97262799                2.49408624
              10.59706004                6.37241017               48.75893610                0.00010000                1.36485088                0.50443877               -2.16918781               -2.07398088               17.97960629                3.37412218
              11.61049041                6.01904660               48.72353632                0.00010000                1.17433353                0.49357854               -2.35388020               -2.40351547               18.51162017                3.97662294
              12.62054671                5.65786936               48.68930950                0.00010000                0.70528366                0.67170366               -2.31482145               -2.51959514               18.71153354                4.04720487
              13.62459608                5.29133708               48.65359779                0.03638033                0.09571772                0.88916914               -2.04990208               -2.13400515               18.51711202                3.34704546
              14.62246106                4.92069543               48.61393007                0.26767082                0.21329512                0.72301256               -1.60494082               -0.66508082                9.26120987                1.28138977
              15.62886198                4.56268251               48.39325687                0.75412964                0.64009196                0.69463528               -2.85598892                0.12576516                0.17089229               -2.33851904
               5.86831855                8.99934112               49.23977759                0.96541196               -0.00621164               -0.17358865                0.40223534               -0.03793333                0.02072136                0.70178760
               6.86825644                8.69200375               49.02482755                0.36820600                0.08171064                0.18508108               -0.38363661                0.01925799                0.15115197               -0.75700138
               7.86995277                8.38432012               48.81245282                0.00010000                0.93965682                0.59716883               -1.15175261               -0.81307218                9.80172445               -2.52758392
               8.88704957                8.05850911               48.78991087                0.00010000                1.80565111                0.45880705               -1.54332820               -1.57139353               19.68170795                0.15554558
               9.90606579                7.72179204               48.76716171                0.00010000                1.94149576                0.30565514               -1.91251586               -1.82172047               20.26196812                1.90858676
              10.92587949                7.37620883               48.74707961                0.00010000                1.93679648                0.23796295               -2.21843766               -1.96650338               20.99336589                2.96350003
              11.94480172                7.02288510               48.72936300                0.00010000                1.75500303                0.26680736               -2.40938346               -2.11615206               21.49900665                3.75362765
              12.96097955                6.66267250               48.71042814                0.00010000                1.41385651                0.34646865               -2.45036127               -2.15201225               21.42046214                4.27787823
              13.97307885                6.29698998               48.68435637                0.05101386                0.92623596                0.41003867               -2.32689442               -1.91371554               20.29989096                4.01821374
              14.97950427                5.92732493               48.63937887                0.28758952                0.70831718                0.68319100               -2.01337337               -0.72293521                9.80034669                1.09561232
              15.98724519                5.57142301               48.40121125                0.76587886                0.77409234                0.93787463               -3.20998004                0.08658139                0.11820219               -2.26443538
               6.17346519                9.99800409               49.16558715                0.95551153                0.06831605               -0.08845547                0.15535647               -0.03487171                0.00525600                0.70198175
               7.17414835                9.69414623               48.94330817                0.40306522                0.16921094                0.23789581               -0.62105753                0.03451724               -0.00811359               -0.72137911
               8.17684940                9.39018536               48.72066407                0.00010000                1.38303808                0.55685122               -1.36027049               -1.07520100               11.53345062               -2.20109519
               9.20180911                9.06231722               48.72855550                0.00010000                2.61049284                0.18066578               -1.72471430               -1.89253166               23.28433272               -0.11828673
              10.22905926                8.72342948               48.73025473                0.00010000                2.74139029               -0.08283721               -2.05867240               -1.76222104               23.53927403                1.27941055
              11.25663691                8.37716943               48.73082214                0.00010000                2.63222163               -0.05076276               -2.33141779               -1.65773180               24.18453455                2.27676842
              12.28170369                8.02438275               48.73239557                0.00010000                2.33823320                0.06105651               -2.53057956               -1.71948277               24.82954269                3.11445830
              13.30340158                7.66479873               48.73352613                0.00010000                1.99828235                0.18068455               -2.66547803               -1.85324680               24.71400180                4.03511246
              14.32166934                7.29953786               48.72282273                0.06726472                1.50838781                0.24225355               -2.68367881               -1.66710450               21.92181773                5.24540416
              15.33356933                6.93435925               48.66306595                0.30449455                1.03640544                0.74082345               -2.36907437               -0.65134806                9.85977758                1.09130438
              16.34239745                6.58144001               48.40838093                0.76979742                0.88281159                1.04457628               -3.50312444                0.06091944                0.09511678               -2.25023994
               6.47533684               10.99757201               49.09148393                0.93252578                0.14286770                0.00233988               -0.09945302               -0.03680691               -0.00506160                0.61717641
               7.47676551               10.69676166               48.86217829                0.45118924                0.24704594                0.28772104               -0.85796627                0.01521380                0.06772001               -0.58714764
               8.48027776               10.39545715               48.63416271                0.00010000                1.95946554                0.52768604               -1.57423439               -1.52748599               13.21631840               -1.34172413
               9.51595482               10.06212242               48.66716544                0.00010000                3.78457039               -0.57976983               -1.92451417               -1.73113637               26.39603283               -0.09461114
              10.55596916                9.72013530               48.68928056                0.00010000                3.79083769               -0.51120554               -2.23712203               -1.23251432               26.48927321                0.67780322
              11.59177158                9.37519357               48.70805415                0.00010000                3.34067973               -0.32118566               -2.49100570               -0.95760607               27.19341920                1.28340845
              12.62278276                9.02410623               48.72815154                0.00010000                2.84939646               -0.08669157               -2.69333413               -1.01072485               28.19847640                1.84500430
              13.64875951                8.66628619               48.75134618                0.00010000                2.36967424                0.15224169               -2.89559068               -1.23534427               29.20562033                2.62152477
              14.67017624                8.30183505               48.77748849                0.09495750                1.79078255                0.44209725               -3.23310372               -1.11687725               23.96644194                4.50459986
              15.68457516                7.94214140               48.68757665                0.33025422                1.20629141                0.80762382               -2.67200326               -0.52880171                9.09070149                1.06022600
              16.69430207                7.59231453               48.41515101                0.76201701                0.97269123                1.13129657               -3.76343916                0.04140715               -0.05298426               -1.83678968
               6.77434975               11.99805089               49.01570052                0.97470564                0.22177373                0.04788745               -0.35267694                0.08626779                0.31356252                0.52983487
               7.77656749               11.69990065               48.78293203                0.77410762                0.32945866                0.31389906               -1.10777983                0.11460693                0.75677270               -0.46915089
               8.78093892               11.40073908               48.55878991                0.46772930                3.29703728                0.52819316               -1.82681423               -2.39282455               14.93591760               -0.74316152
               9.84250823               11.05072183               48.60884382                0.36912050                5.51994518               -1.14005966               -2.17517665               -1.72134495               28.83242107               -0.21468198
              10.89133783               10.71320537               48.64441180                0.35988031                4.55028140               -0.69299308               -2.48400309               -0.46193925               28.81790374                0.21994078
              11.93351386               10.37074572               48.67638472                0.36830360                3.95293759               -0.44478559               -2.72552934               -0.35359406               29.66769362                0.54629601
              12.97039658               10.02264892               48.71064373                0.39383946                3.37260023               -0.14573077               -2.91037404               -0.38372533               31.01833851                0.84766374
              14.00096587                9.66784357               48.75113948                0.44104917                2.65400055                0.15573786               -3.11661621               -0.49282009               32.81518832                1.31382547
              15.02347659                9.30837980               48.80424553                0.56861720                1.57739771                0.65447485               -3.52234307               -0.53655738               26.67924697                2.65700546
              16.03251382                8.95051173               48.71041945                0.68791494                0.97013644                0.83703314               -2.91160651               -0.42182711               10.15629281                0.97683457
              17.04287932                8.60406594               48.43047434                0.87978874                1.03654986                1.17514047               -3.97005943                0.21314576                0.84274936               -1.42850011
               3.79147322                2.11607019               50.75159641                1.00000000               -0.63383725               -0.73081288                2.52443024               -0.18337464               -1.11332223                1.02035908
               4.78513485                1.77519003               50.57098957                1.00000000               -0.53323400               -0.40000059                1.51742052               -0.11697970               -1.51172118                0.17140479
               5.78080854                1.43340192               50.38302294                1.00000000               -0.36695682               -0.08877720                0.56474750               -0.14368973               -1.52091050               -0.21627008
               6.77779571                1.08805467               50.20233915                0.69203194               -0.69256928                0.32548630               -0.37883110               -0.55307380               -0.62246809               -0.88463929
               7.76695716                0.73090487               50.03190013                0.73935247               -0.84045872                0.62829396               -0.92556875               -0.24661575                0.31660290                0.01334545
               8.76098654                0.36399481               49.86982934                0.74794450               -0.50045848                0.79432154               -1.58395806               -0.30800165                0.95661414               -0.05601348
               9.75694799               -0.01325895               49.71400670                0.62988977               -0.55212784                1.19544499               -2.34184405               -0.81588679                2.35701182               -0.35284581
              10.74994398               -0.40937275               49.58323430                0.45493511                0.50649744                1.90335737               -3.18809824               -1.08944549                6.38997334               -0.28535013
              11.76707793               -0.81446246               49.52142868                0.39952652                1.84282325                0.38531126               -2.23452774               -2.22812110                2.96045367                2.05277733
              12.78680045               -1.15278133               49.37032276                1.00000000                1.34502014                0.29735459               -1.54789810               -0.53571382                0.24767405                0.26134138
              13.79397834               -1.47913026               49.20472498                1.00000000                0.71778913                0.62720438               -2.31883594               -0.27022374               -0.43102251               -0.34314962
               4.13051964                3.10876206               50.67672211                1.00000000               -0.52204513               -0.70001233                2.23935857               -0.00574968               -0.27893847                1.35683737
               5.12529919                2.77119002               50.49613710                1.00000000               -0.37901586               -0.36681042                1.22984462                0.05124176               -0.44361493                0.26227351
               6.12293932                2.43251415               50.31281942                1.00000000               -0.08928444               -0.05152571                0.24733017                0.02597427               -0.36670914               -0.36274706
               7.12351350                2.09130954               50.13391482                0.47364244                0.17908047                0.33208372               -0.73607133               -0.49887955                1.06401207               -1.22109610
               8.12652093                1.73718781               49.97913590                0.57795485                0.32374665                0.46545714               -1.43026792               -0.21184555                1.93593229                0.12472201
               9.12998843                1.37193802               49.82186659                0.59979715                0.44759830                0.77617143               -2.25746046               -0.28557108                1.94886346                0.03074175
              10.13547290                0.99869550               49.66933960                0.42187091                0.48314261                1.23871456               -3.29618529               -0.75359337                3.78119083               -0.51473356
              11.13965128                0.60966083               49.54962346                0.18599788               -0.94859400                2.31967111               -4.74935854               -2.57854674               11.34912990               -0.92076045
              12.11650102                0.18939065               49.54887803                0.25470186               -1.29370383               -0.02078953               -4.05003743               -4.62982569               11.05838980                4.77674759
              13.11377721               -0.14980779               49.41217224                1.00000000                0.05620047                0.22364082               -0.84379827               -0.64253270                1.46689860                0.44240880
              14.11762503               -0.47285821               49.24616476                1.00000000                0.38478191                0.54164304               -1.76119965               -0.09139144                0.03449475               -0.34643850
               4.46650231                4.10206994               50.60938644                1.00000000               -0.40947112               -0.63374425                1.91907478               -0.00785264               -0.02294772                1.68657963
               5.46240760                3.76785382               50.42331108                1.00000000               -0.26468984               -0.28641116                0.93553957                0.03246576                0.05651551                0.29098367
               6.46120851                3.43237141               50.23929701                0.81889126                0.03684301                0.04986485               -0.05671009               -0.04893119                0.28440964               -0.78271331
               7.46314446                3.09469635               50.05774150                0.00010000                1.04416223                0.37997913               -1.06124783               -0.89574523                2.91674627               -1.58789599
               8.48209176                2.74021402               49.92586289                0.00010000                1.53114839                0.47525721               -1.97037232               -1.86305044                3.86155781                0.08516346
               9.49376743                2.37951824               49.77235383                0.00010000                1.10307801                0.95522704               -2.91160792               -2.39318090                2.55580787                1.87914111
              10.50415332                2.01151534               49.61650200                0.00010000                0.69552362                1.44927196               -3.93004418               -3.32047650                4.04703122                3.83780393
              11.50767790                1.63702067               49.49185248                0.00010000               -3.51016414                2.25541632               -5.36912987               -8.25249268               17.79601818                6.33986201
              12.43395003                1.18512175               49.60622705                0.17565989               -3.57396199                0.57679102               -0.59025607               -6.59252111               15.37955009                3.51408151
              13.43619866                0.85169148               49.45741418                1.00000000                0.21506652                0.07112839               -0.27149407               -0.57882139                1.13584064                0.53880758
              14.43825136                0.53170260               49.28669418                1.00000000                0.20527061                0.35922583               -1.12744658               -0.07088973                0.03699075               -0.31507324
               4.79879484                5.09608718               50.54173339                1.00000000               -0.31477956               -0.54945200                1.59229249               -0.03406187                0.11212278                1.49078364
               5.79564704                4.76546180               50.34916373                0.90399009               -0.18383333               -0.17876497                0.63824381               -0.01304797                0.27840538                0.04911375
               6.79511817                4.43351145               50.16026407                0.29927825                0.10544723                0.18042582               -0.28379444               -0.14962637                0.96009626               -1.25315854
               7.79775598                4.09890912               49.98100459                0.00010000                0.46599314                0.51052997               -1.33667288               -1.12198478                4.84600845               -1.79365060
               8.80443803                3.74669296               49.86909042                0.00010000                0.65337499                0.85106815               -2.10083537               -2.75756906                8.14995632                1.00393340
               9.81082348                3.39104257               49.75876388                0.00010000                0.35614489                1.20284404               -2.84195861               -3.59786863                8.44274348                3.95136615
              10.81156093                3.02768094               49.65606427                0.00010000               -0.49142292                1.53348623               -3.46097327               -4.73059116               11.04198888                7.42712880
              11.80099503                2.65476915               49.60015665                0.00010000               -2.07905721                1.22999590               -3.15119173               -9.22558799               17.28590820                9.96683603
              12.76997978                2.20092647               49.62407423                0.00010000               -2.26875505                3.53019038               -2.20070643               -4.94900509               13.99037328               -0.75998469
              13.75561992                1.85161478               49.50193618                0.20051019               -0.68973955                1.18404380                0.15009665               -0.00932520                2.78698783                0.26869653
              14.75618499                1.53432630               49.32826254                0.69392004                0.05650693               -0.53292867               -0.56408529                1.49465539                0.17245115               -1.08358115
               5.12707183                6.09108090               50.47093291                1.00000000               -0.23494589               -0.45200955                1.27683333               -0.05626222                0.19652210                1.15893353
               6.12472237                5.76427852               50.27154282                0.57716200               -0.11515822               -0.04698975                0.32594330               -0.05488693                0.43107532               -0.39704703
               7.12476866                5.43597992               50.07706997                0.09594321                0.14004408                0.34622839               -0.58488663               -0.22040216                1.55782380               -1.73670532
               8.12752325                5.10490695               49.89983010                0.00010000                0.50191325                0.53662055               -1.48564231               -1.00882729                7.96414113                0.67527825
               9.13480693                4.75723538               49.83283238                0.00010000                0.66494080                0.96969414               -2.02990449               -1.94660870               12.77887471                2.47203549
              10.14082207                4.40357512               49.75164821                0.00010000                0.55039884                1.10289090               -2.62480195               -2.37727692               12.59698937                4.28451777
              11.14581491                4.04218507               49.68062030                0.00010000                0.45492707                1.08954630               -2.90408990               -3.19540944               14.19680915                5.83274601
              12.14992061                3.66162059               49.63050802                0.00010000               -0.38453011                0.84826830               -2.76301061               -4.54328576               15.60170286                4.97978171
              13.13812430                3.25572556               49.58480480                0.00010000               -2.36541422                4.13608181               -2.12486093               -3.22396084               15.96823653               -0.28778222
              14.10261232                2.87537236               49.54234284                0.19260521               -1.77014366                2.28518828               -0.71016739               -0.73581487                8.24123979                1.33300317
              15.10272143                2.52104403               49.35367518                0.68788966                0.01091064               -0.61052475               -1.64549550                0.69453870                0.51790653               -2.80663141
               5.45127436                7.08704699               50.39695220                1.00000000               -0.16240772               -0.35455913                0.98093291               -0.03878254                0.03444135                0.88044817
               6.44965028                6.76452200               50.18842074                0.43270487               -0.05963307                0.06478170                0.05627363               -0.04072921                0.42821053               -0.70223196
               7.45008170                6.44043601               49.98788947                0.01873242                0.33368503                0.51045830               -0.85129847               -0.40104812                5.05464254               -2.20541304
               8.45632398                6.10964153               49.87144957                0.00010000                0.83779937                0.51541286               -0.96136185               -0.81915473               11.88447133                2.91780070
               9.46683769                5.76608684               49.80468699                0.00010000                1.10021362                0.75640139               -1.99537150               -1.51859178               14.86545337                2.99995377
              10.47832826                5.41310038               49.74499462                0.00010000                1.13847901                0.76464072               -2.45827840               -1.95849040               15.74194376                4.13486083
              11.48960727                5.04947187               49.69181356                0.00010000                0.91302840                0.63325953               -2.66155005               -2.60681103               16.67436273                4.80258754
              12.49658882                4.67173452               49.64620527                0.00010000                0.10707675                0.93869114               -2.54951789               -3.39800853               17.58913945                4.25658320
              13.49174880                4.28364811               49.60690131                0.01772904               -1.05018347                2.09181958               -2.08153168               -2.95866631               18.28698836                3.09052254
              14.47558515                3.89731855               49.57270364                0.22970370               -0.65081860                1.61216854               -1.31894004               -0.61286206                9.49946491                1.41738746
              15.47873243                3.52211581               49.35867503                0.71906469                0.31472752                0.56222614               -2.64185611                0.23442057                0.39566396               -2.77759816
               5.77134614                8.08398972               50.32076801                0.99237840               -0.08273848               -0.26277793                0.70083069               -0.03432701                0.01281267                0.73210243
               6.77051876                7.76557415               50.10462635                0.36766045                0.01410161                0.13695175               -0.19051710               -0.00391167                0.32344307               -0.73344316
               7.77162817                7.44618909               49.89473769                0.00010000                0.74852863                0.60384505               -1.07445019               -0.55234955                8.04552974               -2.43900726
               8.78548933                7.11521520               49.83251252                0.00010000                1.46740326                0.55830166               -1.53610876               -0.97973898               16.12983007                1.47997165
               9.80097624                6.77236341               49.77887601                0.00010000                1.63889497                0.51569277               -2.00844369               -1.44484721               17.40939055                2.79135305
              10.81826723                6.41886793               49.73608894                0.00010000                1.70341547                0.43236133               -2.41034401               -1.83605885               18.58986635                3.76523958
              11.83504455                6.05485026               49.69897585                0.00010000                1.47584839                0.41634103               -2.57269854               -2.26272562               19.41175293                4.39273314
              12.84778420                5.68039442               49.66538233                0.00010000                0.91611998                0.66227088               -2.49450494               -2.55320106               19.94699395                4.39796093
              13.85336695                5.29756195               49.63258273                0.03488404                0.20515930                1.01355449               -2.18603766               -2.36091957               20.10002983                3.50845548
              14.85188738                4.90761573               49.59751778                0.26104193                0.22241860                0.88921195               -1.68672051               -0.77892809               10.19306410                1.18152847
              15.85781532                4.53228855               49.36378360                0.74287674                0.59279373                1.04582575               -2.99363802                0.16496785                0.22273233               -2.28210825
               6.08741896                9.08179143               50.24396568                0.95837410               -0.00462735               -0.17929881                0.43877949               -0.03698704                0.02615966                0.69918346
               7.08737268                8.76726104               50.02073955                0.35511830                0.09873508                0.19947014               -0.43634650                0.03006114                0.16634883               -0.72838059
               8.08939366                8.45251291               49.80028725                0.00010000                1.15911022                0.62557484               -1.28321598               -0.73178613               10.02051419               -2.45071134
               9.11055489                8.12080756               49.77347130                0.00010000                2.24471780                0.44372637               -1.75272826               -1.38591594               20.12003809                0.27701899
              10.13428801                7.77640069               49.74688520                0.00010000                2.42826695                0.22399800               -2.15474173               -1.62403859               20.78561626                2.10456238
              11.15912022                7.42174761               49.72383041                0.00010000                2.42691291                0.11393985               -2.44812484               -1.74814848               21.66477241                3.23019756
              12.18282627                7.05779869               49.70451706                0.00010000                2.18464445                0.14497852               -2.58182936               -1.91930761               22.37857158                4.01535733
              13.20281311                6.68497994               49.68570298                0.00010000                1.72414118                0.28554811               -2.52558089               -2.06245464               22.54718483                4.45904041
              14.21730909                6.30391920               49.66139994                0.05158274                1.12334367                0.44606060               -2.30261834               -2.08044288               21.66922454                4.06997354
              15.22527999                5.91510279               49.61917406                0.28498789                0.76885244                0.74038957               -2.01165669               -0.87792314               10.56462242                1.01867720
              16.23268614                5.54303232               49.36881572                0.75661750                0.74061559                1.06368213               -3.21114192                0.08753314                0.12437013               -2.14343747
               6.39966718               10.08040375               50.16726226                0.94986294                0.07313140               -0.09365306                0.18073763               -0.03536022                0.00431714                0.69860547
               7.40039849                9.76956356               49.93679562                0.38931019                0.18893739                0.25612441               -0.68168487                0.04132467                0.01260387               -0.69547714
               8.40344593                9.45870059               49.70640028                0.00010000                1.67423688                0.59244682               -1.49553755               -1.05551203               11.76670984               -2.13168355
               9.43388323                9.12408973               49.71030152                0.00010000                3.20547471                0.08733398               -1.93667407               -1.80217855               23.74864724                0.00144367
              10.46755542                8.77684337               49.70854234                0.00010000                3.40115173               -0.24851022               -2.29915469               -1.62622261               24.10229563                1.43905758
              11.50190627                8.42114673               49.70652360                0.00010000                3.29353245               -0.24536645               -2.54710147               -1.46703968               24.88391427                2.46089499
              12.53342607                8.05774983               49.70660708                0.00010000                2.92541650               -0.14383660               -2.64870976               -1.49141218               25.68910884                3.28641912
              13.56041460                7.68610538               49.70744572                0.00010000                2.41045855               -0.00160540               -2.57954865               -1.63836832               25.75995686                4.13479323
              14.58163524                7.30648316               49.69787050                0.06882991                1.74006006                0.15344925               -2.34896695               -1.69233388               23.13340399                5.21147949
              15.59521580                6.92242352               49.63948005                0.30537595                1.10358348                0.75324894               -2.31650671               -0.80013879               10.50414602                1.02332192
              16.60370691                6.55356219               49.37346274                0.76222333                0.84911146                1.06115834               -3.41630468                0.05735177                0.08197785               -2.15178642
               6.70839213               11.07991837               50.09055510                0.92475903                0.15102062               -0.00232115               -0.08446957               -0.03805472               -0.00181055                0.60979135
               7.70990233               10.77238353               49.85325112                0.43533577                0.26825562                0.31002615               -0.92818114                0.01780814                0.09478227               -0.56802572
               8.71375724               10.46436185               49.61771933                0.00010000                2.32330998                0.56834448               -1.71838368               -1.60985831               13.45387308               -1.29773434
               9.75636853               10.12255424               49.64689492                0.00010000                4.54746606               -0.78764345               -2.14040278               -1.74068719               26.87504182               -0.01883800
              10.80470656                9.77143049               49.66578975                0.00010000                4.62522166               -0.75330186               -2.47675393               -1.16049669               27.08071259                0.77487538
              11.84887297                9.41684028               49.68221555                0.00010000                4.16664086               -0.58946973               -2.69397397               -0.83173780               27.92121507                1.39163178
              12.88803938                9.05492196               49.70093926                0.00010000                3.62197251               -0.38841909               -2.76472205               -0.85042209               29.06326665                1.94393362
              13.92131242                8.68494783               49.72363762                0.00010000                2.95524467               -0.19231414               -2.66128850               -1.03094497               30.19418528                2.67422640
              14.94714427                8.30698818               49.75004349                0.09680329                2.04428794                0.11991032               -2.30154646               -1.01900398               25.08101691                4.43089995
              15.96219818                7.93016776               49.66097941                0.33561756                1.22057804                0.79754810               -2.60379451               -0.58166995                9.66847345                1.00490825
              16.97155583                7.56425549               49.37790153                0.75672500                0.93576570                1.09990332               -3.61780380                0.04268497               -0.08098437               -1.76199208
               7.01397576               12.08035732               50.01218404                0.97005293                0.23354074                0.04389564               -0.34867296                0.09903929                0.30488715                0.52215065
               8.01631117               11.77576408               49.77145487                0.76548692                0.35511403                0.33805529               -1.18881232                0.12639135                0.76729886               -0.45647885
               9.02107805               11.47006748               49.53974248                0.46489920                3.78448380                0.57056246               -1.98302258               -2.63928043               15.15832674               -0.72022151
              10.09200085               11.10833686               49.58602662                0.36899583                6.44907023               -1.42173800               -2.39716143               -1.85127597               29.31174774               -0.17551427
              11.15005945               10.76177733               49.61843846                0.35997847                5.48895976               -0.96531612               -2.72240030               -0.41368762               29.42593312                0.27167490
              12.20178004               10.40935734               49.64822202                0.36805597                4.91253159               -0.74829456               -2.91817072               -0.29908650               30.43195615                0.60383277
              13.24831008               10.04998145               49.68132669                0.39279357                4.29747135               -0.49405087               -2.95946588               -0.32784180               31.92999878                0.90024637
              14.28772947                9.68225910               49.72148580                0.43549862                3.38625722               -0.26887333               -2.81600900               -0.41329887               33.83257718                1.33346553
              15.31603523                9.30888137               49.77467929                0.57001995                1.92928110                0.18931829               -2.41072728               -0.30513524               27.75521003                2.61750419
              16.32631509                8.93837448               49.68125969                0.69251803                1.01749682                0.82067192               -2.86375066               -0.25436372               10.67534126                0.91436471
              17.33638516                8.57556026               49.39113512                0.87789286                1.00700703                1.13047719               -3.82037084                0.20151056                0.79302828               -1.38575266
               3.96628682                2.20234750               51.77757326                1.00000000               -0.66100447               -0.76893868                2.66081525               -0.20208085               -1.04916020                0.97256420
               4.95967677                1.85314842               51.58640448                1.00000000               -0.54626844               -0.40946316                1.55867648               -0.13451600               -1.41077948                0.16134273
               5.95536145                1.50304003               51.38846715                1.00000000               -0.34844484               -0.06904641                0.51659935               -0.15948597               -1.37393366               -0.21448349
               6.95270788                1.14952649               51.19787890                0.68617984               -0.63594865                0.37266675               -0.52467288               -0.49167693               -0.24244456               -0.86512941
               7.94264248                0.78617321               51.02158815                0.72331639               -0.79793235                0.76001011               -1.19598840               -0.26238236                0.98037167               -0.01096870
               8.93674923                0.41468914               50.85242627                0.71837617               -0.49628785                0.96461201               -2.00321175               -0.30181241                1.71552527               -0.08762929
               9.93271672                0.03317652               50.68830991                0.57674710               -0.71837924                1.43770409               -2.97871768               -0.83004322                3.36383105               -0.30525910
              10.92238165               -0.36762508               50.54786968                0.33587660               -1.68471194                2.42094680               -4.31245001               -2.31883028                8.97005952                0.12539701
              11.89902248               -0.80896040               50.49004368                0.12922770                1.58967359                2.56242072               -3.72076798               -0.21215889                6.16713448                2.50126374
              12.95417512               -1.19555722               50.35404052                1.00000000                3.08190456                0.33285498               -1.62244068               -2.81939237                1.73910608                0.30632005
              13.96066057               -1.52629167               50.18065352                1.00000000                0.64854551                0.66203011               -2.41802947               -0.26852800               -0.18786274               -0.24947587
               4.31346509                3.19465812               51.69978359                1.00000000               -0.54797418               -0.73357423                2.36406042               -0.00913081               -0.25666457                1.29560753
               5.30798535                2.84905379               51.50861150                1.00000000               -0.39437684               -0.37413458                1.25954702                0.05032610               -0.40073184                0.25031776
               6.30557756                2.50234957               51.31501692                1.00000000               -0.08804168               -0.03050490                0.18817082                0.03259447               -0.30457254               -0.35452339
               7.30622452                2.15325316               51.12579117                0.47926175                0.09298877                0.38016975               -0.89189905               -0.36571400                1.29464461               -1.19313260
               8.30743733                1.79377331               50.96390342                0.57297828                0.20024681                0.61789921               -1.66349093               -0.17556845                2.34086168                0.07136413
               9.31022945                1.42433526               50.79794793                0.57575550                0.40680321                0.93674478               -2.59889462               -0.22620778                2.25380288                0.00281078
              10.31557340                1.04755356               50.63436190                0.36880205                0.50161749                1.43643871               -3.78761630               -0.55341918                3.80843022               -0.37314525
              11.32026180                0.65658439               50.49792624                0.06184127               -0.23532173                2.54528784               -5.65826648               -2.76448187               11.61107161               -0.22253616
              12.31086696                0.21666381               50.48551064                0.00010000               -1.78074870                0.47685441               -7.89333293               -6.89038403               15.58900335               10.21169084
              13.28464683               -0.19222867               50.40341056                1.00000000               -1.10786067                0.23424656               -0.92584993               -3.95744949                4.65437649                0.43575758
              14.28870975               -0.51967137               50.22813971                1.00000000                0.40629185                0.56800054               -1.80664024               -0.10074574                0.01425685               -0.23294500
               4.65731286                4.18767602               51.62915453                1.00000000               -0.43210100               -0.65831500                2.02847170               -0.01008733               -0.01155091                1.60795360
               5.65299185                3.84566573               51.43276205                1.00000000               -0.27494426               -0.28971143                0.95087434                0.03661043                0.06803994                0.27526227
               6.65181397                3.50242993               51.23837819                0.82400439                0.04890017                0.06782628               -0.12812948               -0.02626365                0.28820289               -0.73150911
               7.65396985                3.15712989               51.04632064                0.00010000                0.81175198                0.42609325               -1.21789606               -0.67791814                2.99000306               -1.51771418
               8.66804901                2.79853120               50.90553311                0.00010000                1.22374894                0.59349027               -2.13393968               -1.47877645                3.98103274                0.21040536
               9.67844483                2.43342403               50.74211427                0.00010000                1.06750965                0.99002697               -3.17754962               -2.03620815                2.57050660                2.23696750
              10.68939920                2.06190529               50.57519207                0.00010000                0.97684667                1.32832775               -4.40186685               -2.99997900                3.81719279                4.71150401
              11.69798176                1.68328068               50.43526044                0.00010000               -3.96856740                1.73463587               -5.64054228               -9.36852783               20.52268574                8.66707082
              12.61002786                1.20057669               50.59587267                0.14365821               -4.33102291                0.06705026               -3.23245607              -10.88500854               18.94722494                7.32670057
              13.61136130                0.80912772               50.45458176                0.92414342                0.17516047                0.06103057               -0.32501385               -3.25611067                1.91137035                0.45575008
              14.61353106                0.48506834               50.27574593                1.00000000                0.21697609                0.36452282               -1.12369364               -0.07799145                0.05265406               -0.20819565
               4.99728392                5.18149182               51.55813659                1.00000000               -0.33202782               -0.56628515                1.68493720               -0.03435397                0.11911639                1.41909651
               5.99396365                4.84325956               51.35554630                0.87585907               -0.18478985               -0.17844490                0.63666293               -0.00767778                0.30202301                0.02553560
               6.99358813                4.50370609               51.15694941                0.28632372                0.13006220                0.19788363               -0.37926527               -0.12143650                0.93913420               -1.19788043
               7.99656489                4.16177502               50.96680965                0.00010000                0.39897650                0.55569357               -1.50045269               -0.90490061                4.92100984               -1.63800802
               9.00156766                3.80564312               50.84720212                0.00010000                0.47831521                0.89056251               -2.27990625               -2.22478143                8.35720154                1.39416545
              10.00613119                3.44413579               50.72924157                0.00010000                0.20747562                1.12617850               -3.06765705               -3.12845133                8.71383373                4.65837077
              11.00571717                3.07412012               50.62011076                0.00010000               -0.59556705                1.19936667               -3.69242051               -4.46436894               11.84470973                8.70984349
              11.99421985                2.69127711               50.56660420                0.00010000               -1.91987086                0.46947292               -3.61784798               -9.75983555               18.74631445               12.26080732
              12.96731975                2.21800481               50.59539833                0.00010000               -2.95934447                3.28803942               -3.12564388               -7.21422263               17.39373471                0.62498251
              13.93503296                1.80899195               50.50399593                0.15846516               -1.60255415                2.31588843                0.23982177               -1.67933767                4.71701885               -0.65820990
              14.93526867                1.48761909               50.32339589                0.65797089                0.02357060               -0.36977248               -0.48534794                2.33928688                0.23698443               -1.99082526
               5.33309029                6.17635032               51.48408475                1.00000000               -0.24662724               -0.46291308                1.35267216               -0.05381282                0.18014358                1.10744559
               6.33062401                5.84209683               51.27472042                0.55083518               -0.11102542               -0.04533018                0.30805314               -0.04462355                0.43589875               -0.40654859
               7.33086978                5.50638760               51.07069990                0.08376058                0.16553976                0.36787599               -0.69165619               -0.18662003                1.59313470               -1.70406968
               8.33393481                5.16824376               50.88408348                0.00010000                0.51614155                0.62978750               -1.65594287               -0.75733970                8.19334357                1.21988410
               9.34119261                4.81634245               50.81151349                0.00010000                0.67319978                0.96826987               -2.23718861               -1.52770179               13.15522069                2.90868299
              10.34739881                4.45594760               50.72424639                0.00010000                0.58889517                1.01203689               -2.85027156               -1.98896877               13.11416211                4.92916672
              11.35297051                4.08589263               50.65023583                0.00010000                0.57507744                0.82948063               -3.16653225               -2.91934040               15.11145150                6.76441583
              12.35890035                3.69267014               50.60102374                0.00010000               -0.24709749                0.41093368               -3.09233832               -4.67090167               17.08192730                5.98006774
              13.34802856                3.26633748               50.56205382                0.00010000               -2.53700396                3.76171544               -2.43039270               -4.33589930               18.28819197                0.79870572
              14.30816028                2.85544548               50.53283835                0.16944209               -2.24830220                3.85227697               -1.44981920               -1.06653261               10.16949045                0.98724836
              15.30306252                2.47767289               50.33503885                0.66754188               -0.50977559                0.21254133               -2.29908238                0.69303482                1.12959177               -3.87244034
               5.66471463                7.17223355               51.40706623                1.00000000               -0.16807501               -0.36229394                1.04133926               -0.03814058                0.02414004                0.85043258
               6.66303388                6.84235296               51.18883257                0.41298754               -0.05029171                0.06800547                0.02584826               -0.02762978                0.42681802               -0.68162109
               7.66370880                6.51106361               50.97875110                0.00834367                0.42146842                0.53382274               -0.97683277               -0.31056631                5.46813949               -2.14910502
               8.67146325                6.17437077               50.86080766                0.00010000                0.98004879                0.62375182               -1.19877719               -0.54113638               12.26477237                3.24870071
               9.68330978                5.82500852               50.78357630                0.00010000                1.26691926                0.73013869               -2.22930820               -1.16910388               15.07085109                3.35200352
              10.69680164                5.46437653               50.71918250                0.00010000                1.36490249                0.64657872               -2.70882701               -1.64700350               16.37589435                4.60069528
              11.71060783                5.09070973               50.66390970                0.00010000                1.17776659                0.41525680               -2.92255131               -2.42095949               17.64866597                5.35844718
              12.72035697                4.69949578               50.61941995                0.00010000                0.36092956                0.68303643               -2.81431324               -3.52456266               19.00264504                4.83379337
              13.71782642                4.29323912               50.58463900                0.01282826               -0.89950370                2.03350465               -2.39484062               -3.35128132               20.21477508                3.48101091
              14.70236690                3.88603748               50.55814220                0.21560775               -0.65759326                2.12050486               -1.68786571               -0.72040040               10.76684371                1.39723510
              15.70467455                3.49186991               50.33054085                0.70388064                0.23076563                1.46133853               -2.99599427                0.46936593                0.68692408               -2.81144482
               5.99208867                8.16910444               51.32801921                0.98244176               -0.08473082               -0.27015070                0.74977099               -0.03578097                0.01749911                0.72098101
               6.99124136                7.84345694               51.10251536                0.35235658                0.02759833                0.14569548               -0.23257994                0.00937904                0.33117487               -0.70366935
               7.99264064                7.51706406               50.88331452                0.00010000                0.89629076                0.62898512               -1.21120151               -0.44078232                8.27293388               -2.36001336
               9.00916718                7.18071879               50.81602724                0.00010000                1.75820677                0.59448575               -1.76124625               -0.73648541               16.56494236                1.40878007
              10.02780477                6.83094522               50.75755572                0.00010000                1.97951735                0.46042232               -2.26641813               -1.18651957               17.90510663                3.02290230
              11.04875752                6.46887918               50.71072922                0.00010000                2.08136521                0.30007955               -2.67525646               -1.60030113               19.26945883                4.06766092
              12.06943208                6.09419776               50.67208235                0.00010000                1.85610920                0.24256439               -2.82645088               -2.13277823               20.38887597                4.72491998
              13.08587971                5.70633086               50.63941940                0.00010000                1.25145775                0.51470716               -2.72781677               -2.62533950               21.25442114                4.69934915
              14.09446123                5.30700757               50.60987704                0.03325257                0.46208830                0.99312814               -2.39659048               -2.66547172               21.75848286                3.70903757
              15.09512147                4.89785558               50.58019566                0.25315711                0.31618746                0.98493581               -1.80734302               -0.95469333               11.16402998                1.19819729
              16.10078498                4.50689966               50.33338411                0.73072479                0.56635064                1.35026041               -3.05839709                0.19314426                0.30143926               -1.98192088
               6.31529401                9.16683054               51.24855318                0.95124704               -0.00321645               -0.18588301                0.47839653               -0.03656016                0.02701536                0.69850944
               7.31526184                8.84526687               51.01610062                0.34144170                0.11686475                0.21340870               -0.49061312                0.04169087                0.18558208               -0.69768793
               8.31763130                8.52364331               50.78678850                0.00010000                1.37952706                0.65277722               -1.42149034               -0.64846569               10.24716649               -2.36757945
               9.34285238                8.18626049               50.75485630                0.00010000                2.68938503                0.41018391               -1.97705972               -1.19767676               20.56821302                0.37804160
              10.37141900                7.83421696               50.72406688                0.00010000                2.93453450                0.11804287               -2.42238382               -1.44020224               21.34589856                2.24487151
              11.40154307                7.47037812               50.69811711                0.00010000                2.95407851               -0.04384941               -2.71600911               -1.55815078               22.39800900                3.42547144
              12.43050057                7.09556102               50.67772641                0.00010000                2.67486503               -0.02544123               -2.80700691               -1.77282624               23.34205943                4.22262417
              13.45504037                6.70978992               50.65991652                0.00010000                2.12458467                0.16145508               -2.67357965               -2.05008734               23.75983109                4.66456394
              14.47299227                6.31310168               50.63830400                0.05284384                1.41702814                0.40581597               -2.36601274               -2.31059317               23.07464763                4.27368949
              15.48338094                5.90573620               50.59914574                0.28216167                0.87285056                0.75823784               -1.99530819               -1.06440092               11.32095229                1.00284499
              16.49044928                5.51887512               50.33698841                0.74658627                0.70683404                1.12094022               -3.12031589                0.07822433                0.14501350               -1.89015084
               6.63448481               10.16538678               51.16920190                0.94392797                0.07775911               -0.09922381                0.20823607               -0.03543733                0.00501214                0.69567001
               7.63526241                9.84772511               50.92967447                0.37513492                0.20964436                0.27375176               -0.74270624                0.04839561                0.03988397               -0.66513334
               8.63867770                9.53011960               50.69075332                0.00010000                1.96887937                0.62584726               -1.63883201               -1.03612641               12.00708167               -2.06006209
               9.67463999                9.18892247               50.68982202                0.00010000                3.81026950               -0.01199616               -2.16891247               -1.71403324               24.21636212                0.09962899
              10.71488309                8.83330608               50.68427164                0.00010000                4.08052315               -0.42401393               -2.57232688               -1.50382492               24.69287907                1.55599275
              11.75625046                8.46800219               50.67988011                0.00010000                3.98403303               -0.45251685               -2.80655240               -1.30569215               25.64575848                2.59221495
              12.79456375                8.09368894               50.67942138                0.00010000                3.55434189               -0.36478637               -2.82313744               -1.31583862               26.67197967                3.42970872
              13.82733729                7.70955997               50.68193515                0.00010000                2.88696687               -0.20296435               -2.57328202               -1.50332234               26.97804011                4.31217214
              14.85230309                7.31512389               50.67584339                0.07229599                2.03613620                0.02712879               -2.12145632               -1.75385523               24.29920499                5.56592572
              15.86806002                6.91302034               50.61673582                0.30696992                1.18842682                0.73618566               -2.22171014               -0.95498829               11.00574796                0.98115605
              16.87607163                6.52931847               50.34005484                0.75419139                0.80116085                1.02635932               -3.23135497                0.04925613                0.08039346               -1.96568611
               6.94990858               11.16484606               51.08979454                0.91662795                0.15883434               -0.00753750               -0.06608053               -0.03936498                0.00183614                0.60404254
               7.95149693               10.85074190               50.84361466                0.41856973                0.29014169                0.33192380               -0.99917473                0.02034051                0.12738654               -0.54758526
               8.95571142               10.53616026               50.59979504                0.00010000                2.69441588                0.60843746               -1.86832965               -1.69326664               13.70084117               -1.25312695
              10.00538524               10.18602056               50.62435738                0.00010000                5.32756854               -0.99871592               -2.37799197               -1.75081777               27.35845396                0.04632393
              11.06226279                9.82573668               50.63974548                0.00010000                5.48305631               -0.99823146               -2.74985299               -1.09573919               27.69786323                0.84781562
              12.11504637                9.46132779               50.65417467                0.00010000                5.01816169               -0.85963785               -2.93842773               -0.72285514               28.71754563                1.46915352
              13.16262602                9.08826529               50.67285710                0.00010000                4.42463034               -0.69049779               -2.88390229               -0.72140639               30.09387644                2.02765183
              14.20353898                8.70573064               50.69812041                0.00010000                3.59143838               -0.53717235               -2.49629696               -0.88467579               31.58944809                2.79535663
              15.23445479                8.31364426               50.73145756                0.10247380                2.32738081               -0.18327997               -1.51207561               -0.93834583               26.05757159                4.72389431
              16.25008659                7.92045991               50.63550076                0.34281249                1.21916777                0.76090581               -2.47159313               -0.63685750                9.80817350                0.94742188
              17.25883814                7.53940231               50.34279493                0.75127441                0.87515511                1.02826189               -3.36917573                0.04010966               -0.09174573               -1.62789840
               7.26190584               12.16523603               51.00872706                0.96500958                0.24491810                0.03899621               -0.34052643                0.11248210                0.29672884                0.51567486
               8.26435502               11.85436359               50.75915579                0.75581071                0.38139332                0.36216890               -1.27056490                0.13842576                0.78478174               -0.44382709
               9.26953371               11.54228835               50.51912945                0.46223863                4.28460958                0.61280939               -2.14101633               -2.88854299               15.39406581               -0.69578330
              10.35004721               11.16894815               50.56090059                0.36893726                7.40636899               -1.70724119               -2.63643594               -1.98114839               29.80614934               -0.13314800
              11.41766109               10.81334145               50.58996379                0.36004320                6.46087685               -1.23952354               -2.98627924               -0.36710630               30.07302555                0.32000164
              12.47926475               10.45080943               50.61802130                0.36783439                5.90358445               -1.05183561               -3.14025280               -0.25128542               31.27405258                0.65650999
              13.53573278               10.07987898               50.65145441                0.39177994                5.25000287               -0.83863057               -3.03900576               -0.28897023               33.02270415                0.96029127
              14.58426481                9.69881652               50.69481930                0.43160614                4.15370599               -0.69141171               -2.56307762               -0.34845173               35.31050304                1.42058994
              15.61880689                9.31145829               50.75603099                0.57385791                2.26500060               -0.21859704               -1.43273633               -0.09369266               28.62806243                2.82212402
              16.62956482                8.92823845               50.65314444                0.69826872                1.00910682                0.77785401               -2.72280116               -0.13090673               10.62417251                0.84380544
              17.63898903                8.54988370               50.35406692                0.87596406                0.94242125                1.04813954               -3.54804558                0.17961360                0.74334794               -1.29057370
               4.15282757                2.29110080               52.80481271                1.00000000               -0.68022036               -0.80078653                2.77456131               -0.21949939               -0.98010998                0.92292407
               5.14602536                1.93400284               52.60216310                1.00000000               -0.54860581               -0.41640298                1.58556914               -0.15181810               -1.30347516                0.15127445
               6.14185545                1.57601272               52.39335492                1.00000000               -0.30997729               -0.05000729                0.45525891               -0.17249029               -1.22726782               -0.20950283
               7.13982582                1.21492754               52.19184569                0.68015464               -0.49191153                0.40776014               -0.68675557               -0.42848054                0.08913149               -0.84141519
               8.13201722                0.84605497               52.00798037                0.70562950               -0.56252648                0.86151717               -1.56303391               -0.27001448                1.52113840               -0.01029649
               9.12857529                0.47119889               51.82976511                0.68407489               -0.16180152                1.11073434               -2.58161818               -0.27308218                2.25140739               -0.10975058
              10.12878119                0.08853189               51.65443235                0.51589163               -0.04819444                1.58185486               -3.85162025               -0.62064047                3.76365160               -0.28772546
              11.12761140               -0.30697792               51.49698530                0.21317323               -2.22657005                2.47972746               -5.64971552               -2.88389233               10.93193372                0.30390427
              12.08424979               -0.75537111               51.44701332                0.00010000                0.16806626                4.31665875               -5.17756053               -3.06615666               11.35333195               -0.65429124
              13.13097273               -1.24539501               51.33787395                1.00000000                2.63726407                0.37611373               -1.67108484               -7.85975758                3.48144574                0.29059411
              14.13699507               -1.57909215               51.15636439                1.00000000                0.60223460                0.64826264               -2.40841592               -0.22403510               -0.11983695               -0.24787330
               4.50773053                3.28309294               52.72400332                1.00000000               -0.56793067               -0.76123914                2.46867234               -0.01397726               -0.23000726                1.23273916
               5.50205123                2.92983881               52.52132804                1.00000000               -0.40311657               -0.37892868                1.27774962                0.04695429               -0.35030633                0.23752699
               6.49966820                2.57551264               52.31658283                1.00000000               -0.07656684               -0.01019897                0.12192900                0.03624244               -0.23620262               -0.34503205
               7.50051989                2.21900514               52.11607684                0.48380257                0.07566005                0.41980210               -1.04980354               -0.24393644                1.51634033               -1.15810791
               8.50118140                1.85467014               51.94586608                0.56280491                0.20430595                0.75342292               -1.97412681               -0.13986752                2.74177109                0.04529051
               9.50460601                1.48230623               51.76988869                0.54358307                0.52408956                1.08825333               -3.04754782               -0.16881985                2.54594392               -0.04328707
              10.51166319                1.10435043               51.59358727                0.30822960                0.80589837                1.57323408               -4.37688667               -0.29585310                3.69707277               -0.38720882
              11.52072397                0.71781935               51.43645813                0.00010000                0.55667872                2.43310298               -6.26686889               -2.33576716               10.62059953                0.38887210
              12.52279677                0.28779548               51.39101138                0.00010000               -2.82441529               -1.14304083               -6.62032171              -12.50649018               18.39835031                9.77035768
              13.46423567               -0.24163387               51.39365524                1.00000000               -2.71724546                0.28080636               -1.02146591               -9.84124602                9.30304038                0.41869174
              14.46845186               -0.57260952               51.21003196                1.00000000                0.42161888                0.56873308               -1.81714322               -0.09851363                0.01400336               -0.21533825
               4.85905627                4.27587602               52.64995588                1.00000000               -0.45115260               -0.67770247                2.12336776               -0.01381379                0.00426723                1.52645113
               5.85454474                3.92642427               52.44232856                1.00000000               -0.28211474               -0.29123374                0.95846009                0.03780902                0.08903897                0.25623133
               6.85341397                3.57580874               52.23673442                0.82353763                0.06224271                0.08597431               -0.20128351               -0.00656965                0.30883350               -0.68853305
               7.85578960                3.22332358               52.03338358                0.00010000                0.62524030                0.46904879               -1.36669787               -0.46408666                3.10178369               -1.44820181
               8.86591878                2.86112342               51.88318410                0.00010000                0.98645000                0.69628746               -2.36408217               -1.11954385                4.22504442                0.32096971
               9.87551860                2.49296396               51.70880284                0.00010000                1.07161159                0.98858163               -3.50979110               -1.67706735                2.67285817                2.52558750
              10.88735101                2.11999657               51.52846467                0.00010000                1.09662091                1.12418124               -4.87359577               -2.59252607                4.00327060                5.45064964
              11.89745101                1.74168413               51.37904163                0.00010000               -4.68888998                0.82013228               -5.42176143              -10.91593623               21.10822220               10.52421545
              12.79357321                1.22176807               51.54157793                0.11534141               -5.14491044               -2.02752498               -5.45669793              -16.18985191               23.60062545               10.30518731
              13.79455281                0.76022111               51.45091390                0.81043631                0.17014422                0.09139317               -0.40662696               -6.58792433                4.87264097                0.45916595
              14.79697610                0.43228251               51.26422030                1.00000000                0.24232904                0.39131990               -1.20318363               -0.11021507                0.09035148               -0.17562159
               5.20635775                5.26953889               52.57543214                1.00000000               -0.34830675               -0.57879196                1.76828908               -0.03511945                0.13005987                1.34349556
               6.20287469                4.92401414               52.36189699                0.84590226               -0.18601292               -0.17814988                0.63196395               -0.00131470                0.33112094               -0.00348727
               7.20263750                4.57723213               52.15267877                0.27205638                0.15243908                0.21440504               -0.47502088               -0.08868518                0.93720686               -1.15371593
               8.20592347                4.22838612               51.95099554                0.00010000                0.32563274                0.59915223               -1.66205800               -0.69246555                5.05304384               -1.48664404
               9.20915015                3.86859589               51.82349229                0.00010000                0.31340250                0.89557162               -2.47563393               -1.72392968                8.66308454                1.69469515
              10.21219152                3.50207786               51.69741074                0.00010000                0.09711708                0.96267795               -3.30833017               -2.64487256                9.15848661                5.23548056
              11.21109249                3.12683406               51.58221586                0.00010000               -0.57788867                0.68389385               -3.89501044               -4.19701468               12.72949914                9.85732307
              12.20063374                2.73422200               51.52779969                0.00010000               -1.53148714               -0.66389685               -4.02119798               -9.86494657               20.42375235               13.67778486
              13.18046275                2.24724498               51.56156135                0.00010000               -3.93355006                3.03454629               -4.21274942               -9.77638439               20.73143438                2.31319160
              14.12196274                1.76019399               51.50673261                0.11757872               -2.91689930                4.03749721                0.29724468               -3.67819065                6.97674508               -2.07262565
              15.12212476                1.43521687               51.31855558                0.62913815                0.01620196                0.20838724               -0.52598704                3.69909683                0.31048924               -3.40285043
               5.54940337                6.26430018               52.49798635                1.00000000               -0.25781709               -0.47088537                1.42333306               -0.05055477                0.16528006                1.05094058
               6.54682520                5.92286127               52.27770388                0.52730036               -0.10675417               -0.04597521                0.28870895               -0.02881258                0.44636773               -0.41987672
               7.54726829                5.58009684               52.06323685                0.07138557                0.18756620                0.38035767               -0.80215458               -0.13613687                1.65506084               -1.68048348
               8.55057653                5.23530663               51.86671125                0.00010000                0.52400728                0.71428349               -1.81283142               -0.50956110                8.46866351                1.71332150
               9.55774844                4.87903486               51.78808861                0.00010000                0.69032225                0.92443948               -2.45526325               -1.11797006               13.61425140                3.23195351
              10.56438297                4.51221751               51.69464278                0.00010000                0.67590748                0.82767964               -3.08164017               -1.60195949               13.74344202                5.40221419
              11.57126659                4.13367444               51.61728966                0.00010000                0.76790956                0.39801169               -3.42603967               -2.62803329               16.17267440                7.37443421
              12.57974116                3.72840620               51.56866126                0.00010000                0.04034720               -0.21036336               -3.41752517               -4.79683831               18.69530985                6.63088364
              13.57207353                3.28245900               51.53619695                0.00010000               -2.33620345                2.91000649               -2.71689817               -5.52879168               20.41774430                1.36473081
              14.53301709                2.84097106               51.51334645                0.14449980               -2.55806350                5.88559767               -2.72429690               -1.14756548               12.08527050                0.03226298
              15.52091226                2.43645026               51.30769353                0.64909714               -1.21048346                1.61623888               -3.20546736                0.82536132                2.15936041               -5.07054637
               5.88822447                7.26012118               52.41777899                1.00000000               -0.17226975               -0.36888941                1.09811773               -0.03763211                0.01657588                0.81704376
               6.88650178                6.92309463               52.18893770                0.39498430               -0.03775345                0.06857253               -0.00497317               -0.01300775                0.42618149               -0.66134901
               7.88746940                6.58483928               51.96835281                0.00010000                0.51462258                0.54272891               -1.09946105               -0.20580821                5.85422321               -2.09790006
               8.89679423                6.24267179               51.84747403                0.00010000                1.12052283                0.70177677               -1.48657580               -0.28920777               12.66170448                3.51189728
               9.90987986                5.88708468               51.76010082                0.00010000                1.43592571                0.66480095               -2.47259276               -0.87061858               15.36766167                3.59064988
              10.92551274                5.51863146               51.69081808                0.00010000                1.62316410                0.45345133               -2.97712478               -1.37717865               17.08966050                4.88623381
              11.94234314                5.13479429               51.63336253                0.00010000                1.51998412                0.09287532               -3.21124257               -2.28757113               18.70793784                5.67603876
              12.95591242                4.73001473               51.58991900                0.00010000                0.74894558                0.27393130               -3.11962863               -3.70062094               20.46246303                5.11063033
              13.95732205                4.30544511               51.55900450                0.00613551               -0.54461240                1.78093499               -2.81684175               -3.82109862               22.07852998                3.54498829
              14.94502018                3.87790594               51.53894632                0.19836129               -0.48242297                2.48025360               -2.30095904               -0.96298221               11.99331934                1.55835239
              15.94767359                3.46754165               51.29875514                0.68858346                0.26534191                2.48761595               -3.36925327                0.79131787                1.04471059               -2.54809611
               6.22270382                8.25692239               52.33576343                0.97307444               -0.08568780               -0.27711238                0.79592885               -0.03697109                0.02125450                0.70963084
               7.22184694                7.92423272               52.09997475                0.33795869                0.04355766                0.15267691               -0.27493067                0.01881259                0.33734686               -0.67241944
               8.22357498                7.59095142               51.87051366                0.00010000                1.03500177                0.64416221               -1.34617273               -0.33893312                8.49882331               -2.27971658
               9.24254698                7.24934216               51.79728759                0.00010000                2.04007093                0.59509146               -1.98781746               -0.53869973               17.01220782                1.31542604
              10.26437639                6.89233088               51.73354765                0.00010000                2.32914021                0.37487658               -2.54725553               -0.99951548               18.43826167                3.14633904
              11.28912978                6.52128654               51.68258381                0.00010000                2.48777496                0.12373459               -2.97493297               -1.44453980               19.99962713                4.21999016
              12.31413189                6.13553195               51.64244683                0.00010000                2.29740734                0.00589244               -3.13469369               -2.09384036               21.41256614                4.87973566
              13.33507793                5.73388482               51.61082600                0.00010000                1.68142258                0.28703657               -3.04248217               -2.79672660               22.58404343                4.82425718
              14.34776034                5.31807770               51.58465092                0.03010748                0.82914877                0.89907607               -2.71069935               -3.05289594               23.43768079                3.81114815
              15.35166091                4.89057613               51.56137092                0.24240055                0.48534265                1.03567910               -2.01593736               -1.19403381               12.15263857                1.32266272
              16.35746720                4.48620258               51.30261566                0.71747017                0.58062916                1.55084631               -3.10005463                0.17401817                0.40921921               -1.55019371
               6.55286439                9.25457893               52.25353361                0.94423764               -0.00153865               -0.19233035                0.51570545               -0.03715328                0.02527924                0.69863106
               7.55284900                8.92614817               52.01092728                0.32822041                0.13584573                0.22570612               -0.54199297                0.04707009                0.20398213               -0.66417092
               8.55558130                8.59772253               51.77185744                0.00010000                1.58958855                0.67706957               -1.56378172               -0.58547607               10.47462088               -2.28318302
               9.58464077                8.25457362               51.73393010                0.00010000                3.11819341                0.36195362               -2.21486067               -1.04975714               21.01480048                0.43405317
              10.61794517                7.89458221               51.69843752                0.00010000                3.43900493               -0.00231284               -2.71936007               -1.32444723               21.92205511                2.29764366
              11.65342087                7.52110615               51.66951022                0.00010000                3.49614408               -0.21765326               -3.03366430               -1.45640762               23.16541706                3.50415325
              12.68786805                7.13491214               51.64837693                0.00010000                3.20056362               -0.21593196               -3.10611230               -1.73359800               24.35137930                4.31844766
              13.71743214                6.73575546               51.63223139                0.00010000                2.58523878                0.01300551               -2.92195869               -2.15050316               25.00905703                4.82266373
              14.73957283                6.32342663               51.61407968                0.05353083                1.77912394                0.32852075               -2.55086370               -2.60388037               24.50992883                4.54987644
              15.75301462                5.89861952               51.57926789                0.27748717                1.01641209                0.75577472               -2.00287153               -1.27048227               12.09425079                1.02729499
              16.75990107                5.49855858               51.30640940                0.73549581                0.68864474                1.11196885               -2.99281519                0.05438266                0.18243099               -1.58897382
               6.87882227               10.25307578               52.17142698                0.93782316                0.08224749               -0.10524383                0.23715439               -0.03668278                0.00591249                0.69461964
               7.87964475                9.92874684               51.92194149                0.36107865                0.23088682                0.29011681               -0.80275395                0.05087962                0.06874032               -0.63289252
               8.88344001                9.60449281               51.67362364                0.00010000                2.25237035                0.66003260               -1.78626251               -1.03577828               12.24624898               -1.98593834
               9.92469216                9.25658123               51.66692327                0.00010000                4.39574521               -0.10857300               -2.42118161               -1.66308933               24.67332610                0.15988089
              10.97135492                8.89228462               51.65709580                0.00010000                4.74897710               -0.59437795               -2.88323820               -1.43731951               25.29107787                1.60570623
              12.01967170                8.51693348               51.65039255                0.00010000                4.67278537               -0.65119962               -3.12407418               -1.21899623               26.44498746                2.64220122
              13.06481062                8.13121331               51.65014433                0.00010000                4.19408408               -0.57350918               -3.08057978               -1.23427132               27.73922534                3.51368010
              14.10355338                7.73414493               51.65598008                0.00010000                3.40040254               -0.38923217               -2.68582043               -1.47482105               28.31043569                4.52521824
              15.13281867                7.32464811               51.65544137                0.07631973                2.37829656               -0.10740750               -2.05465243               -1.85553909               25.43411399                6.22955561
              16.15111931                6.90569163               51.59504584                0.30768450                1.29290344                0.70440295               -2.12769343               -1.10982534               11.42167791                0.94364701
              17.15867674                6.50844195               51.30883564                0.74516741                0.75574311                0.95634291               -3.00812341                0.03660770                0.09173990               -1.75325068
               7.20078861               11.25247405               52.08923349                0.90828521                0.16609592               -0.01349999               -0.04482897               -0.04082371                0.00541314                0.60070771
               8.20244957               10.93195051               51.83326763                0.40085702                0.31213685                0.35292244               -1.06930803                0.02043946                0.16504368               -0.52708809
               9.20703135               10.61092318               51.58035274                0.00010000                3.05688022                0.64950852               -2.02237056               -1.78869033               13.94979436               -1.20774253
              10.26358717               10.25240216               51.59933508                0.00010000                6.09075954               -1.19968745               -2.63734081               -1.78155955               27.83034250                0.09186883
              11.32884654                9.88269465               51.61079269                0.00010000                6.32625403               -1.22719440               -3.06272185               -1.06378345               28.32481819                0.88361714
              12.39011225                9.50808216               51.62344699                0.00010000                5.85623145               -1.10696074               -3.24107935               -0.65769574               29.56496272                1.50150380
              13.44597117                9.12344196               51.64326121                0.00010000                5.21943327               -0.96103281               -3.08392077               -0.64778952               31.25736951                2.08439587
              14.49450092                8.72797082               51.67371168                0.00010000                4.24720936               -0.84359086               -2.45857374               -0.81769504               33.30910872                2.96501642
              15.53091535                8.32127848               51.71980198                0.11031873                2.62616781               -0.42355562               -0.95923617               -0.89052875               26.91623131                5.30378177
              16.54702428                7.91270758               51.61154755                0.34998878                1.21086077                0.71358019               -2.32720502               -0.69748750                9.61299786                0.88066693
              17.55513257                7.51768544               51.31051801                0.74479411                0.81082938                0.93814254               -3.08686630                0.03430584               -0.08362320               -1.47474118
               7.51905289               12.25280578               52.00537351                0.95974482                0.25515210                0.03317291               -0.32789562                0.12637911                0.28949322                0.51110074
               8.52160441               11.93580529               51.74604357                0.74551538                0.40808327                0.38547847               -1.35059386                0.14934405                0.80993208               -0.43167095
               9.52721456               11.61748298               51.49692216                0.45967197                4.78425413                0.65597982               -2.30440051               -3.14256944               15.64137192               -0.67427299
              10.61728950               11.23258748               51.53329790                0.36878347                8.35923433               -1.98146705               -2.89245477               -2.11688016               30.30618294               -0.09028924
              11.69439924               10.86774073               51.55871287                0.36015441                7.42404895               -1.49539179               -3.28289255               -0.33439060               30.75044485                0.35918693
              12.76577048               10.49479426               51.58541696                0.36759155                6.87834641               -1.32878959               -3.40990391               -0.22158182               32.18516211                0.69800415
              13.83196617               10.11199265               51.62054658                0.39073626                6.17962415               -1.14493029               -3.18508763               -0.27655670               34.27346198                1.02271020
              14.88936296                9.71727312               51.67022425                0.42898573                4.91525795               -1.06976995               -2.42156761               -0.30457892               37.15547901                1.56859439
              15.93027133                9.31617700               51.74602457                0.57917609                2.56998226               -0.51014779               -0.74618833                0.07010331               29.31798793                3.17437707
              16.94076260                8.91996323               51.62680367                0.70406021                0.95679103                0.72556464               -2.54407410               -0.07477721               10.15152711                0.77203432
              17.94940715                8.52720480               51.32017421                0.87340288                0.86445489                0.95193668               -3.22621952                0.15161557                0.70758080               -1.16876034
               4.35198384                2.38242477               53.83306448                1.00000000               -0.69187867               -0.82550376                2.86242079               -0.23491036               -0.91260466                0.87530393
               5.34506506                2.01784402               53.61811586                1.00000000               -0.54251717               -0.42051519                1.59821187               -0.16806588               -1.20100092                0.14219369
               6.34113350                1.65239415               53.39757233                1.00000000               -0.25999959               -0.03247221                0.38634239               -0.18328638               -1.10016526               -0.20133147
               7.33986507                1.28423588               53.18414379                0.67508129               -0.29938371                0.43172308               -0.84905345               -0.36961387                0.31000404               -0.81457026
               8.33514583                0.91019585               52.99032748                0.68668544               -0.22698353                0.92795379               -1.95828333               -0.26793857                1.80299179                0.00770973
               9.33532540                0.53224696               52.80079390                0.64909433                0.28118663                1.21848308               -3.17937310               -0.24401046                2.35984873               -0.12069470
              10.34076956                0.14911216               52.61127750                0.45618065                0.65569778                1.66649071               -4.64411143               -0.41939540                3.45785704               -0.30443045
              11.34843935               -0.24049266               52.43487537                0.09991037               -2.77845426                2.27981529               -6.30580962               -4.27669077               11.15789110                0.28037626
              12.28520047               -0.71004234               52.38649247                0.00010000               -1.69931964                2.75486892               -7.31478805               -9.39712527               13.34425465               -5.39285231
              13.31445296               -1.30130792               52.32061882                0.94523908                1.80412351                0.44131418               -2.03987572              -12.70368689                5.90220729                0.25880996
              14.32128294               -1.63858427               52.13248520                1.00000000                0.68299866                0.67502224               -2.68658160               -0.23229064               -0.01496893               -0.46627735
               4.71421549                3.37416973               53.74915704                1.00000000               -0.58157864               -0.78242731                2.54993832               -0.01963736               -0.20190919                1.17289617
               5.70839971                3.01363886               53.53416649                1.00000000               -0.40553945               -0.38113006                1.28437608                0.04143629               -0.29873290                0.22540229
               6.70610470                2.65206943               53.31745550                1.00000000               -0.05658150                0.00845924                0.05211132                0.03581860               -0.17210062               -0.33368209
               7.70726808                2.28855311               53.10479510                0.48666082                0.11780995                0.45056369               -1.20107197               -0.14516317                1.67674444               -1.11567987
               8.70846090                1.91947539               52.92442088                0.54830007                0.30795302                0.85642646               -2.30735055               -0.10682552                3.01037582                0.05025434
               9.71342714                1.54443179               52.73699698                0.51017756                0.72422538                1.20833870               -3.51165731               -0.12011479                2.68138375               -0.08855654
              10.72294541                1.16577706               52.54682417                0.25271766                1.09112774                1.65887702               -4.89782991               -0.18350161                3.56431839               -0.46215251
              11.73524969                0.78230550               52.37258886                0.00010000               -0.06542775                2.14580420               -6.25717024               -4.48385621               12.33496907                0.89416303
              12.72163686                0.31750635               52.35310421                0.00010000               -4.17813196               -2.69135987               -2.29965234              -17.71163273               20.57957993                2.00336729
              13.65168705               -0.29689478               52.38298124                1.00000000               -3.27002364                0.32707950               -1.17423755              -13.88108026               11.03574914                0.42810893
              14.65623638               -0.63183405               52.19179684                1.00000000                0.45493300                0.58082786               -1.92057712               -0.12180956                0.05084571               -0.34328252
               5.07265283                4.36677622               53.67162189                1.00000000               -0.46587469               -0.69192388                2.19979616               -0.01848443                0.02312378                1.44736862
               6.06799408                4.01022141               53.45193125                1.00000000               -0.28586032               -0.29121831                0.95846895                0.03634188                0.11648132                0.23651466
               7.06693563                3.65256334               53.23435252                0.81856572                0.07808790                0.10299568               -0.27403234                0.00773736                0.34043683               -0.65375080
               8.06955584                3.29324715               53.01898668                0.00010000                0.50975080                0.50806818               -1.51087879               -0.28473946                3.20616574               -1.38387152
               9.07713064                2.92732438               52.85825147                0.00010000                0.85327908                0.75785609               -2.62012072               -0.84400935                4.44874368                0.44336238
              10.08662142                2.55641373               52.67191845                0.00010000                1.10475877                0.92868396               -3.86373761               -1.39422335                2.79783641                2.77891450
              11.09922582                2.18228970               52.47772016                0.00010000                1.02057595                0.83322610               -5.23460249               -2.35087534                4.66042444                6.06754812
              12.10703294                1.80242343               52.32682521                0.00010000               -4.45288584               -0.35461572               -4.95175142              -12.90297573               22.14676089               11.46642067
              13.01016810                1.23613046               52.48673871                0.09084849               -6.04305976               -2.39283602               -5.73895993              -20.79055510               28.40896405                8.38273112
              13.98617175                0.70523367               52.44644922                0.72306684               -1.07214087                0.10008313               -0.44185043               -9.86057972                7.83031053                0.51016141
              14.98872528                0.37303229               52.25168226                1.00000000                0.25535344                0.39614516               -1.23836532               -0.14033106                0.11262092               -0.24388151
               5.42695542                5.36033125               53.59350237                1.00000000               -0.36159901               -0.58769720                1.83798692               -0.03627561                0.14542918                1.26762564
               6.42333943                5.00781450               53.36818558                0.82011552               -0.18608546               -0.17814177                0.62353528                0.00524387                0.36351241               -0.03537514
               7.42323371                4.65412934               53.14744899                0.25724907                0.17364065                0.22702771               -0.56712363               -0.05360086                0.94839181               -1.12359687
               8.42681224                4.29871448               52.93356849                0.00010000                0.25902148                0.63922712               -1.82080381               -0.52981784                5.22063076               -1.34396787
               9.42841414                3.93463251               52.79768944                0.00010000                0.18825548                0.85243029               -2.69596629               -1.36467718                9.02725080                1.93609385
              10.43057735                3.56300547               52.66307496                0.00010000                0.07520321                0.70854094               -3.57513067               -2.28728749                9.72594711                5.70600553
              11.42991821                3.18244159               52.54221055                0.00010000               -0.36139696               -0.00275287               -4.10233003               -4.23062886               13.76472485               10.72749281
              12.42334941                2.77521318               52.48618024                0.00010000               -1.34513441               -1.96274666               -4.26161112              -10.29628199               21.51496185               14.07350954
              13.40301552                2.26964963               52.51114334                0.00010000               -5.28878908                3.00292398               -5.22309350              -13.42880754               24.02734790                2.75325803
              14.31757363                1.70510688               52.50994082                0.08507604               -4.25914994                5.93216829                0.33544412               -5.06817078               10.10461804               -4.26673957
              15.31783252                1.37608886               52.31287615                0.61122854                0.02588856                1.15150558               -0.60175921                5.53971231                0.32960572               -5.34359677
               5.77696083                6.35502228               53.51255142                1.00000000               -0.26599587               -0.47669500                1.48356676               -0.04770530                0.15341995                0.99131488
               6.77430087                6.00665858               53.28049460                0.50841247               -0.09986002               -0.04796952                0.26949973               -0.01370668                0.45794331               -0.43673593
               7.77496363                5.65710389               53.05465680                0.05930345                0.20777228                0.38497258               -0.90487572               -0.08018267                1.74038377               -1.66431262
               8.77845632                5.30603170               52.84782686                0.00010000                0.52912381                0.76589490               -1.95117475               -0.32969070                8.77692305                2.12368662
               9.78554611                4.94437299               52.76240822                0.00010000                0.73051405                0.83649822               -2.68405843               -0.82711662               14.11945735                3.44675319
              10.79306660                4.57058455               52.66261359                0.00010000                0.84297077                0.55773526               -3.33752415               -1.36912818               14.45966800                5.68588127
              11.80240552                4.18223464               52.58171503                0.00010000                1.04163317               -0.16841300               -3.70671429               -2.58342995               17.28802624                7.63015370
              12.81389926                3.76316849               52.53267324                0.00010000                0.46463650               -0.78347690               -3.79457793               -5.27154244               20.39545672                6.74267412
              13.81169825                3.29618894               52.50771585                0.00010000               -1.77650791                2.30176424               -3.15956496               -6.59686427               21.93005353                1.80483856
              14.77836910                2.82387703               52.47835241                0.12122276               -2.70713379                8.20365946               -4.21324072               -0.76087684               13.38500375               -2.20670198
              15.75755558                2.39606240               52.27092951                0.63595417               -2.08135276                3.49485025               -4.00580528                1.62446711                3.41856388               -7.04876183
               6.12272871                7.35079735               53.42902858                1.00000000               -0.17450285               -0.37399235                1.14488862               -0.03771037                0.01138327                0.78041070
               7.12098369                7.00685511               53.18873311                0.37976538               -0.02358865                0.06801965               -0.03486276               -0.00156841                0.42643937               -0.64189782
               8.12225694                6.66182879               52.95676188                0.00010000                0.59828245                0.54306051               -1.21023961               -0.12410513                6.18563962               -2.04777157
               9.13294933                6.31403237               52.83107614                0.00010000                1.25310082                0.72697721               -1.78975277               -0.12726444               13.05136920                3.68267037
              10.14731896                5.95136248               52.73412444                0.00010000                1.61919010                0.55811569               -2.72801967               -0.70722633               15.74452842                3.69967123
              11.16533314                5.57416017               52.65964001                0.00010000                1.91733513                0.20011429               -3.27513693               -1.27524331               17.84186785                4.96522884
              12.18566566                5.17907333               52.59968485                0.00010000                1.93155645               -0.27282778               -3.55785852               -2.37904156               19.80034422                5.69536161
              13.20396427                4.75954364               52.55702737                0.00010000                1.23520180               -0.13324375               -3.52682988               -4.09655932               21.85462958                5.02296574
              14.21036970                4.31568491               52.52830217                0.00010000               -0.07408136                1.59832046               -3.40449511               -4.46959503               23.69821247                3.10571255
              15.20248264                3.86918007               52.51212301                0.17854851               -0.22092854                3.00551176               -3.27182880               -1.39293236               13.10645623                1.94448445
              16.20595113                3.44598586               52.26315579                0.67431899                0.34684871                3.60895667               -3.83264567                1.12679437                1.50688279               -2.30834150
               6.46409112                8.34754243               53.34393779                0.96319223               -0.08530532               -0.28288730                0.83459263               -0.03816974                0.02549896                0.69866137
               7.46323806                8.00801897               53.09701675                0.32529189                0.06065731                0.15807990               -0.31508676                0.02283173                0.34122874               -0.64021808
               8.46530426                7.66796510               52.85639107                0.00010000                1.15696428                0.65204425               -1.47242571               -0.27918847                8.71529022               -2.20016237
               9.48637735                7.32057124               52.77627089                0.00010000                2.29847600                0.56367509               -2.21573918               -0.44054122               17.44907924                1.19901794
              10.51127378                6.95553530               52.70661061                0.00010000                2.67367668                0.26296051               -2.85011860               -0.95116917               18.97634344                3.13670800
              11.53985088                6.57458683               52.65123056                0.00010000                2.90837174               -0.07538591               -3.32034282               -1.45891695               20.74176062                4.18664035
              12.56944122                6.17677808               52.60938847                0.00010000                2.77528041               -0.24204271               -3.52354680               -2.24709410               22.42791108                4.80922264
              13.59535649                5.76050362               52.57856975                0.00010000                2.16143554                0.07727367               -3.48126045               -3.15341205               23.87609929                4.70529320
              14.61266993                5.32815535               52.55566305                0.02462965                1.24265091                0.88119235               -3.18988106               -3.53658550               25.08484542                3.76137016
              15.62020951                4.88398727               52.53987691                0.22798002                0.69049762                1.17135522               -2.38056137               -1.47301102               13.15479764                1.61316192
              16.62647988                4.46824153               52.27138302                0.70360354                0.62703718                1.74449030               -3.19968410                0.11861473                0.57132837               -1.09723892
               6.80101224                9.34513961               53.25886729                0.93671174                0.00054130               -0.19815728                0.55049572               -0.03814386                0.02421858                0.70208257
               7.80101765                9.01001671               53.00526076                0.31590979                0.15543327                0.23539744               -0.59011885                0.04662828                0.21932191               -0.63035092
               8.80412090                8.67486968               52.75551287                0.00010000                1.77753300                0.69702188               -1.70200290               -0.56970927               10.68992263               -2.19764049
               9.83656831                8.32530587               52.71055909                0.00010000                3.50795389                0.30719332               -2.46415111               -0.99954944               21.43811424                0.42532480
              10.87427998                7.95662169               52.66967967                0.00010000                3.91718511               -0.12351317               -3.04885079               -1.33459191               22.48425981                2.23857490
              11.91491201                7.57265245               52.63744383                0.00010000                4.02635058               -0.38386960               -3.41323497               -1.50692109               23.92687472                3.43384104
              12.95480699                7.17423247               52.61560416                0.00010000                3.73033731               -0.38499158               -3.50440542               -1.86219089               25.35920077                4.26326938
              13.98951876                6.76108912               52.60147735                0.00010000                3.06736738               -0.09597883               -3.31039489               -2.40156193               26.24607255                4.88652557
              15.01615434                6.33330876               52.58728673                0.05226548                2.17087382                0.29186748               -2.90165744               -2.96161355               25.98903987                4.83337202
              16.03293624                5.89260717               52.55908831                0.26938313                1.18302739                0.78131799               -2.07914843               -1.47716441               12.92311969                1.10457162
              17.03981489                5.48087567               52.27713211                0.72299278                0.68786522                1.09516524               -2.88980290                0.01919718                0.24150542               -1.28306731
               7.13357404               10.34357929               53.17394499                0.93110181                0.08665131               -0.11129582                0.26678072               -0.03841977                0.00698224                0.69802554
               8.13444056               10.01272692               52.91361939                0.34733162                0.25234321                0.30406805               -0.86066709                0.04935761                0.09804090               -0.60267949
               9.13862091                9.68190554               52.65502807                0.00010000                2.50968987                0.69186060               -1.93212496               -1.07464334               12.47184310               -1.91385986
              10.18463435                9.32671511               52.64139839                0.00010000                4.93072295               -0.19112821               -2.69306288               -1.69283336               25.09620908                0.16841335
              11.23723537                8.95306504               52.62660688                0.00010000                5.37336603               -0.74148656               -3.23765793               -1.47192028               25.86856336                1.56713421
              12.29210167                8.56690944               52.61739863                0.00010000                5.32626837               -0.81595017               -3.51617407               -1.25108475               27.24541193                2.58630153
              13.34376073                8.16907825               52.61780978                0.00010000                4.80736453               -0.73407558               -3.45025001               -1.28118318               28.84667127                3.51165478
              14.38824896                7.75858404               52.62821874                0.00010000                3.90794342               -0.51511621               -2.95164190               -1.57119652               29.70069081                4.73996597
              15.42191960                7.33399270               52.63475035                0.07949879                2.74251741               -0.20860287               -2.20542597               -2.00906050               26.57640943                7.12495849
              16.44309931                6.89961363               52.57418195                0.30566477                1.42036177                0.68541265               -2.07832272               -1.25767893               11.82674028                0.90402373
              17.45032684                6.49014484               52.27989237                0.73443503                0.72275244                0.88466235               -2.80135342                0.02361402                0.11548927               -1.55030208
               7.46194857               11.34291369               53.08889796                0.89901531                0.17299784               -0.02006421               -0.02097596               -0.04248511                0.00941683                0.60153878
               8.46367855               11.01609807               52.82222850                0.38315946                0.33456388                0.37256859               -1.13830915                0.01788308                0.20545231               -0.50912319
               9.46863985               10.68870689               52.55934763                0.00010000                3.39367972                0.68792625               -2.17559344               -1.90644246               14.19015247               -1.16816219
              10.53155214               10.32148331               52.57161056                0.00010000                6.80036952               -1.37491852               -2.92005555               -1.85845681               28.27007949                0.11119151
              11.60464724                9.94179195               52.57849104                0.00010000                7.11624784               -1.41901070               -3.42447589               -1.09171550               28.93562964                0.87016880
              12.67387710                9.55633345               52.58935308                0.00010000                6.64307438               -1.30399336               -3.62348646               -0.66041902               30.43337624                1.47516054
              13.73750873                9.15955096               52.61117869                0.00010000                5.96516403               -1.16578961               -3.39982502               -0.64563282               32.51461348                2.10073993
              14.79318038                8.75078679               52.64894893                0.00010000                4.87174099               -1.07103856               -2.58462272               -0.83834137               35.26940242                3.16795875
              15.83494355                8.32913670               52.71227284                0.11883579                2.92250685               -0.57460187               -0.67676491               -0.89018702               27.72615035                6.08108582
              16.85163052                7.90631543               52.58895666                0.35527118                1.21405991                0.67766343               -2.22521688               -0.76106904                9.20950816                0.80005716
              17.85922475                7.49856891               52.28105761                0.73623630                0.75942264                0.85256365               -2.82831729                0.02898544               -0.06128262               -1.33412057
               7.78635559               12.34317800               53.00216915                0.95431969                0.26494267                0.02643106               -0.31108904                0.14073097                0.28499793                0.51040574
               8.78900502               12.02017829               52.73214391                0.73496283                0.43756117                0.40802264               -1.42950640                0.15694977                0.84029583               -0.42190827
               9.79510681               11.69566406               52.47304144                0.45714915                5.26875686                0.69571715               -2.46445534               -3.40138135               15.89157560               -0.66131733
              10.89438015               11.29921674               52.50305149                0.36868054                9.27220519               -2.22665737               -3.16905567               -2.26616104               30.79823280               -0.04919191
              11.98055092               10.92468482               52.52430594                0.36015770                8.33770668               -1.71071318               -3.62414281               -0.32899032               31.43785639                0.38347259
              13.06113429               10.54082958               52.54982323                0.36735810                7.79219074               -1.55038742               -3.75262096               -0.22039946               33.14270805                0.72180756
              14.13639473               10.14576246               52.58775266                0.38977501                7.03810541               -1.37884997               -3.43755233               -0.29471464               35.65293432                1.07995595
              15.20189640                9.73716327               52.64638794                0.42720917                5.60962485               -1.36235219               -2.43182930               -0.29148853               39.25370935                1.76733432
              16.24858723                9.32250066               52.74110722                0.58533256                2.82746620               -0.66360397               -0.39697335                0.16454933               29.91584120                3.55921016
              17.25844572                8.91316689               52.60226296                0.70903940                0.89061710                0.68514682               -2.39667389               -0.08370749                9.44400307                0.70072881
              18.26639957                8.50719611               52.28954253                0.86964100                0.79538512                0.86271964               -2.92116189                0.12040414                0.69032984               -1.04933163
               4.56447271                2.47642176               54.86206113                1.00000000               -0.69752131               -0.84283117                2.92355655               -0.24755767               -0.85026565                0.83203856
               5.55749750                2.10474546               54.63412734                1.00000000               -0.53242440               -0.42139820                1.59835316               -0.18203973               -1.10903037                0.13476356
               6.55382422                1.73221975               54.40108177                1.00000000               -0.21133730               -0.01609362                0.31734064               -0.19326182               -0.99883683               -0.18979709
               7.55327075                1.35733351               54.17486462                0.66824291               -0.11986415                0.45151383               -0.99655715               -0.32800649                0.41458945               -0.78623246
               8.55142694                0.97802234               53.96881470                0.66568282                0.07757413                0.97288889               -2.30528403               -0.27172309                1.83841437                0.03425437
               9.55482224                0.59637885               53.76617765                0.61428213                0.62149604                1.30317062               -3.67111959               -0.23280357                2.17900311               -0.13249574
              10.56385686                0.21134995               53.56155012                0.39929577                1.03660102                1.73147827               -5.17235954               -0.30873020                3.04733129               -0.37310119
              11.57555426               -0.17679738               53.37086911                0.00010000               -4.92327136                2.05501579               -6.37055256              -11.83117301                9.94984668                0.08151956
              12.46539143               -0.79645163               53.30071756                0.00010000               -3.62650598                2.40682129               -6.86311270              -13.54685794               14.91423283               -2.74974238
              13.50302414               -1.36494365               53.29707643                0.85852541                2.37857448                0.60415571               -3.08382123              -11.20607947                9.17267875                0.29089140
              14.51296292               -1.70704098               53.10263276                1.00000000                0.99387880                0.83687501               -3.76372861               -0.32226930                0.08671320               -0.71613976
               4.93367344                3.46799345               54.77500208                1.00000000               -0.58953329               -0.79718536                2.60690530               -0.02483190               -0.17444500                1.11874694
               5.92777811                3.10053148               54.54701557                1.00000000               -0.40379303               -0.38049889                1.28073993                0.03558003               -0.25000491                0.21512256
               6.92559758                2.73205881               54.31762506                1.00000000               -0.03443589                0.02602410               -0.01575667                0.03301085               -0.11719191               -0.31969404
               7.92708939                2.36184865               54.09205540                0.48053783                0.17947297                0.47696250               -1.33968560               -0.07821866                1.76747076               -1.07016135
               8.92918704                1.98775123               53.89971907                0.52950843                0.43705035                0.93498863               -2.61862162               -0.09515748                3.13337745                0.08521148
               9.93583040                1.60941055               53.69965555                0.47799492                0.90853165                1.30427071               -3.92657516               -0.09510523                2.70302258               -0.13238615
              10.94735767                1.22866473               53.49563068                0.20343588                1.26564590                1.73056000               -5.30170648               -0.19309468                3.66657325               -0.59684703
              11.96114332                0.84375278               53.31131473                0.00010000               -1.16808420                1.71092779               -6.01058440              -12.26173653               15.64981379                1.35937541
              12.92399599                0.22761658               53.34501833                0.00010000               -5.74426510                1.39175978               -2.85959610              -21.29589115               23.62148833                0.06993158
              13.84625801               -0.35890209               53.37017049                0.94845258               -3.60792151                0.42042059               -1.54884865              -12.15487375               11.13229907                0.51306820
              14.85183756               -0.69867223               53.17162042                1.00000000                0.55795451                0.66832794               -2.30011150               -0.18703818                0.13437905               -0.45911440
               5.29890003                4.46047806               54.69395180                1.00000000               -0.47562888               -0.70157904                2.25551560               -0.02293316                0.04397226                1.37395239
               6.29414374                4.09713548               54.46149794                1.00000000               -0.28663778               -0.28940951                0.95159994                0.03411927                0.14741617                0.21731169
               7.29316727                3.73274023               54.23125377                0.81354730                0.09351111                0.11985468               -0.34247850                0.01810543                0.37453217               -0.62472844
               8.29601396                3.36687276               54.00316600                0.00010000                0.43973065                0.54089710               -1.64542989               -0.15059380                3.28943979               -1.32782343
               9.30196188                2.99672212               53.83078169                0.00010000                0.79963366                0.77048872               -2.89955742               -0.67034201                4.62143496                0.58469015
              10.31200663                2.62246426               53.63152808                0.00010000                1.18454298                0.80461445               -4.22693134               -1.22010091                2.92537085                3.01804880
              11.32565274                2.24596115               53.42377262                0.00010000                0.96805209                0.43621550               -5.57792715               -2.45595236                5.81210172                6.60784042
              12.33136768                1.85742117               53.28000661                0.00010000               -4.17621316               -1.69543092               -4.08869635              -15.68603554               23.19243193               11.42692561
              13.24212848                1.23138356               53.42679873                0.06895553               -7.25761032                2.68582094               -5.82360430              -25.03516398               31.57040500                4.86523269
              14.18621547                0.64346476               53.44207689                0.65043026               -2.66830253                0.09290474               -0.45286484              -12.44968492               11.06568457                0.51148146
              15.18876243                0.30632558               53.23945300                1.00000000                0.25469613                0.38849599               -1.29704308               -0.16348477                0.21395924               -0.44884663
               5.65989993                5.45396187               54.61219188                1.00000000               -0.37016132               -0.59388958                1.89106793               -0.03758935                0.16325249                1.19403535
               6.65619832                5.09474329               54.37436769                0.79887341               -0.18387598               -0.17782307                0.61068801                0.01144893                0.39645874               -0.06824069
               7.65622241                4.73445591               54.14133630                0.24275520                0.19486555                0.23787328               -0.64607058               -0.02501317                0.96225717               -1.10072367
               8.66009563                4.37266659               53.91457946                0.00010000                0.19831422                0.66999769               -1.95861530               -0.44726469                5.38983035               -1.19894434
               9.66018870                4.00316101               53.76957297                0.00010000                0.10468592                0.74063998               -2.92109357               -1.18873893                9.38979454                2.14264369
              10.66218935                3.62550284               53.62590813                0.00010000                0.15465076                0.34529166               -3.86011648               -2.17545385               10.36519844                6.10862205
              11.66328171                3.23738904               53.50016926                0.00010000               -0.00945794               -0.85789641               -4.28377057               -4.71719830               14.88924265               11.32647998
              12.66200019                2.80984416               53.44256747                0.00010000               -1.30162949               -3.25043150               -4.37501167              -11.28871200               22.34808685               13.65296470
              13.63724912                2.28133300               53.45709948                0.00010000               -6.98389463                3.50066913               -5.20090773              -17.20106075               27.44126603                2.70081674
              14.52232230                1.64295600               53.51344149                0.06198745               -5.72014486                7.55950327                0.36735129               -6.04736302               13.48050581               -7.27790837
              15.52284623                1.30909769               53.30652040                0.60334539                0.05239278                1.94348994               -0.77670095                7.38251503                0.36157745               -7.76084540
               6.01658541                6.44860027               54.52765769                1.00000000               -0.27067306               -0.48094270                1.53213577               -0.04496701                0.14344472                0.92931315
               7.01387868                6.09357902               54.28309388                0.49304434               -0.09208529               -0.05043819                0.24898193               -0.00018087                0.47018000               -0.45464988
               8.01474371                5.73749770               54.04513933                0.04761738                0.22424426                0.38468391               -0.98507103               -0.03447784                1.84166754               -1.64443699
               9.01836357                5.38027271               53.82768775                0.00010000                0.53035728                0.76072843               -2.04946863               -0.27996853                9.08249835                2.45016841
              10.02535085                5.01153492               53.73440744                0.00010000                0.79529786                0.68573532               -2.90745342               -0.74423774               14.61620391                3.57530269
              11.03426952                4.62937009               53.62789229                0.00010000                1.08083045                0.19081091               -3.60560413               -1.40656768               15.20080915                5.81118123
              12.04696746                4.22880322               53.54315537                0.00010000                1.36899766               -0.81804771               -4.01095548               -2.96383007               18.36338347                7.56893474
              13.06164948                3.79241254               53.49276970                0.00010000                0.90139806               -1.26333161               -4.17217561               -6.25093834               21.92673300                6.35545935
              14.06499542                3.30139694               53.47300565                0.00010000               -1.20729809                1.91395824               -3.78885498               -7.94080890               22.70893248                1.62358962
              15.03750352                2.79465483               53.42908164                0.10188846               -3.04330359               10.61575661               -5.23126090               -0.31140930               13.94700727               -5.66861407
              16.00412935                2.34519538               53.22757742                0.62922608               -3.33741649                5.59118087               -4.68253798                2.69902913                4.71745236              -10.30194200
               6.36904309                7.44434302               54.44067676                0.99577182               -0.17458162               -0.37716768                1.17930505               -0.03732629                0.01250643                0.74219461
               7.36729727                7.09373452               54.18824045                0.36777148               -0.01019611                0.06608463               -0.06145892                0.00730622                0.42948508               -0.62363240
               8.36883916                6.74214959               53.94414802                0.00010000                0.65808857                0.53497395               -1.30093320               -0.09852177                6.45228827               -1.99632448
               9.38045904                6.38788116               53.81167897                0.00010000                1.36836981                0.67834308               -2.06757301               -0.11642088               13.41687938                3.75276637
              10.39620656                6.01687571               53.70554043                0.00010000                1.81653256                0.39874450               -2.98344243               -0.74846782               16.16619854                3.67933950
              11.41678969                5.62931906               53.62531534                0.00010000                2.23780500               -0.10772826               -3.59705854               -1.44650082               18.57422756                4.84570789
              12.44096266                5.22102809               53.56220536                0.00010000                2.37990026               -0.65030650               -3.96244790               -2.81790364               20.83203233                5.42262744
              13.46438770                4.78457753               53.51938241                0.00010000                1.76140010               -0.44359147               -4.06006094               -4.83700306               23.06388739                4.56558202
              14.47619066                4.31961216               53.49091460                0.00010000                0.39539899                1.64617976               -4.16047382               -5.30758601               24.84197562                2.31147389
              15.47229568                3.85527113               53.47350975                0.15703942               -0.02224796                4.06096240               -4.67072012               -1.85787418               14.04164979                2.31852429
              16.47574570                3.42092131               53.22210223                0.66187255                0.34500254                5.25430488               -4.59584652                1.65262732                2.23780684               -2.51492614
               6.71705588                8.44105691               54.35245528                0.95221045               -0.08376397               -0.28648157                0.86769054               -0.03968328                0.03297539                0.69284332
               7.71621824                8.09490071               54.09367302                0.31472997                0.07853795                0.16019949               -0.35215649                0.02164278                0.34274834               -0.61010797
               8.71862664                7.74819718               53.84106515                0.00010000                1.25453913                0.64915651               -1.58141116               -0.29094394                8.91166136               -2.12495543
               9.74130902                7.39383957               53.75297281                0.00010000                2.51584778                0.50357289               -2.43914139               -0.49550813               17.85158831                1.05157130
              10.76894359                7.01950981               53.67654528                0.00010000                2.99390572                0.12408646               -3.16460536               -1.10424897               19.48451317                2.98455172
              11.80118714                6.62721553               53.61617696                0.00010000                3.32036645               -0.28520770               -3.70873888               -1.72342670               21.44189409                3.95503111
              12.83535092                6.21579709               53.57197590                0.00010000                3.25691016               -0.46359329               -4.00432643               -2.68094631               23.35979352                4.49770996
              13.86632534                5.78354071               53.54120079                0.00010000                2.63995861               -0.03702722               -4.07562142               -3.75966087               25.03848714                4.33502231
              14.88815009                5.33432054               53.52085330                0.01628966                1.63557736                1.06973044               -3.90711563               -4.10573201               26.64705003                3.52705383
              15.89903689                4.87587407               53.51375969                0.20915964                0.88657260                1.55673913               -3.02695489               -1.73515534               14.20436356                2.18342656
              16.90588155                4.45028148               53.23862198                0.68904550                0.68446602                2.17332861               -3.48285112                0.08563406                0.86089948               -0.61942899
               7.06056182                9.43861339               54.26454352                0.92870421                0.00280392               -0.20256458                0.58471232               -0.03962619                0.02263388                0.71271656
               8.06058986                9.09693851               53.99912491                0.30505371                0.17598014                0.24123994               -0.63590178                0.04117856                0.23048906               -0.60089895
               9.06408143                8.75513272               53.73781738                0.00010000                1.93231945                0.70918371               -1.83066031               -0.62573303               10.88232455               -2.11941474
              10.09923625                8.39795261               53.68464708                0.00010000                3.83321006                0.25292264               -2.71879678               -1.10233805               21.81423846                0.33872494
              11.14074563                8.01935744               53.63746051                0.00010000                4.33988130               -0.23469342               -3.40719515               -1.52776786               22.99609318                2.04979430
              12.18603388                7.62361490               53.60124553                0.00010000                4.51364610               -0.52326369               -3.85874966               -1.77056640               24.62987877                3.19196911
              13.23101855                7.21175622               53.57828882                0.00010000                4.23185769               -0.49626033               -4.02180929               -2.21024579               26.29877872                4.03106272
              14.27067103                6.78383698               53.56602349                0.00010000                3.53620574               -0.10340232               -3.88449602               -2.82240784               27.41354791                4.82902063
              15.30174266                6.34100677               53.55604653                0.04862443                2.54803025                0.39203160               -3.47205625               -3.35987534               27.52913475                5.08346164
              16.32163164                5.88640592               53.53768493                0.25651111                1.34504588                0.90148392               -2.28416327               -1.65718435               13.85428939                1.29141207
              17.32864358                5.46438788               53.24861334                0.70874857                0.70119455                1.16144684               -2.87606505               -0.01759646                0.34074137               -0.94352247
               7.39961310               10.43700562               54.17676260                0.92402631                0.09093767               -0.11663593                0.29703152               -0.04030867                0.00795715                0.70724870
               8.40052248               10.09972551               53.90472815                0.33402499                0.27423855                0.31525090               -0.91658469                0.04471606                0.12644245               -0.57882842
               9.40509788                9.76238085               53.63498114                0.00010000                2.72575263                0.72069241               -2.07451562               -1.17282870               12.67194815               -1.84977888
              10.45503753                9.39889803               53.61306201                0.00010000                5.38140348               -0.24898658               -2.98118748               -1.84779067               25.45882189                0.11128460
              11.51272595                9.01481594               53.59234264                0.00010000                5.91697486               -0.84792419               -3.63753163               -1.65383919               26.38723295                1.42158195
              12.57337703                8.61675025               53.58006907                0.00010000                5.90989927               -0.92270686               -3.99594226               -1.44428997               27.99463583                2.40103662
              13.63092393                8.20587188               53.58113933                0.00010000                5.36247998               -0.81211712               -3.96307143               -1.48142753               29.93569836                3.39698372
              14.68062663                7.78147267               53.59694724                0.00010000                4.37298612               -0.53380954               -3.41262855               -1.77934618               31.08287016                4.92943476
              15.71838365                7.34216117               53.61133285                0.08117472                3.09427299               -0.22317246               -2.61132477               -2.19404704               27.78011110                8.21195248
              16.74251209                6.89390375               53.55347939                0.29953625                1.55910173                0.71109023               -2.11178116               -1.39263611               12.30124750                0.87466933
              17.74956569                6.47351041               53.25280857                0.72120481                0.70535972                0.84824910               -2.64905359                0.01373799                0.15049013               -1.34957825
               7.73431587               11.43628067               54.08881397                0.89014714                0.17930830               -0.02670460                0.00549503               -0.04420248                0.01249790                0.60734124
               8.73610895               11.10324353               53.81050144                0.36495642                0.35682335                0.39054030               -1.20548076                0.01407243                0.25100317               -0.49754658
               9.74145234               10.76954656               53.53684087                0.00010000                3.68681991                0.72440734               -2.32691901               -2.06150197               14.40995547               -1.13440698
              10.80984535               10.39297288               53.54093397                0.00010000                7.41821388               -1.50881195               -3.22729734               -2.00977427               28.64747557                0.09451098
              11.88981661               10.00239896               53.54230317                0.00010000                7.81233910               -1.55177784               -3.84332847               -1.20767108               29.49229328                0.79544407
              12.96609213                9.60516077               53.55097727                0.00010000                7.34254852               -1.42300669               -4.10806378               -0.75420976               31.27200704                1.37507519
              14.03666758                9.19551388               53.57526471                0.00010000                6.63513424               -1.27140265               -3.87261507               -0.72318837               33.80845106                2.05978771
              15.09879482                8.77316079               53.62201922                0.00010000                5.43815267               -1.18654433               -2.91844164               -0.92572999               37.40938912                3.38426521
              16.14543064                8.33654332               53.70626668                0.12808847                3.18174274               -0.62343636               -0.60548813               -0.91017906               28.55620409                7.01353991
              17.16242967                7.90062772               53.56704321                0.35760257                1.21371912                0.67307264               -2.20751922               -0.82476006                8.68479960                0.70435047
              18.16970502                7.48135286               53.25395167                0.72439964                0.72753480                0.78689515               -2.61788985                0.02695966               -0.03011143               -1.20795326
               8.06480333               12.43647153               53.99915173                0.94868366                0.27347029                0.01908604               -0.28970798                0.15522501                0.28189579                0.51378137
               9.06753803               12.10753632               53.71745344                0.72410327                0.46675766                0.42927863               -1.50521652                0.16278168                0.88359346               -0.41797850
              10.07413848               11.77686900               53.44763305                0.45459690                5.72258097                0.73224338               -2.61946775               -3.67211166               16.13516172               -0.65181368
              11.18198965               11.36872179               53.46991678                0.36854822               10.11230770               -2.42510958               -3.47092886               -2.44000052               31.25160192               -0.01548581
              12.27638464               10.98378038               53.48623002                0.36029462                9.15941320               -1.86185781               -4.02333133               -0.36478083               32.10087048                0.38695494
              13.36517792               10.58829012               53.51036454                0.36712831                8.60377513               -1.68706474               -4.19791520               -0.25824903               34.10067466                0.72050343
              14.44846014               10.18044383               53.55179553                0.38874204                7.79523341               -1.50700480               -3.84515519               -0.34816127               37.11031284                1.12270794
              15.52108259                9.75774178               53.62158766                0.42566077                6.21265005               -1.54190090               -2.64104559               -0.30879234               41.51357390                2.00503476
              16.57271314                9.32969244               53.73808510                0.59246763                3.00623815               -0.68508777               -0.31363048                0.20942167               30.48399859                3.90055516
              17.58120735                8.90736521               53.57887019                0.71267044                0.79707271                0.67374852               -2.33331472               -0.14443871                8.62446574                0.62580715
              18.58865460                8.48924832               53.26175097                0.86379826                0.74472471                0.78954531               -2.65871288                0.08326868                0.68778006               -0.94062274
               4.79084611                2.57318362               55.89153561                1.00000000               -0.69823086               -0.85296289                2.95841846               -0.25672824               -0.79421693                0.79379164
               5.78386380                2.19476282               55.65008293                1.00000000               -0.52133177               -0.41921164                1.58784641               -0.19231687               -1.02820575                0.12880644
               6.78041948                1.81551163               55.40391914                1.00000000               -0.17199386               -0.00080826                0.25377538               -0.20150281               -0.91960351               -0.17579807
               7.78042393                1.43412967               55.16421264                0.65854102                0.00908055                0.47188366               -1.12099178               -0.31201614                0.43705712               -0.75788338
               8.78060109                1.04907220               54.94422180                0.64349427                0.28730544                1.01404358               -2.57237576               -0.28169913                1.73930987                0.05081228
               9.78617004                0.66264124               54.72737151                0.58012149                0.82118170                1.37923850               -4.02457201               -0.23856422                1.93048250               -0.15548426
              10.79702472                0.27348902               54.50783031                0.34434201                1.10494054                1.81286061               -5.51139396               -0.36043992                2.88043039               -0.48086519
              11.80826885               -0.11975350               54.30746432                0.00010000               -6.98734581                2.01090093               -6.35207313              -17.29744078               10.70794452               -0.15528688
              12.65727781               -0.85363873               54.24923022                0.00010000               -5.61387588                4.64625380               -5.70643486              -18.30293055               16.83378860               -0.05751926
              13.69599133               -1.44167822               54.25894239                0.77304080                2.73133740                1.00443384               -5.02478326              -11.68822048                9.91562746                0.60040389
              14.71190455               -1.79088238               54.05721063                1.00000000                1.59132250                1.30458038               -5.85524258               -0.50846022                0.11575743               -0.76701416
               5.16669963                3.56465399               55.80129515                1.00000000               -0.59229974               -0.80590716                2.63999049               -0.02863450               -0.14883925                1.07095317
               6.16077663                3.19057071               55.55978129                1.00000000               -0.39893005               -0.37736508                1.26861084                0.03130932               -0.20548745                0.20636958
               7.15872103                2.81550355               55.31714036                1.00000000               -0.01265744                0.04229506               -0.07724023                0.03082625               -0.07370578               -0.30449752
               8.16052348                2.43884850               55.07800139                0.47085596                0.24036407                0.50184807               -1.45886728               -0.04490593                1.78997629               -1.02411452
               9.16352831                2.05921263               54.87204845                0.50966578                0.55262495                1.00460458               -2.89933957               -0.09093530                3.15689957                0.10939884
              10.17157598                1.67643363               54.65846547                0.44844868                1.05446925                1.39404401               -4.28967621               -0.08135669                2.69633206               -0.19289385
              11.18461770                1.29161763               54.44079004                0.15897407                1.36411667                1.82094501               -5.66418798               -0.30567567                4.09339354               -0.77100389
              12.19885832                0.90035551               54.25237718                0.00010000               -2.47034187                0.97313508               -5.81432862              -16.96036003               17.20223959                2.22799966
              13.13521086                0.19282380               54.29591229                0.00010000               -7.55636844                3.74963495               -5.11297956              -25.48806377               27.08752323                3.06873332
              14.04773095               -0.43163388               54.35200427                0.77905700               -3.95933711                0.69352535               -2.60647918              -13.59102680               13.04354420                0.83115694
              15.05602412               -0.77783657               54.14579461                1.00000000                0.82931685                1.00188767               -3.49730259               -0.30288496                0.39610979               -0.51387427
               5.53844000                4.55706548               55.71673220                1.00000000               -0.47995587               -0.70739598                2.29010771               -0.02653535                0.06534700                1.30750817
               6.53364044                4.18721552               55.47096325                1.00000000               -0.28408941               -0.28584788                0.93870937                0.03198017                0.17891013                0.19778724
               7.53275821                3.81635753               55.22750295                0.80896514                0.10881439                0.13628797               -0.40274110                0.02485806                0.40632635               -0.59894258
               8.53581673                3.44416663               54.98607809                0.00010000                0.42195258                0.56826687               -1.75527787               -0.06722728                3.30851930               -1.27165086
               9.54119726                3.06916429               54.80026032                0.00010000                0.81605919                0.73234981               -3.22416434               -0.61457264                4.73114832                0.75387653
              10.55213791                2.69052212               54.58737982                0.00010000                1.28960344                0.61900353               -4.61762761               -1.17736626                3.05795189                3.27583649
              11.56698933                2.30990792               54.36616161                0.00010000                0.78587796               -0.10145970               -5.95819665               -3.21934478                7.76313012                7.20529333
              12.56785547                1.89970920               54.24505128                0.00010000               -4.37417063               -3.24230605               -2.60225282              -18.70156672               24.28954623               10.36223139
              13.47950592                1.22135397               54.37026663                0.04838999               -8.65121478                4.23176211               -5.15827269              -29.08804775               33.56705048                4.11534053
              14.39483117                0.57219229               54.43739192                0.58879946               -4.06268323                0.20889209               -0.71698455              -15.10833530               14.25393188                0.49212840
              15.39825225                0.22915537               54.22574140                1.00000000                0.34210786                0.52920493               -1.94391868               -0.15958422                0.52694634               -0.96526825
               5.90586884                5.55050607               55.63132373                1.00000000               -0.37446532               -0.59709104                1.92629203               -0.03936476                0.18187054                1.12635499
               6.90212418                5.18485375               55.38039934                0.77398441               -0.18008760               -0.17613492                0.59459881                0.01528103                0.43204193               -0.10422009
               7.90226709                4.81822931               55.13452758                0.22760637                0.21239991                0.25229469               -0.70787835               -0.00975056                0.98288767               -1.08163991
               8.90637218                4.45021384               54.89439619                0.00010000                0.13071393                0.68844633               -2.05638082               -0.46741137                5.53877793               -1.03027016
               9.90488136                4.07385963               54.73926757                0.00010000                0.04564216                0.53736445               -3.11675897               -1.24658805                9.70586382                2.36380939
              10.90728503                3.68881370               54.58587263                0.00010000                0.30811788               -0.15605800               -4.12556280               -2.40371264               11.04796903                6.51341591
              11.91104372                3.28958843               54.45653514                0.00010000                0.30479554               -1.91653428               -4.40559371               -5.77489251               16.12838451               11.80521780
              12.91338094                2.83550939               54.39868000                0.00010000               -1.50384551               -4.31232281               -4.35682843              -12.87006030               23.27404162               12.19505841
              13.88096681                2.27745905               54.40712519                0.00010000               -8.78090522                3.67458243               -4.61844933              -20.64531883               30.80182827                1.84601373
              14.73776283                1.57254396               54.51728785                0.04820753               -7.10302729                8.91221017                0.35134807               -6.84026100               16.86155081              -10.79182465
              15.73890627                1.23274752               54.29734213                0.60517927                0.11434336                2.26431741               -1.26087772                8.85339611                0.46742907              -10.74409828
               6.26895735                6.54512366               55.54319413                1.00000000               -0.27345244               -0.48312113                1.56749478               -0.04395237                0.13155737                0.86744396
               7.26622283                6.18369282               55.28547423                0.47725987               -0.08771215               -0.05252154                0.22637349                0.01288524                0.49007767               -0.47358009
               8.26720311                5.82140343               55.03495538                0.03561074                0.23076760                0.38735909               -1.04955815               -0.00800862                1.98096500               -1.63034522
               9.27083818                5.45793555               54.80683748                0.00010000                0.52312678                0.67944015               -2.08674290               -0.39847581                9.36911840                2.69706864
              10.27766564                5.07991158               54.70425916                0.00010000                0.87483377                0.44759012               -3.09603221               -0.92046990               15.06185474                3.63936017
              11.28833485                4.68740096               54.59050150                0.00010000                1.35650732               -0.30120165               -3.85003445               -1.77333077               15.92556086                5.82612916
              12.30479579                4.27157723               54.50149592                0.00010000                1.71243973               -1.54415414               -4.30686094               -3.83713483               19.38842116                7.23229682
              13.32258365                3.81346274               54.44922972                0.00010000                1.23845861               -1.65425962               -4.51459416               -7.67898885               23.27023052                5.48008132
              14.32956496                3.29484561               54.43193875                0.00010000               -0.99230862                1.83038456               -4.38690912               -9.54555972               23.22490438                0.51792996
              15.30273747                2.75043650               54.37372720                0.08657640               -3.73259528               12.91642694               -5.64251133               -0.30193610               14.13796871              -10.22512975
              16.25491306                2.27444172               54.17727875                0.62865224               -4.78244198                7.59476298               -5.54456600                3.13132444                5.97317626              -14.41749856
               6.62785146                7.54084365               55.45261468                0.97867619               -0.17493368               -0.37955626                1.21311268               -0.03614294                0.02590539                0.70768537
               7.62610212                7.18380332               55.18750393                0.35685057                0.00063618                0.06197652               -0.08618276                0.01965861                0.44306742               -0.60893574
               8.62786418                6.82597649               54.93074321                0.00010000                0.68961962                0.51966026               -1.37391203               -0.14830427                6.66840225               -1.95650880
               9.63989451                6.46380264               54.78972468                0.00010000                1.45711880                0.53495032               -2.28783596               -0.30371244               13.75708365                3.71498316
              10.65700656                6.08281143               54.67445560                0.00010000                2.01291190                0.16973394               -3.21142080               -1.04593632               16.59839092                3.53919151
              11.68015275                5.68278966               54.58769884                0.00010000                2.56163418               -0.48218443               -3.91420970               -1.95913955               19.24635075                4.54609200
              12.70823924                5.25870535               54.52043589                0.00010000                2.81900134               -1.04642020               -4.39388742               -3.67740002               21.73884886                4.87888632
              13.73653278                4.80242419               54.47582616                0.00010000                2.24213115               -0.64498826               -4.67812174               -5.99867133               24.02828150                3.71681794
              14.75308187                4.31406674               54.44509269                0.00010000                0.77976105                1.93594386               -5.05965374               -6.40323118               25.37309864                1.10967681
              15.75212800                3.83087250               54.41870861                0.13368510                0.02202163                5.65220625               -6.47864210               -2.28166628               14.79430732                1.93468489
              16.75352230                3.38464278               54.17123886                0.65124433                0.13942975                7.74500594               -5.95793135                2.33003994                3.39602379               -3.48894322
               6.98231516                8.53753253               55.36129160                0.94065891               -0.08319954               -0.28785147                0.90535205               -0.03748368                0.04425845                0.69914404
               7.98148316                8.18493235               55.08997362                0.30590962                0.09612708                0.15701352               -0.38789561                0.02577721                0.34996344               -0.58800601
               8.98423770                7.83179663               54.82476285                0.00010000                1.32229137                0.62944534               -1.67155776               -0.39583773                9.08598734               -2.06651509
              10.00792899                7.46863456               54.72748806                0.00010000                2.67610989                0.40942639               -2.64299971               -0.75874674               18.20363828                0.85802274
              11.03775990                7.08330626               54.64331850                0.00010000                3.26645779               -0.04956110               -3.46829966               -1.51402246               19.93846717                2.68744563
              12.07325814                6.67775727               54.57705578                0.00010000                3.69266814               -0.50949701               -4.11723608               -2.30644497               22.05173676                3.52239168
              13.11161326                6.25064883               54.52930194                0.00010000                3.69953443               -0.65075273               -4.55834509               -3.47144693               24.13706257                3.93203131
              14.14724883                5.80056298               54.49705732                0.00010000                3.07193848               -0.02505568               -4.82696039               -4.67925583               25.97135869                3.68348467
              15.17305203                5.33356449               54.47752074                0.00467116                1.96396356                1.52158498               -4.93063936               -4.75443105               28.02578001                3.03448744
              16.18652810                4.86348062               54.47933781                0.18541087                1.04606334                2.39216052               -4.24835369               -1.94477173               15.34581990                3.03971178
              17.19397329                4.42934184               54.20172600                0.67389318                0.74451912                3.15879206               -4.16688538                0.14865150                1.44341081               -0.03648681
               7.33230214                9.53508662               55.27056154                0.91989775                0.00514260               -0.20393619                0.61759802               -0.03995717                0.02038337                0.73175022
               8.33235357                9.18694359               54.99254272                0.29559313                0.19715392                0.24207301               -0.67872523                0.03732380                0.24153298               -0.57908642
               9.33624522                8.83856540               54.71889966                0.00010000                2.04281928                0.70449210               -1.94379250               -0.77320520               11.04589856               -2.06085745
              10.37320996                8.47199117               54.65618315                0.00010000                4.06790877                0.20096729               -2.96810372               -1.41124428               22.12382917                0.16303754
              11.41760340                8.08182021               54.60153577                0.00010000                4.67356619               -0.33261219               -3.77893649               -1.95891882               23.42488951                1.71675299
              12.46668128                7.67259972               54.56026884                0.00010000                4.92006004               -0.62794190               -4.35682208               -2.30951782               25.21828965                2.75780637
              13.51600460                7.24569029               54.53516798                0.00010000                4.66753615               -0.53033990               -4.65963686               -2.83466845               27.08407325                3.58811621
              14.56003200                6.80192308               54.52378743                0.00010000                3.95355022                0.03070147               -4.68078732               -3.43639223               28.42626635                4.60234857
              15.59507560                6.34449844               54.51784560                0.04218023                2.87116065                0.72235532               -4.35289931               -3.76348606               29.12869298                5.24694733
              16.61745521                5.87871571               54.51340504                0.23768154                1.48486408                1.21340545               -2.73377404               -1.77796831               14.94294789                1.69479634
              17.62477288                5.44781862               54.21961081                0.69221157                0.73176695                1.42365512               -3.04206147               -0.05445959                0.52785338               -0.47027569
               7.67780208               10.53345381               55.17988562                0.91681641                0.09487853               -0.12076194                0.32810362               -0.04192753                0.00902491                0.72281842
               8.67875086               10.18977382               54.89528770                0.32147534                0.29619673                0.32391286               -0.97048395                0.03754032                0.15517261               -0.56363488
               9.68372601                9.84588647               54.61353776                0.00010000                2.88492134                0.74007234               -2.20832241               -1.34793493               12.83658370               -1.80455320
              10.73644929                9.47265391               54.58177464                0.00010000                5.71234770               -0.27362080               -3.27964882               -2.17015303               25.73683558               -0.02636173
              11.79797297                9.07665401               54.55385624                0.00010000                6.33742058               -0.90033735               -4.07528931               -2.03045286               26.80635384                1.15022461
              12.86319770                8.66519843               54.53747978                0.00010000                6.38117830               -0.95301230               -4.56340402               -1.84687784               28.62468049                2.05915000
              13.92559653                8.24004203               54.53854835                0.00010000                5.82575716               -0.77998891               -4.64146001               -1.86951180               30.91605445                3.12922850
              14.97971284                7.80117701               54.55996617                0.00010000                4.76965703               -0.40457022               -4.12332805               -2.08481218               32.36533424                5.04838580
              16.02098967                7.34801160               54.58252385                0.08160766                3.39678523               -0.09215913               -3.31794795               -2.37301185               29.07445748                9.48739236
              17.04764855                6.88774873               54.53194633                0.28797234                1.68443042                0.81479593               -2.26299659               -1.50051704               12.91626256                0.88854484
              18.05467828                6.45781494               54.22691130                0.70437886                0.70297321                0.88244110               -2.58036892                0.00825722                0.20200421               -1.09502414
               8.01882358               11.53267138               55.08900786                0.88074532                0.18481303               -0.03378487                0.03453333               -0.04555320                0.01553933                0.61947679
               9.02067171               11.19342185               54.79811889                0.34654958                0.37914245                0.40704593               -1.26990858                0.00700815                0.29967117               -0.49303717
              10.02640643               10.85336684               54.51280925                0.00010000                3.91838210                0.75784813               -2.47976406               -2.26412006               14.59679133               -1.11646579
              11.09903936               10.46651876               54.50706462                0.00010000                7.90216900               -1.58562561               -3.55859224               -2.25937228               28.93549784                0.03089011
              12.18444981               10.06381346               54.50162447                0.00010000                8.36581732               -1.60418889               -4.32119789               -1.44158379               29.94751089                0.64564453
              13.26635570                9.65353948               54.50719181                0.00010000                7.90929887               -1.43666747               -4.70910521               -0.96691894               32.00499108                1.18213043
              14.34263579                9.23009052               54.53372639                0.00010000                7.20052455               -1.24435230               -4.54277692               -0.89632301               35.03993808                1.93416018
              15.41036619                8.79383168               54.59058010                0.00010000                5.92039274               -1.15249555               -3.52651906               -1.06349010               39.67958494                3.58379030
              16.46104364                8.34265525               54.70016308                0.13914329                3.36376670               -0.55683314               -0.69359478               -0.94125235               29.43244845                8.08703238
              17.47764153                7.89501163               54.54480627                0.35632046                1.18809769                0.71401715               -2.29892649               -0.87835959                8.05149264                0.59090570
              18.48480560                7.46546745               54.22869981                0.70781140                0.71640713                0.74850542               -2.45526920                0.03134819                0.01168149               -1.06824594
               8.35539009               12.53277811               54.99637499                0.94316779                0.28054801                0.01067288               -0.26326809                0.17031249                0.28339694                0.52298288
               9.35819557               12.19791473               54.70203958                0.71304243                0.49783080                0.44928865               -1.57743393                0.16565149                0.93745009               -0.41913939
              10.36534670               11.86104344               54.42065209                0.45193206                6.13098293                0.76765925               -2.78042883               -3.95463988               16.36154233               -0.65383622
              11.48081523               11.44094139               54.43363292                0.36835718               10.83869325               -2.55773609               -3.80157185               -2.64607305               31.63837625                0.00514116
              12.58212057               11.04457023               54.44383932                0.36036551                9.83835211               -1.92432273               -4.49051442               -0.45673987               32.69021539                0.36195138
              13.67758227               10.63646509               54.46586492                0.36688815                9.26286530               -1.70743923               -4.77142035               -0.34810579               34.98264747                0.68477906
              14.76737787               10.21515499               54.51084956                0.38780772                8.41480181               -1.49355298               -4.46109674               -0.44269100               38.55210121                1.14035425
              15.84587830                9.77812710               54.59356703                0.42403375                6.68033977               -1.57045794               -3.11524562               -0.36279148               43.85518839                2.27424801
              16.90098467                9.33687493               54.73483461                0.60163525                3.06954305               -0.57803200               -0.44476032                0.18920125               31.01803195                4.14408032
              17.90726916                8.90202907               54.55559666                0.71497764                0.67044738                0.70174393               -2.37462098               -0.24173027                7.72016938                0.53415039
              18.91439362                8.47278505               54.23636828                0.85514020                0.71244517                0.73176059               -2.42807053                0.03439993                0.68940494               -0.82706961
               5.03149375                2.67277853               56.92122950                1.00000000               -0.69438913               -0.85626033                2.96819722               -0.26230562               -0.74475443                0.76060150
               6.02454986                2.28792486               56.66588426                1.00000000               -0.50956545               -0.41463078                1.56823109               -0.19853084               -0.95784247                0.12375060
               7.02130244                1.90226134               56.40615728                1.00000000               -0.14203063                0.01237141                0.19809865               -0.20623211               -0.85756368               -0.16219127
               8.02170924                1.51459835               56.15244479                0.64866060                0.08759170                0.49025616               -1.21721752               -0.31664462                0.40910684               -0.72810586
               9.02305427                1.12338528               55.91736718                0.62210167                0.40570627                1.05154093               -2.75864796               -0.29518831                1.59817745                0.04626521
              10.02982337                0.73108123               55.68568621                0.54733945                0.91591938                1.44631261               -4.26076263               -0.25939578                1.71979111               -0.19143613
              11.04137266                0.33581319               55.45132224                0.29118392                0.92449377                1.91001587               -5.74993452               -0.64638485                2.96203590               -0.57910853
              12.04831324               -0.06972883               55.24382765                0.00010000               -9.53917638                2.04546390               -6.38637540              -21.16370587               11.01166577               -0.38853151
              12.85058913               -0.89096616               55.18658886                0.00010000               -7.74784872                5.89209940               -6.89398039              -21.91350110               17.14100571                0.94500319
              13.89335627               -1.53905931               55.19658077                0.69568938                3.40762339                1.83308340               -8.13475125              -14.04012346                9.99033181                0.94004006
              14.91874160               -1.89954923               54.98552791                1.00000000                2.53853305                2.20687491               -9.29508800               -0.70524571                0.09694512               -1.05296896
               5.41372437                3.66421593               56.82780189                1.00000000               -0.59012242               -0.80894486                2.65027849               -0.03118137               -0.12568546                1.02954094
               6.40782314                3.28377855               56.57238778                1.00000000               -0.39104978               -0.37258378                1.24958958                0.02852338               -0.16598024                0.19833078
               7.40590337                2.90238506               56.31608026                1.00000000                0.00788445                0.05564128               -0.12963428                0.02994416               -0.04174241               -0.29069879
               8.40798083                2.51950091               56.06287806                0.46516154                0.29787884                0.52232948               -1.54908561               -0.03833197                1.74076582               -0.97530259
               9.41186095                2.13390069               55.84173228                0.49374885                0.65173111                1.05976271               -3.12542626               -0.08638554                3.08912486                0.08660671
              10.42101545                1.74554436               55.61386202                0.42312699                1.17264480                1.47462983               -4.59574668               -0.07731633                2.66891591               -0.27725472
              11.43531384                1.35491335               55.38234692                0.11887796                1.45252039                1.92543607               -6.00552826               -0.64736592                4.81281818               -0.92343929
              12.45006586                0.95072581               55.19502815                0.00010000               -3.45972396               -0.59540991               -5.51218495              -21.11090859               18.85550739                3.75037527
              13.36611936                0.16795483               55.24275874                0.00010000               -9.64096457                4.67218160               -5.43084372              -30.04572862               29.76408923                3.42482364
              14.25724657               -0.52072848               55.31804091                0.62074261               -4.69701533                1.35415312               -4.91635173              -16.14861234               14.49731977                1.44166512
              15.27217906               -0.87748048               55.10167436                1.00000000                1.49324877                1.75109655               -6.11607909               -0.48215969                0.84481747               -0.70986427
               5.79174488                4.65659964               56.73975396                1.00000000               -0.47936842               -0.70944436                2.30467419               -0.02955682                0.08585685                1.24889571
               6.78695119                4.28047318               56.48027213                1.00000000               -0.27829602               -0.28153272                0.92103576                0.02933533                0.20893449                0.17787601
               7.78617896                3.90337417               56.22319895                0.80195167                0.12378907                0.14928084               -0.45206569                0.02758517                0.43715427               -0.57655884
               8.78942698                3.52504494               55.96806045                0.00010000                0.45520773                0.59004378               -1.83078136               -0.03216361                3.21953672               -1.20938394
               9.79528311                3.14458053               55.76629840                0.00010000                0.89187005                0.62688363               -3.52291239               -0.67512634                4.69114489                0.96693437
              10.80726438                2.76057383               55.53917553                0.00010000                1.39803895                0.35525599               -4.99186251               -1.26964553                3.15337933                3.60120602
              11.82324389                2.37432191               55.30460868                0.00010000                0.28946056               -0.83771316               -6.32713356               -5.22413349               10.78179715                7.99720672
              12.81305359                1.91836297               55.22796155                0.00010000               -5.10575210               -5.05794640               -1.20592663              -22.25096628               25.81148783                8.50524998
              13.72112885                1.20247747               55.32363328                0.02856087               -9.86171257                4.43131558               -4.38903663              -33.08903714               34.79215295                3.44793349
              14.61581934                0.48802375               55.42773720                0.53685220               -4.92632228                0.57563568               -1.55274551              -17.74574832               16.95261322                0.78246874
              15.62260240                0.13547270               55.20057462                1.00000000                0.67830678                1.00794276               -3.56865158               -0.25974511                0.80992911               -1.62572201
               6.16538614                5.65002704               56.65071772                1.00000000               -0.37508223               -0.59707214                1.94387319               -0.04234093                0.20134832                1.06559859
               7.16163531                5.27814790               56.38625967                0.74615496               -0.17514108               -0.17351800                0.57695251                0.01557112                0.47104813               -0.14445132
               8.16188332                4.90537067               56.12717873                0.21072183                0.22479414                0.26504943               -0.75720961               -0.00126533                1.01758585               -1.07325092
               9.16613120                4.53130179               55.87345185                0.00010000                0.04731072                0.69203252               -2.11952341               -0.59585652                5.67233412               -0.82556412
              10.16282953                4.14643836               55.70723779                0.00010000               -0.01250188                0.22767808               -3.25465934               -1.55057469                9.97375180                2.65861850
              11.16588116                3.75264948               55.54339687                0.00010000                0.51062510               -0.82536800               -4.32701780               -2.99998363               11.78449094                6.99987566
              12.17304203                3.33815909               55.41205739                0.00010000                0.55049082               -3.23867550               -4.48068460               -7.51594126               17.54145999               12.32527654
              13.17689098                2.84956688               55.35543090                0.00010000               -1.91820927               -4.67474769               -4.36589736              -14.90101358               24.73839616                9.57520438
              14.13467785                2.25658115               55.36473049                0.00010000              -10.37773015                3.56552841               -4.01207713              -23.74577301               34.35701283                0.09613302
              14.96933637                1.49078423               55.52046846                0.04353856               -8.12958001               10.03538590                0.04618998               -7.73996054               20.27400563              -14.54154479
              15.97208625                1.14267838               55.28130284                0.61668136                0.27498729                2.37379876               -2.33172475                9.88378267                0.80050595              -14.27213275
               6.53465635                6.64465819               56.55900758                1.00000000               -0.27373694               -0.48138932                1.58661922               -0.04570881                0.11997739                0.81689353
               7.53191898                6.27700282               56.28762135                0.45930020               -0.08282973               -0.05457374                0.20322852                0.02058716                0.51756014               -0.49776412
               8.53299976                5.90867516               56.02414817                0.02253166                0.22615889                0.39206355               -1.10668001               -0.00070431                2.18575294               -1.63536498
               9.53644216                5.53888559               55.78595289                0.00010000                0.49620839                0.51142245               -2.05078991               -0.68919662                9.65344259                2.86668152
              10.54292393                5.14913409               55.67248680                0.00010000                0.95509065                0.10809185               -3.21733334               -1.37242135               15.44322978                3.66359455
              11.55554398                4.74406647               55.55089160                0.00010000                1.65418693               -0.94814308               -4.03458462               -2.48652179               16.63178729                5.77928949
              12.57600767                4.30954840               55.45701815                0.00010000                2.05336413               -2.36796477               -4.56249868               -5.23140816               20.41366821                6.66913363
              13.59661126                3.82486802               55.40247781                0.00010000                1.44941866               -1.92402996               -4.82564548               -9.61774044               24.54864156                4.16687801
              14.60499604                3.27378804               55.38526746                0.00010000               -1.08441807                1.98212852               -4.92117774              -11.50221102               23.95236515               -1.64261542
              15.57492290                2.68873147               55.31623141                0.07516180               -4.42531328               14.87849900               -5.89555026               -0.90700396               14.46937230              -16.00334177
              16.51648977                2.18294868               55.11668610                0.63378807               -5.84331234                9.20084090               -6.61430526                2.74769334                7.15918544              -19.13133763
               6.89978270                7.64039926               56.46493901                0.96096566               -0.17526099               -0.37826254                1.24327309               -0.03825083                0.03403636                0.68844614
               7.89803009                7.27705642               56.18651679                0.34589365                0.01018789                0.05494890               -0.11076502                0.03199843                0.46454922               -0.60152470
               8.89998646                6.91321195               55.91666978                0.00010000                0.69291193                0.50176337               -1.43700197               -0.28470005                6.86484418               -1.94085958
               9.91188833                6.54153024               55.76592225                0.00010000                1.51068812                0.28279824               -2.42866541               -0.71138918               14.09021316                3.55859152
              10.93020022                6.14860020               55.64131201                0.00010000                2.19240410               -0.14777745               -3.37937545               -1.63111636               17.02307062                3.29309907
              11.95573641                5.73368662               55.54703115                0.00010000                2.87060491               -0.94865535               -4.18736135               -2.85529725               19.85085557                4.09405945
              12.98761232                5.29079979               55.47432762                0.00010000                3.22800587               -1.49213871               -4.80808530               -5.02586842               22.51867128                4.09632704
              14.02029653                4.81108628               55.42581997                0.00010000                2.65789292               -0.78094417               -5.32433280               -7.68268062               24.78416058                2.46212474
              15.04077018                4.29622372               55.38972152                0.00010000                1.08695633                2.42346676               -6.07018828               -8.06714509               25.32104797               -0.68366776
              16.04203566                3.78835421               55.34393691                0.10818942               -0.10822448                7.66202058               -8.46215761               -3.13516983               15.32238196                0.09740269
              17.03860569                3.32669519               55.10294360                0.64233451               -0.34299676               10.91155561               -8.12496782                2.50827912                5.05584333               -5.57105958
               7.26057701                8.63709294               56.37056232                0.92882223               -0.08307445               -0.28724398                0.94283765               -0.03789345                0.04296800                0.71166464
               8.25974626                8.27810180               56.08591510                0.29781748                0.11274671                0.14931427               -0.41940025                0.03348934                0.36197463               -0.57495658
               9.26283194                7.91871043               55.80763400                0.00010000                1.35399333                0.59643541               -1.74753669               -0.60938690                9.24924467               -2.03733274
              10.28682613                7.54454156               55.70011281                0.00010000                2.76566382                0.26982761               -2.80854238               -1.26717447               18.51319928                0.59807614
              11.31814522                7.14617854               55.60717928                0.00010000                3.47061520               -0.27227152               -3.73068356               -2.22453401               20.33289018                2.24893114
              12.35623843                6.72509336               55.53383224                0.00010000                3.99727075               -0.76697919               -4.50662282               -3.27209318               22.55014532                2.89808211
              13.39809063                6.27970563               55.48080900                0.00010000                4.06476437               -0.82638286               -5.14075059               -4.71375641               24.72115127                3.10395942
              14.43753372                5.80924914               55.44466158                0.00010000                3.41472867                0.09444112               -5.69340294               -6.06130257               26.58889470                2.68337728
              15.46638521                5.32225738               55.42224051                0.00010000                2.21071510                2.23594433               -6.27679182               -5.66742658               28.95835190                2.10829058
              16.48174802                4.84197188               55.42879261                0.15578368                1.17940940                3.96695572               -6.64280560               -2.21939274               16.58932609                3.86600489
              17.48997339                4.40117979               55.15528427                0.65806097                0.82253717                5.15509356               -5.73230062                0.32996290                2.67913351                0.60647740
               7.61700712                9.63465438               56.27689548                0.91129984                0.00752789               -0.20386403                0.64883237               -0.04054552                0.02006255                0.75380319
               8.61708240                9.28004271               55.98555040                0.28670995                0.21759249                0.23874243               -0.71752605                0.03569030                0.25928642               -0.56623170
               9.62135897                8.92514065               55.69894153                0.00010000                2.09971640                0.68348883               -2.04380356               -1.03026248               11.18173691               -2.03567799
              10.65907672                8.54692679               55.62528500                0.00010000                4.18993836                0.14738856               -3.19790645               -1.96781282               22.36288926               -0.11424818
              11.70515773                8.14315476               55.56188178                0.00010000                4.88453698               -0.42234063               -4.13721497               -2.67885455               23.75785348                1.23147706
              12.75676746                7.71834703               55.51410908                0.00010000                5.20118437               -0.70415400               -4.87243638               -3.19712659               25.65264805                2.11809356
              13.80918142                7.27427213               55.48509608                0.00010000                4.98756344               -0.49037927               -5.38544456               -3.83519670               27.63178049                2.89170156
              14.85651873                6.81297510               55.47240775                0.00010000                4.27587423                0.31992876               -5.70436019               -4.34527173               29.15436411                4.12026091
              15.89469891                6.34094260               55.46898855                0.03172927                3.11033279                1.36670847               -5.68951739               -4.18871689               30.73645053                5.21788707
              16.91872539                5.86769333               55.48300945                0.21121409                1.60451084                1.91507717               -3.75057166               -1.82218343               16.26605998                2.50727578
              17.92678912                5.42979706               55.18777211                0.67321258                0.80637345                2.06705692               -3.59108017               -0.10450450                0.95015884                0.28726603
               7.96898944               10.63301566               56.18332467                0.90953339                0.09843537               -0.12367721                0.35897239               -0.04402663                0.00880695                0.74640337
               8.96997379               10.28287665               55.88531847                0.30910916                0.31765859                0.32941015               -1.02086300                0.02915688                0.18728859               -0.56047715
               9.97534261                9.93238020               55.59081469                0.00010000                2.97409858                0.74811325               -2.33877674               -1.61519274               12.95968651               -1.79702909
              11.02945576                9.54748933               55.54746903                0.00010000                5.89026363               -0.25971900               -3.58018747               -2.69925561               25.91774311               -0.26083367
              12.09314788                9.13773173               55.51083686                0.00010000                6.58613846               -0.89129937               -4.53105613               -2.64985668               27.10103071                0.73717592
              13.16117853                8.71101028               55.48880099                0.00010000                6.68053739               -0.89643999               -5.19462475               -2.52555557               29.07115058                1.53347423
              14.22675863                8.26989804               55.48831013                0.00010000                6.13896430               -0.61881287               -5.47866307               -2.52329721               31.67123261                2.65296530
              15.28395782                7.81564771               55.51448068                0.00010000                5.05670087               -0.08696846               -5.13733970               -2.54377024               33.41238752                5.00992975
              16.32789265                7.34959154               55.54497390                0.08064392                3.62460375                0.25153041               -4.45724015               -2.51098808               30.47511751               10.96329046
              17.35644989                6.88027342               55.50821946                0.26939629                1.78915915                1.05510861               -2.59379186               -1.54366065               13.75956103                1.01744319
              18.36367583                6.44252093               55.20120119                0.68337048                0.72259369                1.03669513               -2.66199468               -0.00712652                0.29230720               -0.69744579
               8.31640461               11.63218083               56.08950464                0.87148456                0.18963830               -0.04093624                0.06591991               -0.04735954                0.01810329                0.63946267
               9.31830099               11.28663091               55.78510327                0.32837765                0.40189119                0.42177495               -1.33149109               -0.00208839                0.34965202               -0.49956956
              10.32444243               10.94010292               55.48724559                0.00010000                4.07195452                0.78631937               -2.64210519               -2.52325580               14.73800646               -1.12898353
              11.39974008               10.54173241               55.46976213                0.00010000                8.20986048               -1.59006582               -3.91525032               -2.63299759               29.11602824               -0.09303820
              12.48863964               10.12532878               55.45587921                0.00010000                8.71749779               -1.55710051               -4.84877244               -1.82525579               30.26393334                0.40668197
              13.57409004                9.70041824               55.45679516                0.00010000                8.27192038               -1.31854087               -5.42035221               -1.33954027               32.54757461                0.87424238
              14.65407805                9.26189588               55.48440917                0.00010000                7.59298936               -1.04467342               -5.43211668               -1.20705366               36.06807702                1.68638227
              15.72594983                8.81123574               55.55148884                0.00010000                6.28876918               -0.91974165               -4.48368456               -1.28395914               41.99174249                3.71691685
              16.77985343                8.34597321               55.69239479                0.15407061                3.44864829               -0.31802796               -1.06487691               -0.96443664               30.29569096                9.28833746
              17.79492279                7.88879550               55.52106468                0.35159462                1.11490717                0.80970062               -2.49744403               -0.89075335                7.30509487                0.45358732
              18.80215158                7.45053097               55.20484628                0.68562178                0.72287854                0.74245308               -2.34422614                0.03472876                0.07887271               -0.87211661
               8.65914209               12.63219694               55.99388637                0.93747194                0.28678436                0.00161046               -0.23218762                0.18526939                0.28836035                0.54039807
               9.66200994               12.29131215               55.68590476                0.70256189                0.53169501                0.46812386               -1.64724045                0.16637699                0.99867033               -0.43089651
              10.66977599               11.94810659               55.39202447                0.44922342                6.47800082                0.80036704               -2.95587734               -4.24785091               16.55461488               -0.67408449
              11.79156995               11.51568801               55.39388535                0.36813185               11.40904735               -2.60443987               -4.17037510               -2.89285652               31.93528049                0.00395266
              12.89795694               11.10658972               55.39641973                0.36038082               10.31253370               -1.87390572               -5.02802545               -0.62069751               33.15924117                0.29908257
              13.99782063               10.68463947               55.41493614                0.36661513                9.69215578               -1.57787686               -5.48418363               -0.50619848               35.69605187                0.60248694
              15.09180006               10.24900458               55.46257359                0.38676683                8.81903372               -1.28913021               -5.32792192               -0.59712896               39.84437339                1.11882913
              16.17420130                9.79725288               55.55928275                0.42184273                6.96220475               -1.39828583               -3.93463531               -0.46353197               46.16986699                2.59239717
              17.23104415                9.34323099               55.72918989                0.61424882                2.99378843               -0.27422253               -0.86668881                0.07979942               31.41192407                4.15989721
              18.23407707                8.89646743               55.53137777                0.71655889                0.49276594                0.76719336               -2.48468339               -0.37762203                6.73679888                0.40128510
              19.24089947                8.45736999               55.21318956                0.84321805                0.68223996                0.68390225               -2.20816044               -0.03495513                0.68328120               -0.67452183
               5.28664149                2.77525086               57.95089956                1.00000000               -0.68623172               -0.85305027                2.95456276               -0.26474041               -0.70201838                0.73238933
               6.27977917                2.38423080               57.68144755                1.00000000               -0.49669034               -0.40813395                1.54090343               -0.20150086               -0.89760479                0.11917930
               7.27670768                1.99242185               57.40788112                1.00000000               -0.11915057                0.02260502                0.15144820               -0.20766730               -0.80875754               -0.15027875
               8.27739616                1.59870100               57.13986829                0.63958780                0.13077677                0.50257876               -1.28302266               -0.32866529                0.35261715               -0.69714662
               9.27932322                1.20126731               56.88904884                0.60229942                0.46073207                1.07462408               -2.87117824               -0.31164323                1.45209706                0.02375859
              10.28661080                0.80246089               56.64215626                0.51621055                0.94003918                1.49383197               -4.40360279               -0.29760464                1.56086105               -0.23788353
              11.29812400                0.39985750               56.39283162                0.23974451                0.33123711                2.00048996               -5.90330931               -1.46090932                3.22677502               -0.63615251
              12.29323554               -0.02992515               56.17973681                0.00010000              -12.53896008                2.11542585               -6.37348134              -25.11468615               10.22336955               -0.88312515
              13.04734480               -0.94707843               56.11135061                0.00010000               -9.81883132                7.13542851               -7.64370112              -25.78011834               15.79788560                1.04002175
              14.09685892               -1.66579770               56.09624737                0.63463424                4.43021885                3.18406890              -12.21765231              -16.66753233                9.01185565                1.54712420
              15.13594918               -2.04423467               55.87130887                1.00000000                3.90902591                3.71540931              -13.96932069               -0.87325979               -0.14618574               -1.20111522
               5.67501414                3.76672035               57.85430072                1.00000000               -0.58354777               -0.80616412                2.63929555               -0.03312467               -0.10507004                0.99494019
               6.66917867                3.38014946               57.58477308                1.00000000               -0.38091189               -0.36648195                1.22489119                0.02612546               -0.13153461                0.19082935
               7.66739591                2.99264790               57.31454768                1.00000000                0.02540562                0.06530155               -0.17101402                0.02913148               -0.01833591               -0.27918259
               8.66968678                2.60372679               57.04701968                0.46390424                0.34654691                0.53520789               -1.60678699               -0.04612496                1.63696379               -0.92385053
               9.67432684                2.21201355               56.80953993                0.48328000                0.73264422                1.08650787               -3.26745966               -0.08728655                2.93095714                0.02683345
              10.68433966                1.81739921               56.56655054                0.40287585                1.26905413                1.52752513               -4.81372691               -0.09333737                2.58350640               -0.37295269
              11.69970793                1.41986240               56.32067947                0.08296431                1.56084905                2.01420433               -6.27756818               -1.52274231                5.89536089               -1.00523925
              12.71555664                0.99122911               56.14213348                0.00010000               -4.61140185               -3.03316976               -4.74337704              -26.18807242               20.60088878                5.06134490
              13.60747989                0.12427586               56.18729541                0.00010000              -11.83974637                5.77096536               -5.76717229              -34.84787948               30.23411950                3.16043836
              14.47876172               -0.63395701               56.25367723                0.47877723               -5.09131678                2.56059072               -9.23566965              -18.56366317               14.76261136                2.82314551
              15.50565355               -1.00708058               56.02347303                1.00000000                2.68918375                3.06235640              -10.88640086               -0.67101677                1.62860201               -0.55062193
               6.05912079                4.75912757               57.76282569                1.00000000               -0.47466531               -0.70779666                2.30022421               -0.03275373                0.10446921                1.19896209
               7.05437413                4.37690116               57.48938396                1.00000000               -0.27039042               -0.27669746                0.89966161                0.02528877                0.23663978                0.15870287
               8.05371298                3.99372788               57.21846163                0.79111322                0.13669393                0.15835833               -0.48937724                0.02673616                0.46937689               -0.55909951
               9.05710801                3.60940516               56.94946246                0.00010000                0.50960469                0.60416597               -1.87436518               -0.03286922                3.04461727               -1.14506021
              10.06390507                3.22299747               56.72980207                0.00010000                0.98935992                0.44150239               -3.70684445               -0.81546226                4.47470803                1.23343415
              11.07689521                2.83301139               56.48754257                0.00010000                1.49670908               -0.01520348               -5.25986862               -1.45201527                3.14893254                4.03363704
              12.09383925                2.44014158               56.23961894                0.00010000               -0.59172889               -1.80889506               -6.60345954               -8.67344821               14.41045791                9.02449774
              13.06506063                1.90941146               56.22093275                0.00010000               -5.91329637               -6.93659490               -1.18022013              -26.59407942               28.20623710                7.04240035
              13.97557333                1.16834088               56.28248589                0.00910677              -10.40592710                4.67358304               -4.19524722              -36.42038573               35.77505446                2.70429562
              14.85694209                0.38541412               56.40633701                0.49419939               -5.33986714                1.35879319               -2.96995468              -20.17097722               19.19321649                1.98946756
              15.86877598                0.01701246               56.15436837                1.00000000                1.18338927                1.91369846               -6.02038757               -0.46046314                0.89742142               -1.92211809
               6.43881190                5.75256442               57.67020120                1.00000000               -0.37277662               -0.59436693                1.94718709               -0.04446174                0.22161300                1.01291055
               7.43508413                5.37461551               57.39193839                0.71855394               -0.16926369               -0.17103709                0.55824707                0.01549774                0.51041818               -0.18706789
               8.43542662                4.99581507               57.11938338                0.19158946                0.23378378                0.27385964               -0.79705847                0.00341218                1.06332193               -1.07518690
               9.43975981                4.61581011               56.85200572                0.00010000               -0.05076269                0.66968075               -2.15792598               -0.82555389                5.80535299               -0.56538083
              10.43441137                4.22084360               56.67417438                0.00010000               -0.08022830               -0.19441130               -3.31320038               -2.05142597               10.22596094                3.05240441
              11.43815524                3.81709514               56.49933228                0.00010000                0.77137628               -1.68294560               -4.43245032               -3.88075353               12.57861462                7.62051526
              12.44983890                3.38368449               56.36692145                0.00010000                0.86602572               -4.87259512               -4.56491946               -9.84771175               19.08411588               13.00026057
              13.45547576                2.85249721               56.31136206                0.00010000               -2.33846927               -4.15001118               -4.50070917              -17.28452198               26.77676114                6.51511745
              14.40306951                2.21774752               56.32688364                0.00010000              -11.44025808                3.43306968               -3.87599536              -26.99965065               38.33383124               -2.06997625
              15.22667059                1.39321886               56.51821165                0.04836346               -8.49109487               11.07435447               -0.97559470               -9.13949666               23.76002557              -18.17176808
              16.23324761                1.03119339               56.25070763                0.63752100                0.65770186                2.65808750               -4.18162596               10.21802346                1.35032537              -17.95490027
               6.81412937                6.74724023               57.57492652                1.00000000               -0.26959337               -0.47532917                1.58415783               -0.04774570                0.10984398                0.77662590
               7.81143344                6.37348042               57.28953880                0.43946372               -0.07713774               -0.05682202                0.18376725                0.02715221                0.54691613               -0.52600585
               8.81258662                5.99920507               57.01282178                0.00817081                0.20674816                0.39292033               -1.14993136               -0.01763286                2.47309167               -1.65626415
               9.81556840                5.62279878               56.76582168                0.00010000                0.45024537                0.25022210               -1.92501309               -1.13995475                9.95300560                2.96796856
              10.82159153                5.21910924               56.63991249                0.00010000                1.04354205               -0.34313364               -3.25125178               -2.07492967               15.76321715                3.68327621
              11.83643924                4.79935248               56.50980981                0.00010000                1.99457091               -1.76824581               -4.14014259               -3.52102707               17.33434206                5.72364681
              12.86148294                4.34268968               56.41024595                0.00010000                2.44339616               -3.34217238               -4.76333034               -7.14781488               21.47391027                6.00284957
              13.88530717                3.82641123               56.35271681                0.00010000                1.66878610               -2.15071442               -5.14849298              -12.21705390               25.89665923                2.64358537
              14.89485867                3.23700227               56.33351520                0.00010000               -1.23004414                2.28364076               -5.45316162              -14.05968227               25.11237769               -4.54131303
              15.86070628                2.60690121               56.25581619                0.06750895               -4.88356418               16.35202482               -6.23228802               -2.40725517               15.18348194              -22.58900411
              16.79718738                2.07017421               56.04499264                0.64387409               -6.35189016               10.17150166               -7.60145403                1.49620778                8.15351137              -24.34158748
               7.18537662                7.74305784               57.47748015                0.94471004               -0.17142843               -0.37154391                1.25395984               -0.04089775                0.04039604                0.68214409
               8.18366234                7.37347907               57.18528863                0.33370085                0.01894931                0.04595992               -0.13206649                0.04165892                0.48861068               -0.59911785
               9.18575561                7.00367347               56.90200317                0.00010000                0.66971049                0.47865748               -1.49267726               -0.51131264                7.07194572               -1.95346512
              10.19705655                6.62081455               56.74115137                0.00010000                1.53017349               -0.07827221               -2.47799443               -1.33066335               14.44826349                3.27119893
              11.21635908                6.21398093               56.60686809                0.00010000                2.35488577               -0.56970640               -3.46363467               -2.49887910               17.43880423                2.96683985
              12.24415426                5.78173022               56.50395161                0.00010000                3.17323840               -1.53557493               -4.38415980               -4.14738926               20.40171953                3.54930497
              13.27982384                5.31684105               56.42427419                0.00010000                3.63339111               -2.03650631               -5.16917174               -6.92616512               23.20138477                3.15907841
              14.31682208                4.80948292               56.36933950                0.00010000                3.07810222               -0.93842421               -5.95199697              -10.05663342               25.37545010                0.90107587
              15.34138589                4.26342033               56.32368892                0.00010000                1.42657372                2.97305020               -7.15965786              -10.79971021               24.87721029               -3.10987566
              16.34535356                3.72025935               56.24946546                0.08110158               -0.23800593                9.74134857              -10.01892474               -5.21161622               15.43729544               -3.49065611
              17.33662577                3.23462343               56.00873950                0.63487230               -0.87277879               14.32343373              -10.63001408                1.30567086                6.78818111               -8.86637064
               7.55246895                8.73980936               57.38014835                0.91710751               -0.08179744               -0.28287485                0.97087755               -0.04012749                0.03838085                0.73376190
               8.55165098                8.37439961               57.08158562                0.28949945                0.12779632                0.13682592               -0.44369405                0.03998889                0.37931021               -0.57276081
               9.55502488                8.00877822               56.78981211                0.00010000                1.34983523                0.54988331               -1.81647260               -0.93882652                9.41251064               -2.05132092
              10.57864768                7.62123333               56.67131722                0.00010000                2.78366977                0.07677173               -2.92130170               -2.02960808               18.80809215                0.25722558
              11.61069828                7.20771511               56.56870483                0.00010000                3.59918267               -0.55943734               -3.92343991               -3.25075214               20.68755401                1.69160901
              12.65063134                6.76864098               56.48692333                0.00010000                4.22543321               -1.08686890               -4.83308618               -4.66949416               22.95028955                2.12928485
              13.69520694                6.30195955               56.42648693                0.00010000                4.34819362               -1.04089275               -5.69162106               -6.52402658               25.12225678                2.06380847
              14.73759521                5.80764275               56.38318927                0.00010000                3.64405453                0.25131396               -6.60475323               -8.15457707               26.86573642                1.32168468
              15.76808803                5.29646328               56.35198490                0.00010000                2.38378294                3.13512305               -7.80634163               -7.40487706               28.94299170                0.61820040
              16.78527087                4.80172818               56.34648170                0.12016305                1.32423131                6.45875166              -10.70083404               -3.05905526               17.82036396                3.87341255
              17.79457266                4.35664288               56.08707999                0.64183047                0.93017880                8.65117994               -9.23888863                0.37271810                5.28501586                0.69730826
               7.91539355                9.73740034               57.28353818                0.90290845                0.00996929               -0.20183171                0.67714630               -0.04239242                0.01913729                0.78256569
               8.91549325                9.37621559               56.97819220                0.27812985                0.23759024                0.23058934               -0.75104171                0.03132173                0.28028760               -0.56807975
               9.92014536                9.01467114               56.67802359                0.00010000                2.10171245                0.64318051               -2.13975583               -1.40606489               11.29496745               -2.06862445
              10.95752750                8.62234999               56.59222502                0.00010000                4.18955146                0.08633890               -3.39653648               -2.78723288               22.55448233               -0.49986591
              12.00393639                8.20279218               56.51879147                0.00010000                4.94962213               -0.51575094               -4.45021954               -3.71968976               24.01708365                0.60654387
              13.05651994                7.75999284               56.46282011                0.00010000                5.32025786               -0.77295683               -5.35224574               -4.51264441               25.93865040                1.29593243
              14.11034154                7.29602319               56.42745909                0.00010000                5.13534398               -0.40856549               -6.13184403               -5.36745425               27.90315500                1.93664881
              15.15922682                6.81450920               56.40970022                0.00010000                4.44306855                0.73258797               -6.88392490               -5.80993877               29.45366221                3.29670783
              16.19920292                6.32612280               56.40405525                0.01604440                3.23830160                2.37039428               -7.57385123               -4.82048015               32.07281358                4.78109883
              17.22399285                5.84943439               56.43839361                0.17573448                1.75239060                3.41570893               -6.26819100               -1.85670825               17.88356698                3.99262762
              18.23425073                5.40764702               56.14778920                0.65204896                1.02578782                3.50744866               -5.11028644               -0.17932114                2.06411694                1.54144658
               8.27399061               10.73577272               57.18706506                0.90206250                0.10160023               -0.12506998                0.38814544               -0.04639079                0.00884366                0.77894547
               9.27500661               10.37901140               56.87487044                0.29665676                0.33892854                0.33142908               -1.06616694                0.01498336                0.21603856               -0.57328080
              10.28076918               10.02164183               56.56676222                0.00010000                2.98876876                0.74531255               -2.48250140               -1.98444707               13.03634469               -1.85671454
              11.33478199                9.62296011               56.51017089                0.00010000                5.89462219               -0.20541553               -3.87980609               -3.45214696               26.02154265               -0.60902577
              12.39866163                9.19740009               56.46323512                0.00010000                6.61827246               -0.82139754               -4.97522228               -3.55096057               27.28901760                0.18139409
              13.46714744                8.75318184               56.43358729                0.00010000                6.73399355               -0.75518330               -5.83578586               -3.56772771               29.31452619                0.82063031
              14.53334150                8.29378824               56.42897509                0.00010000                6.20746965               -0.32342469               -6.41820683               -3.59626163               32.10279190                1.92021754
              15.59129683                7.82229451               56.45721938                0.00010000                5.17058730                0.44293702               -6.46454817               -3.34642345               34.04346068                4.70811796
              16.63675324                7.34387116               56.49337905                0.07614197                3.76578225                0.90416050               -6.30741815               -2.70367183               32.02671494               12.60175831
              17.66661248                6.87004236               56.48007049                0.24115537                1.89038588                1.57453384               -3.30593422               -1.48901148               15.01043407                1.49544026
              18.67456096                6.42679186               56.17367141                0.65832043                0.79484847                1.41948605               -3.08378376               -0.09659461                0.51427532               -0.00736648
               8.62798838               11.73489894               57.09032626                0.86263493                0.19354230               -0.04750537                0.09865329               -0.04898228                0.01972635                0.66998971
               9.62992380               11.38284417               56.77148907                0.31072008                0.42596647                0.43412135               -1.38892101               -0.01486460                0.38892512               -0.52086506
              10.63650771               11.02957739               56.45996714                0.00010000                4.14012474                0.81810739               -2.84969641               -2.84566297               14.82017018               -1.19346403
              11.71272630               10.61824168               56.42875961                0.00010000                8.30938685               -1.50930526               -4.30757915               -3.14347857               29.20355831               -0.29590150
              12.80269544               10.18636423               56.40464902                0.00010000                8.80254691               -1.39646176               -5.40611294               -2.38797619               30.44952349                0.07128450
              13.88877723                9.74488918               56.39878476                0.00010000                8.33041015               -1.04744853               -6.20009105               -1.93037650               32.84747324                0.43843682
              14.96930365                9.28955470               56.42508405                0.00010000                7.67190970               -0.62927579               -6.52688721               -1.74719998               36.75366830                1.27471053
              16.04221543                8.82336794               56.50090641                0.00010000                6.40389900               -0.39536376               -5.85745992               -1.69930885               44.18901883                3.72119412
              17.09738163                8.34420601               56.67886554                0.17107457                3.45382503                0.13057527               -2.02398037               -1.10339974               31.12156513               10.68261888
              18.11129193                7.88092506               56.49485739                0.34060078                1.07191071                0.96931148               -2.78120180               -0.83881294                6.59728862                0.33114057
              19.11881984                7.43603675               56.18181529                0.65788884                0.75279129                0.79081058               -2.35573766                0.00490347                0.20866435               -0.57628045
               8.97712051               12.73482261               56.99173124                0.93215309                0.29103611               -0.00763251               -0.19687396                0.20033440                0.29855906                0.56807939
               9.98003087               12.38769383               56.66909477                0.69331781                0.56689527                0.48496606               -1.71113904                0.16977516                1.05584554               -0.45592989
              10.98845841               12.03800398               56.36153454                0.44710564                6.75473554                0.84265906               -3.18870476               -4.55092058               16.69549837               -0.71840632
              12.11512558               11.59277401               56.35022541                0.36796850               11.78980942               -2.54676714               -4.59935577               -3.18672776               32.14089558               -0.03336745
              13.22425460               11.16947086               56.34327881                0.36040855               10.51119292               -1.68933691               -5.63264142               -0.87114097               33.49886192                0.19037597
              14.32534944               10.73223287               56.35618125                0.36639464                9.78320648               -1.26563050               -6.31865551               -0.75618616               36.17153164                0.46080914
              15.41991873               10.28120273               56.40429112                0.38579095                8.86549535               -0.83519694               -6.46853545               -0.83077362               40.85323916                1.03273446
              16.50265935                9.81438723               56.51487433                0.41959337                6.86046972               -0.89807105               -5.20372857               -0.69161121               48.34838629                2.99604343
              17.55712813                9.34648267               56.71750083                0.62935996                2.76730658                0.22766641               -1.67612455               -0.27328235               31.68821984                3.89620721
              18.55800548                8.88942859               56.50590300                0.71611915                0.36537706                0.85035242               -2.58668792               -0.52237532                5.80892795                0.22859396
              19.56443567                8.44260807               56.19220507                0.82824348                0.64301901                0.65713218               -2.04868799               -0.12046960                0.67811030               -0.45218631
               5.55635740                2.88062400               58.98032075                1.00000000               -0.67411952               -0.84353969                2.91943278               -0.26457963               -0.66568310                0.70918949
               6.54961620                2.48365737               58.69670233                1.00000000               -0.48254274               -0.39986495                1.50705253               -0.20213971               -0.84665591                0.11496505
               7.54670654                2.08592264               58.40918624                1.00000000               -0.10111684                0.02982460                0.11440524               -0.20688439               -0.77008860               -0.13977328
               8.54759387                1.68635265               58.12678433                0.63108906                0.15508528                0.50770828               -1.32047918               -0.33881938                0.28079267               -0.66717533
               9.54980825                1.28287827               57.85994362                0.58385812                0.48319687                1.08058522               -2.92491459               -0.32678494                1.30871639               -0.00938765
              10.55725780                0.87753500               57.59761415                0.48663680                0.92596783                1.51639901               -4.47227661               -0.34536827                1.44462868               -0.29267964
              11.56832761                0.46739444               57.33325605                0.19017589               -1.14980768                2.06268049               -5.96508360               -3.55493104                3.67727634               -0.64965820
              12.53426165               -0.01218466               57.11635802                0.00010000              -15.91456594                2.29414326               -5.94457375              -28.35188373                8.03514858               -2.10752016
              13.25003629               -1.02205533               57.03371484                0.00010000              -11.03132655                8.20836473               -7.45017001              -29.61742346               12.78166029                1.64757656
              14.31363512               -1.82297655               56.95222772                0.59599111                5.78292978                4.86213423              -15.82026343              -20.02362058                6.52778810                2.46349788
              15.36569488               -2.22789986               56.70614149                1.00000000                5.20597635                5.63474442              -18.33571401               -0.54586922               -0.78263155               -0.87245446
               5.95067823                3.87218861               58.88058781                1.00000000               -0.57327439               -0.79728028                2.60864743               -0.03497247               -0.08695282                0.96689079
               6.94494549                3.47965872               58.59688561                1.00000000               -0.36940853               -0.35877187                1.19542590                0.02320595               -0.10127536                0.18386952
               7.94329006                3.08622089               58.31265998                1.00000000                0.03911864                0.07169166               -0.20095548                0.02762328                0.00009359               -0.27009553
               8.94572786                2.69142974               58.03074232                0.46544057                0.38295830                0.54025198               -1.63518302               -0.05758748                1.50508692               -0.87205620
               9.95094923                2.29368412               57.77638309                0.47720372                0.79090875                1.08682456               -3.32812076               -0.09209183                2.71054217               -0.04469136
              10.96154603                1.89269899               57.51758748                0.38708342                1.33444493                1.54649178               -4.92446109               -0.12472610                2.43230322               -0.46115317
              11.97763812                1.48802124               57.25679555                0.05100451                1.69608320                2.05877274               -6.43008467               -3.61034721                7.58391974               -1.00298024
              12.99546770                1.01075677               57.10016061                0.00010000               -5.91900629               -4.89164709               -3.34012931              -31.39716000               21.88886669                4.34485249
              13.85925800                0.06002831               57.12741529                0.00010000              -13.95732617                6.95152426               -6.06531344              -39.19612972               27.34150149                3.32352643
              14.71632117               -0.77435521               57.13332752                0.35581909               -4.70492526                4.31276184              -15.97714827              -20.87073252               12.85639336                6.61968894
              15.76515949               -1.17155241               56.88394635                1.00000000                4.88383186                4.88477988              -18.28117619               -0.78005812                2.52216119                1.76246199
               6.34071771                4.86467840               58.78575844                1.00000000               -0.46696706               -0.70020921                2.27802499               -0.03635675                0.12155346                1.16006449
               7.33604804                4.47648194               58.49826536                1.00000000               -0.26148568               -0.27035158                0.87498868                0.01970401                0.26236101                0.14066121
               8.33548800                4.08735647               58.21341141                0.77604837                0.14654218                0.16429505               -0.51506406                0.02340579                0.50449950               -0.54839586
               9.33897888                3.69715769               57.93057314                0.00010000                0.56045802                0.61026050               -1.89044897               -0.05111581                2.83355585               -1.08268151
              10.34669716                3.30461476               57.69216151                0.00010000                1.07236358                0.18459547               -3.76809719               -0.98099460                4.14688925                1.55801399
              11.36042616                2.90846484               57.43397816                0.00010000                1.56828599               -0.49532204               -5.37540360               -1.64422556                3.04970676                4.57830576
              12.37806288                2.50856989               57.17253949                0.00010000               -1.30573884               -3.02419759               -6.73454890              -12.67129963               17.60729537               10.21486202
              13.33431138                1.88998240               57.20435715                0.00010000               -6.34186010               -8.13358045               -2.39018975              -31.72992188               31.59442154                6.34715269
              14.25122568                1.11697515               57.23972833                0.00010000              -10.32550919                5.20620011               -4.71902083              -39.57284161               37.07408246                2.29195484
              15.12780120                0.26327868               57.36833811                0.46136410               -5.33687765                2.61124511               -4.23421702              -22.13938455               20.99287698                5.87997294
              16.14448812               -0.13020426               57.08016687                0.98297938                1.66869275                3.22542529               -8.19502339               -0.90122990                0.41181748                0.19797922
               6.72634402                5.85818442               58.68966146                1.00000000               -0.36825268               -0.58833188                1.93553224               -0.04772574                0.23713846                0.96398456
               7.72266149                5.47425169               58.39742461                0.69199869               -0.16307983               -0.16747384                0.53884129                0.01181827                0.54501220               -0.22854937
               8.72308242                5.08950679               58.11123756                0.16998468                0.23928847                0.27868061               -0.82669602                0.00369839                1.11646440               -1.08539751
               9.72744726                4.70363495               57.83029333                0.00010000               -0.15301144                0.59708082               -2.17027252               -1.13490384                5.95910113               -0.21186097
              10.72002219                4.29737603               57.64097378                0.00010000               -0.13704362               -0.72544236               -3.28284128               -2.66697058               10.50842861                3.54673186
              11.72470639                3.88279255               57.45474787                0.00010000                1.13361886               -2.72723812               -4.43579454               -4.91837678               13.40301277                8.39154584
              12.74269457                3.42753729               57.32075900                0.00010000                1.38788077               -6.81586190               -4.67984423              -12.50956973               20.70396936               13.84435052
              13.75246400                2.84808516               57.26541672                0.00010000               -2.40948435               -3.51100574               -4.77203023              -20.32105808               29.03492276                4.17054086
              14.69450488                2.16415232               57.28721058                0.00010000              -11.58755535                3.45906734               -4.29944235              -30.86484662               42.29631691               -3.90971848
              15.52071290                1.27786969               57.50095656                0.06234880               -8.02020502               12.12094431               -3.14102478              -11.59411635               27.08305416              -20.71732264
              16.53410078                0.89295609               57.19767032                0.66718934                1.33878857                3.41446592               -6.78030836                9.34458889                2.04514227              -20.48526434
               7.10762865                6.85291176               58.59069074                0.98329202               -0.26666147               -0.46820617                1.58099894               -0.04644809                0.11851710                0.74396472
               8.10496204                6.47313246               58.29129669                0.41936965               -0.07249709               -0.06122207                0.17169045                0.03180584                0.58254052               -0.55765946
               9.10617871                6.09293009               58.00114954                0.00010000                0.17247637                0.38227623               -1.17697103               -0.07764695                2.87311619               -1.69229203
              10.10841157                5.70909931               57.74745263                0.00010000                0.40107152               -0.10881315               -1.68615827               -1.71413746               10.28889958                3.00837711
              11.11420014                5.29010591               57.60746176                0.00010000                1.17428945               -0.91156904               -3.20112643               -2.95126794               16.01821377                3.73965384
              12.13189736                4.85392007               57.46808875                0.00010000                2.41893624               -2.76166737               -4.16847719               -4.80974683               18.03817092                5.72344521
              13.16257887                4.37225266               57.36175155                0.00010000                2.96889184               -4.48984574               -4.91335352               -9.53001152               22.51652076                5.41895158
              14.19127519                3.81976228               57.29950795                0.00010000                2.07826740               -2.47249082               -5.51452554              -15.50846830               27.25016192                1.22077178
              15.20414422                3.18615650               57.27620423                0.00010000               -1.20800508                2.57020927               -6.09843562              -17.51905857               26.60573144               -7.47656061
              16.16711509                2.50569757               57.19158565                0.06379410               -5.14685597               17.50029439               -6.46774849               -5.15266733               16.24822009              -28.77867439
              17.10120710                1.93808506               56.96465702                0.65793405               -6.59079948               10.71621719               -8.46820267               -0.67522864                9.03023220              -29.25369889
               7.48497365                7.84882030               58.49001821                0.93011586               -0.16943746               -0.36008087                1.26657881               -0.03723249                0.05888380                0.70131889
               8.48327928                7.47302725               58.18387546                0.32148233                0.02944889                0.03052763               -0.14835129                0.05193412                0.51367547               -0.60708445
               9.48556263                7.09715231               57.88681624                0.00010000                0.63547029                0.43667510               -1.53386687               -0.81983640                7.31681542               -1.99733091
              10.49598869                6.70145868               57.71636236                0.00010000                1.53067181               -0.52434464               -2.44396000               -2.11619906               14.87051005                2.84266156
              11.51617607                6.27914465               57.57203932                0.00010000                2.51880097               -1.10092864               -3.46004667               -3.59047183               17.85192287                2.61200619
              12.54636471                5.82755920               57.45934795                0.00010000                3.50380293               -2.25547544               -4.49202702               -5.79197500               20.91091115                3.02158172
              13.58625213                5.33774038               57.37094418                0.00010000                4.10130441               -2.72278795               -5.45511935               -9.36164459               23.79705351                2.24579857
              14.62839079                4.79863535               57.30678003                0.00010000                3.59681484               -1.22200897               -6.53073513              -13.20542937               25.78891790               -0.66814922
              15.65818842                4.21555650               57.24652837                0.00010000                1.86700976                3.40492767               -8.15633384              -14.64756896               24.45628548               -5.75284438
              16.66573099                3.62787558               57.14355841                0.05356400               -0.11835973               11.24072034              -10.77507115               -8.61654702               15.12242870               -8.75381385
              17.65582123                3.10728044               56.89034332                0.62889451               -0.99097592               16.89955962              -12.27191929               -1.39601186                7.50001159              -13.08297509
               7.85847010                8.84571014               58.38997987                0.90669495               -0.08013909               -0.27156596                0.98865211               -0.04130441                0.03008394                0.77275260
               8.85766871                8.47374301               58.07704122                0.28114779                0.14402273                0.11845182               -0.46127309                0.04384533                0.39184301               -0.58380443
               9.86135055                8.10166359               57.77130454                0.00010000                1.32132716                0.48328700               -1.87684531               -1.37338678                9.58775604               -2.11276373
              10.88409525                7.69861242               57.64168678                0.00010000                2.74698171               -0.16914429               -2.97990146               -3.00832239               19.13411904               -0.16320756
              11.91629019                7.26808734               57.52871049                0.00010000                3.66834375               -0.91946462               -4.03119939               -4.55367992               21.04132983                1.07665920
              12.95746213                6.80881056               57.43717051                0.00010000                4.39898211               -1.49787385               -5.06251340               -6.48911445               23.29281601                1.33422200
              14.00426983                6.31779690               57.36697658                0.00010000                4.59441774               -1.36117133               -6.15230867               -8.96880911               25.37710413                0.97825491
              15.04935048                5.79532210               57.31256652                0.00010000                3.88413875                0.31219008               -7.46229190              -11.14684151               26.87684502               -0.20356303
              16.08195261                5.25425505               57.26611368                0.00010000                2.68548674                3.98069646               -9.40451939              -10.77683812               27.44161857               -1.34570472
              17.10306022                4.73051198               57.21477593                0.08005622                1.62622693                9.30407551              -14.88815541               -5.56235058               18.15540473                2.30427947
              18.11447714                4.27607625               56.97050650                0.62580000                1.14169278               13.33770690              -14.99232388               -0.77062018                8.87654100               -0.58103073
               8.22808183                9.84338898               58.29043841                0.89491074                0.01209143               -0.19518254                0.69937887               -0.04499611                0.01731552                0.81913846
               9.22820274                9.47539629               57.97052957                0.26970544                0.25718337                0.21855779               -0.77730329                0.01788833                0.29538161               -0.58737635
              10.23322549                9.10681805               57.65614642                0.00010000                2.05978740                0.58193848               -2.23800150               -1.89509969               11.38928443               -2.17846517
              11.26939849                8.69807580               57.55735427                0.00010000                4.08394143                0.00809043               -3.56294569               -3.83721148               22.74562219               -0.99159672
              12.31490432                8.26075536               57.47287739                0.00010000                4.87371843               -0.62926381               -4.69132544               -5.06262113               24.26701845               -0.10415382
              13.36687286                7.79760172               57.40706417                0.00010000                5.27300412               -0.86761636               -5.73725266               -6.29857230               26.14022547                0.39362750
              14.42036440                7.31051695               57.36245920                0.00010000                5.10614754               -0.35597347               -6.80886908               -7.59050151               27.95161177                0.83193743
              15.46899581                6.80487915               57.33472925                0.00010000                4.35486924                1.16408897               -8.09944948               -8.21369632               29.28105012                2.15566307
              16.50746179                6.29517043               57.31751152                0.00010000                3.18334851                3.62806876               -9.68032526               -6.36494162               32.45350858                3.67594414
              17.53266278                5.81395709               57.35764563                0.13083553                2.09092433                6.16032340              -12.03955534               -2.39149284               19.87889806                6.07182378
              18.54928028                5.37403458               57.08556638                0.62994301                1.66174979                6.61356322               -9.59030348               -0.37813332                5.30489415                3.40900188
               8.59355556               10.84180649               58.19108758                0.89521665                0.10418417               -0.12372628                0.41381716               -0.04964713                0.00731469                0.82284495
               9.59459740               10.47811417               57.86399513                0.28465325                0.36067455                0.32964952               -1.10404564               -0.01341300                0.22250679               -0.60602424
              10.60076905               10.11330236               57.54116466                0.00010000                2.94081590                0.73216339               -2.66630131               -2.44950728               13.05575337               -2.03344886
              11.65341372                9.69877422               57.46987291                0.00010000                5.73713935               -0.11579704               -4.19274893               -4.40347077               26.10158390               -1.08799837
              12.71551184                9.25550206               57.41133241                0.00010000                6.41576825               -0.70222870               -5.38041274               -4.73076742               27.45825203               -0.48562696
              13.78172908                8.79145824               57.37208527                0.00010000                6.48352686               -0.55043583               -6.40682760               -5.05465090               29.42726280               -0.01414670
              14.84518238                8.31067743               57.35994599                0.00010000                5.93469949                0.07785550               -7.35279151               -5.30944950               32.20340651                0.95455756
              15.90042307                7.81860388               57.38518971                0.00010000                5.01967286                1.15627605               -8.01281638               -4.84540455               34.05495491                4.02153133
              16.94557583                7.32681643               57.41882553                0.06283098                3.79715704                2.01666859               -9.15391968               -3.20067377               33.82078952               14.21433602
              17.97636622                6.85371844               57.44210077                0.20011905                2.05918368                2.78143585               -5.27865701               -1.36064370               17.02252103                2.99587144
              18.98675951                6.40834752               57.13952551                0.63083529                1.03932907                2.32185608               -4.43569846               -0.38065286                1.28152238                1.32385408
               8.95447353               11.84091445               58.09147770                0.85391456                0.19650840               -0.05289581                0.13055513               -0.05098512                0.01941261                0.71413088
               9.95643861               11.48198928               57.75732485                0.29617748                0.45508810                0.44339871               -1.43930886               -0.03634971                0.37563118               -0.56020845
              10.96357529               11.12146132               57.43025166                0.00010000                4.13453778                0.86506531               -3.16761487               -3.22215794               14.81436315               -1.35937369
              12.03912937               10.69575986               57.38361054                0.00010000                8.20148348               -1.33425857               -4.77494102               -3.77603298               29.26045672               -0.60151949
              13.12760496               10.24671078               57.34775696                0.00010000                8.57375517               -1.11821951               -5.98329452               -3.13501723               30.60479577               -0.35131036
              14.21060447                9.78659301               57.33279334                0.00010000                7.97124030               -0.61977829               -6.95504315               -2.80634287               32.95887379               -0.09845130
              15.28702977                9.31207406               57.35387143                0.00010000                7.26721219                0.02838533               -7.73357477               -2.67994755               36.99720295                0.68007279
              16.35594872                8.82800467               57.43433964                0.00010000                6.06519928                0.53170143               -7.75273141               -2.45170105               46.05755615                3.48880696
              17.40833375                8.33550380               57.65191518                0.18057516                3.39850494                0.85340565               -3.98620076               -1.51074092               32.19713910               12.49378728
              18.42391882                7.86958581               57.46544064                0.31638826                1.20376614                1.26148308               -3.18577883               -0.79234641                6.35106815                0.41914508
              19.43240908                7.42047170               57.15773153                0.62689498                0.84902603                0.95995928               -2.72603832               -0.15650974                0.47812011               -0.13551169
               9.31038621               12.84074858               57.98994889                0.92704904                0.29373322               -0.01658784               -0.15888162                0.21462457                0.31672283                0.61025610
              10.31332354               12.48698214               57.65168198                0.68700713                0.60845529                0.49928642               -1.76776192                0.18124712                1.06018392               -0.49702941
              11.32255531               12.13060366               57.32825038                0.44754759                6.96600294                0.91423437               -3.54624073               -4.84665223               16.74204346               -0.81561117
              12.45264360               11.67208905               57.30189823                0.36777964               11.97115137               -2.36708031               -5.15296359               -3.52187664               32.29047057               -0.12544681
              13.56197834               11.23313767               57.28376690                0.36049532               10.37976739               -1.35731097               -6.32413533               -1.21398108               33.78838762                0.03248421
              14.66023895               10.77906267               57.28856303                0.36619178                9.40967101               -0.75303369               -7.20410410               -1.13117940               36.43943641                0.25963917
              15.75017176               10.31124513               57.33320289                0.38476470                8.38601819               -0.08289267               -7.83765082               -1.17703849               41.45620125                0.84834238
              16.82795931                9.82923791               57.45520818                0.41720035                6.18040579                0.12332422               -7.15735605               -1.16697024               50.38557835                3.45931500
              17.87377988                9.34388454               57.69566740                0.64107244                2.37960412                0.83807374               -2.97416606               -0.96987786               32.34740777                3.76582038
              18.87555139                8.87894811               57.47964401                0.70889641                0.40388266                0.93622998               -2.67643951               -0.65363414                5.23728523                0.07214542
              19.88185753                8.42754670               57.17221580                0.81160067                0.63061371                0.70750050               -2.17123822               -0.19529498                0.72952804               -0.16664147
               5.84056466                2.98890054               60.00928821                1.00000000               -0.65841031               -0.82800570                2.86465684               -0.26221678               -0.63503829                0.69039658
               6.83398056                2.58616355               59.71158860                1.00000000               -0.46703773               -0.38997304                1.46759079               -0.20103820               -0.80365738                0.11100882
               7.83122391                2.18267892               59.41016922                1.00000000               -0.08629615                0.03419086                0.08680746               -0.20438559               -0.73925681               -0.13046799
               8.83225464                1.77744153               59.11345871                0.62334493                0.17219088                0.50553330               -1.33261381               -0.34283793                0.19829371               -0.64001082
               9.83466773                1.36820062               58.83055054                0.56666182                0.49681508                1.07012090               -2.93180853               -0.33656541                1.16051790               -0.04627973
              10.84219094                0.95666063               58.55271073                0.45833592                0.91289661                1.51515071               -4.48241347               -0.38253262                1.35538402               -0.35214797
              11.85292566                0.53978533               58.27352995                0.14237029               -4.43556035                2.07340177               -5.94569756               -8.22831533                4.60613526               -0.64493194
              12.75347973               -0.03968074               58.06084534                0.00010000              -19.29086780                2.98077729               -4.36902144              -29.14220625                4.66346894               -4.13751250
              13.46710830               -1.10152780               57.96234721                0.00010000               -9.92458552                8.62606954               -6.84037382              -31.54885777                9.09012070                3.73357148
              14.55498802               -1.97872733               57.77984210                0.58371403                7.26803483                6.10537137              -17.30255789              -23.35123249                3.00778624                2.84397049
              15.61246900               -2.41729347               57.50459459                1.00000000                5.74809777                7.14367485              -20.47125480                0.38239747               -1.55620675               -0.64729163
               6.24067948                3.98062048               59.90647366                1.00000000               -0.55984962               -0.78226626                2.55993362               -0.03699871               -0.07079577                0.94510014
               7.23508099                3.58226382               59.60868160                1.00000000               -0.35692093               -0.34940844                1.16185488                0.01940876               -0.07402095                0.17705878
               8.23354107                3.18302083               59.31052857                1.00000000                0.04922097                0.07517304               -0.22019358                0.02521590                0.01593106               -0.26389034
               9.23606541                2.78249686               59.01431602                0.46910253                0.40757283                0.53794996               -1.63778716               -0.06723049                1.36244848               -0.82173358
              10.24169252                2.37890183               58.74297751                0.47443104                0.82539259                1.06832151               -3.32422381               -0.09573058                2.45904198               -0.11210713
              11.25257326                1.97181213               58.46806132                0.37485686                1.35603345                1.53782465               -4.93444780               -0.15310303                2.24273568               -0.53310743
              12.26881319                1.56051935               58.19207778                0.02248445                1.50704901                2.03450217               -6.44104512               -7.95022958               10.13965718               -0.95407018
              13.28271424                0.99012703               58.07533089                0.00010000               -7.38350867               -4.46104252               -2.06731555              -34.97529846               21.62156870                1.44643843
              14.12114302               -0.01526711               58.06598914                0.00010000              -15.16778556                7.79562447               -6.30824652              -41.09174651               19.96584543                4.30142336
              14.97935853               -0.91767361               57.93413427                0.25404751               -3.31419517                5.70559287              -22.63135756              -22.46082704                7.95803154               15.16373477
              16.05485911               -1.34585672               57.65784951                1.00000000                7.55005863                6.22707663              -25.64938574               -0.77402063                2.46133965                9.15972919
               6.63653801                4.97325521               59.80838618                1.00000000               -0.45696241               -0.68543340                2.23928814               -0.04053911                0.13615069                1.12975650
               7.63196839                4.57917538               59.50688373                1.00000000               -0.25214122               -0.26253129                0.84735191                0.01272275                0.28626204                0.12335378
               8.63149519                4.18418238               59.20816035                0.75553167                0.15303183                0.16740752               -0.52993797                0.01856381                0.54403904               -0.54637218
               9.63502902                3.78820052               58.91165348                0.00010000                0.59713258                0.60982722               -1.88176696               -0.07375608                2.62124690               -1.02331639
              10.64343784                3.38956705               58.65444013                0.00010000                1.12411683               -0.12119248               -3.73846579               -1.11752625                3.77989203                1.93809700
              11.65751136                2.98741712               58.38003450                0.00010000                1.60841664               -1.04983372               -5.35227186               -1.76173296                2.90234207                5.20163501
              12.67560617                2.58047538               58.10492797                0.00010000               -1.38755687               -4.45799495               -6.71799972              -16.59412342               20.07001193               11.44002950
              13.62976022                1.87109841               58.17312895                0.00010000               -6.12660779               -7.46849044               -3.82332515              -36.95411520               34.94880120                5.30851548
              14.55307402                1.05438468               58.18810548                0.00010000               -9.66995671                5.91721798               -5.82700093              -42.17004453               38.89263580                2.72936506
              15.43636109                0.13538453               58.32165267                0.43856020               -4.98596096                3.66492359               -4.18620501              -23.43116025               22.84481809               14.80829975
              16.45335480               -0.29275193               57.99046790                0.96750834                1.69937076                4.14273372               -8.18374597               -1.52045523               -0.66836668                7.95352356
               7.02802836                5.96691181               59.70891184                1.00000000               -0.36200905               -0.57462162                1.90854958               -0.05237172                0.25257772                0.93405383
               8.02440827                5.57701319               59.40271521                0.66605256               -0.15705836               -0.16495037                0.51938233                0.00571124                0.57590837               -0.26714102
               9.02488720                5.18636898               59.10284946                0.14585662                0.23986694                0.27990889               -0.84577614                0.00390123                1.17782366               -1.10420219
              10.02920561                4.79469340               58.80860027                0.00010000               -0.23808978                0.43483777               -2.15712363               -1.49429220                6.15820926                0.28366797
              11.02012540                4.37647798               58.60851756                0.00010000               -0.13876677               -1.33651382               -3.17971378               -3.29980512               10.85815503                4.13448953
              12.02643028                3.95081546               58.41061639                0.00010000                1.65620175               -3.90979113               -4.36084426               -5.98585066               14.20363587                9.29952092
              13.05324944                3.47135945               58.27332456                0.00010000                2.16461750               -8.97959230               -4.79749703              -15.26351261               22.22486942               14.86745425
              14.06972263                2.84075722               58.21592145                0.00010000               -1.98967165               -3.08175281               -5.18415588              -24.10923526               31.07938748                2.93790023
              15.01345600                2.10307725               58.24089480                0.00010000              -10.59253431                3.68842982               -5.02779756              -35.16553904               45.07084545               -4.68637707
              15.85787194                1.15562486               58.45539115                0.08562094               -6.63665323               12.66706693               -6.36476894              -15.26112426               29.39139736              -20.63901870
              16.88072294                0.73699796               58.11510147                0.70502389                2.28509978                4.25895810               -9.76670902                7.05203422                2.59550894              -20.33021201
               7.41528781                6.96176278               59.60654649                0.96651687               -0.26623691               -0.45583652                1.58084367               -0.04806960                0.11686530                0.73725447
               8.41262545                6.57587637               59.29297261                0.39955168               -0.06974063               -0.07101727                0.16415398                0.03736618                0.61319446               -0.59374072
               9.41389300                6.18978056               58.98928236                0.00010000                0.12043654                0.36014395               -1.18807830               -0.21306371                3.43485163               -1.74103059
              10.41503418                5.79689728               58.73209852                0.00010000                0.37133387               -0.56298836               -1.33577626               -2.34528645               10.67924332                2.98353281
              11.42131968                5.36283678               58.57588996                0.00010000                1.39393512               -1.57528282               -3.10148151               -3.86947179               16.18472817                3.87837667
              12.44291288                4.90922130               58.42644027                0.00010000                2.95372396               -3.88676825               -4.13819198               -6.24579498               18.71325607                5.85801624
              13.48039416                4.40088353               58.31197888                0.00010000                3.64724205               -5.74137314               -5.02170190              -12.23372739               23.42090324                5.12451018
              14.51585772                3.80946335               58.24242630                0.00010000                2.72507197               -2.88479225               -5.87335604              -19.27183093               28.30827786                0.31680013
              15.53489560                3.12815328               58.21154649                0.00010000               -0.93199112                2.76883746               -6.90932330              -22.02301330               28.11335443               -9.45877046
              16.49721790                2.38872587               58.12646122                0.06423860               -5.16231562               18.31839671               -6.31240285               -9.48054086               17.21753808              -33.31577429
              17.43164929                1.79242723               57.87562859                0.67530119               -6.55686116               11.50582456               -9.62159181               -4.01320192                9.78050966              -32.12205739
               7.79883978                7.95779508               59.50281172                0.91745972               -0.17019667               -0.34592853                1.28110990               -0.03721731                0.05683755                0.72856443
               8.79713782                7.57559285               59.18232160                0.30851674                0.03826152                0.00965248               -0.15625642                0.06572506                0.53225251               -0.62429546
               9.79960501                7.19357186               58.87132583                0.00010000                0.60529233                0.37061054               -1.55709831               -1.19588846                7.62126653               -2.07090924
              10.80924366                6.78343364               58.69227217                0.00010000                1.54034664               -0.99600042               -2.36609834               -2.98547926               15.38368178                2.27242950
              11.83041195                6.34497233               58.53766715                0.00010000                2.71119799               -1.72132740               -3.39084385               -4.78160401               18.26868578                2.31516734
              12.86346762                5.87308010               58.41411107                0.00010000                3.89604439               -3.08060481               -4.52232830               -7.65658234               21.37305282                2.66610393
              13.90833283                5.35653199               58.31517180                0.00010000                4.67743168               -3.54369487               -5.65151907              -12.15299282               24.25803268                1.61608297
              14.95701626                4.78306138               58.23872480                0.00010000                4.27001917               -1.69205410               -7.01360079              -16.89703513               25.98594363               -1.79089175
              15.99373322                4.15845400               58.16056225                0.00010000                2.34854591                3.52063730               -8.81800513              -19.06265988               24.26804861               -7.95379422
              17.00398718                3.52199279               58.03396404                0.02809029               -0.03385182               12.25003431              -11.14334486              -12.22856503               14.88006390              -14.54387092
              17.99305618                2.96711445               57.76330112                0.62442306               -1.09309935               17.86859890              -13.02147174               -4.03818115                7.26762117              -17.85012538
               8.17894793                8.95484421               59.39992140                0.89740199               -0.07847653               -0.25598388                0.99646503               -0.04159063                0.02580250                0.81442399
               9.17816317                8.57606942               59.07236015                0.27288514                0.15932547                0.09606504               -0.47021505                0.04518066                0.40113333               -0.60386995
              10.18213444                8.19719277               58.75227521                0.00010000                1.28804763                0.38349298               -1.93029216               -1.87954120                9.78276888               -2.23365105
              11.20392412                7.77697727               58.61171919                0.00010000                2.69533475               -0.45508574               -2.99150441               -4.11586176               19.52568661               -0.62920949
              12.23604114                7.32841023               58.48808085                0.00010000                3.71487234               -1.34425734               -4.05958723               -6.01065773               21.43741042                0.51496741
              13.27822157                6.84760920               58.38567306                0.00010000                4.56559407               -2.00647305               -5.18424413               -8.60627922               23.62104275                0.70990685
              14.32735302                6.33000963               58.30344076                0.00010000                4.88867186               -1.84197339               -6.48195874              -11.93055339               25.52592432                0.13786675
              15.37599501                5.77562227               58.23394343                0.00010000                4.36789814                0.09689440               -8.15462102              -14.93321826               26.59096271               -1.47818737
              16.41471098                5.19856603               58.16389451                0.00010000                3.39955707                4.42379129              -10.91324066              -15.51361098               25.05853950               -3.19939664
              17.44398615                4.63372656               58.04871859                0.03861969                2.29656846               11.07766150              -16.45824332               -9.96190227               16.10302348               -1.50178167
              18.46064235                4.14979921               57.78723351                0.61085279                1.66562051               16.98467972              -18.80457873               -3.82018924                9.01695984               -3.09897885
               8.55555754                9.95267540               59.29752576                0.88780805                0.01353265               -0.18269413                0.71338978               -0.04743253                0.01404593                0.86709473
               9.55569287                9.57751415               58.96264614                0.26195244                0.27743987                0.20131052               -0.79274969               -0.01085957                0.28997399               -0.62313602
              10.56110634                9.20124172               58.63326356                0.00010000                2.00080495                0.48374214               -2.34910667               -2.46551002               11.45948807               -2.40508809
              11.59570897                8.77433192               58.52096611                0.00010000                3.92302609               -0.10166987               -3.70435427               -5.02163698               22.98551518               -1.57848094
              12.63956686                8.31808718               58.42496496                0.00010000                4.70168334               -0.78011210               -4.84710873               -6.59040596               24.59407369               -0.79563313
              13.68974264                7.83295063               58.34807505                0.00010000                5.10709187               -1.02197322               -5.98829825               -8.47685592               26.36309373               -0.37807836
              14.74170870                7.31969252               58.29128170                0.00010000                5.00264311               -0.42712342               -7.33406871              -10.54996026               27.88035501               -0.13848341
              15.78979550                6.78499927               58.24771123                0.00010000                4.18240061                1.37462343               -9.19458907              -11.76206556               28.85642913                0.96102788
              16.82535671                6.24692983               58.21044875                0.00010000                3.18602263                4.75940989              -11.66552477               -9.99531257               30.48767003                1.95795264
              17.85351595                5.74354602               58.19760250                0.07942905                2.95751918                9.42191063              -19.44246253               -4.88725082               21.13335217                7.85018354
              18.88450710                5.30680804               57.95598313                0.60884694                3.09911453               11.56522906              -19.24045437               -1.43881951               11.30050539                5.50360395
               8.92832179               10.95119033               59.19534141                0.88921861                0.10578699               -0.11775778                0.43246123               -0.05322985                0.00346136                0.87976264
               9.92937966               10.58009563               58.85278953                0.27580307                0.38423384                0.32195025               -1.12888525               -0.06765584                0.16424963               -0.66044789
              10.93600647               10.20686761               58.51343620                0.00010000                2.86331280                0.70312435               -2.91640448               -2.98744093               12.97921423               -2.40539104
              11.98664592                9.77494387               58.42631591                0.00010000                5.48039176               -0.00729770               -4.56362781               -5.46692281               26.22188606               -1.73139591
              13.04561431                9.31280799               58.35562687                0.00010000                6.02165943               -0.55918241               -5.74328988               -6.08662178               27.76447267               -1.19986108
              14.10707911                8.82716974               58.30545073                0.00010000                5.93454393               -0.32541195               -6.82499229               -6.96216112               29.59145034               -0.77740695
              15.16430518                8.32146716               58.28191926                0.00010000                5.32186407                0.51033701               -8.14457129               -7.90311487               32.11323266               -0.02896681
              16.21351639                7.80311474               58.29696305                0.00010000                4.59763942                1.90631769               -9.65440696               -7.60928185               33.34033617                2.92397084
              17.25625797                7.29375423               58.31030065                0.03603351                3.64232617                3.51550278              -12.45876679               -4.80416350               35.52140267               15.03560506
              18.28636291                6.82216477               58.37449735                0.14586059                2.45419754                5.41093503              -11.55115547               -1.68347226               20.39446323                6.78696055
              19.30534192                6.38110379               58.08495744                0.60440528                1.89790103                4.69140919               -9.21260720               -1.14142943                4.37481706                4.41919492
               9.29668233               11.95032025               59.09293736                0.84606173                0.19801344               -0.05524791                0.15810485               -0.05336008                0.01590783                0.77544259
              10.29866247               11.58395315               58.74270289                0.29044780                0.49134740                0.44716770               -1.47673338               -0.07313242                0.22374021               -0.62269327
              11.30650928               11.21530420               58.39661485                0.00010000                4.08838354                0.94133587               -3.64931087               -3.63453136               14.62710843               -1.68935921
              12.38043014               10.77418597               58.33326079                0.00010000                7.95496419               -1.06270911               -5.43210408               -4.48140620               29.36571615               -1.06973894
              13.46560856               10.30690353               58.28498313                0.00010000                8.07050492               -0.73536656               -6.62628573               -4.00001590               30.95847274               -0.83744605
              14.54184024                9.82644240               58.25968390                0.00010000                7.10464190               -0.06417280               -7.57485502               -3.96905994               33.13948817               -0.61119127
              15.60770140                9.32989926               58.27041256                0.00010000                6.17412822                0.90197499               -8.77984751               -4.26121772               36.85293059                0.00043735
              16.66532280                8.82312562               58.34585178                0.00010000                5.12610046                1.93608656              -10.15199820               -3.91346872               47.21932419                2.85344958
              17.71022341                8.31723988               58.59914152                0.16801407                3.35870710                2.02702052               -8.14785278               -2.39892121               34.02805500               14.67859424
              18.73249694                7.85176472               58.43114182                0.27110067                1.67885285                2.01499933               -4.10395413               -0.83818918                7.39474237                1.50133170
              19.74380047                7.40063623               58.12729452                0.59728423                1.13035262                1.46014567               -4.10013677               -0.68581312                1.21165701                0.70255784
               9.65998878               12.95008537               58.98855360                0.92226740                0.29442774               -0.02348803               -0.12133146                0.22600690                0.34263395                0.67195113
              10.66293306               12.58903899               58.63373953                0.68884232                0.65471243                0.50858336               -1.81125023                0.20750736                0.92616430               -0.56162283
              11.67308303               12.22569433               58.29060973                0.45500111                7.12427050                1.03901250               -4.03351705               -5.11008970               16.56729909               -1.00956176
              12.80541847               11.75368969               58.24716614                0.36753732               12.01372647               -2.04962744               -6.04075448               -3.88085047               32.39381744               -0.30100511
              13.91335756               11.29810066               58.21679610                0.36055232                9.96418554               -0.88028754               -7.22146969               -1.61527095               34.26082268               -0.17094559
              15.00470218               10.82588628               58.21209917                0.36599385                8.45200238               -0.05561139               -8.02633232               -1.64350515               36.78062178                0.03110080
              16.08239761               10.33950666               58.24753810                0.38380037                7.16021080                0.96074030               -9.12648451               -1.73287006               41.60021889                0.55950697
              17.14790640                9.84183647               58.37172721                0.41491245                4.86214181                1.87108507              -10.11212647               -2.00224185               52.22865741                3.85766983
              18.17964044                9.33429464               58.65801751                0.63862515                1.91481943                1.70547543               -5.67513751               -2.02688245               34.15028619                4.64361807
              19.18620278                8.86246476               58.45237421                0.68861572                0.71211067                1.07000313               -3.01900123               -0.82881243                5.61630499                0.03777561
              20.19388266                8.41030670               58.14878030                0.79612984                0.76798723                0.96704749               -3.13233300               -0.20758652                1.08425545                0.21590687
               6.13905586                3.10006103               61.03761389                1.00000000               -0.63938118               -0.80683945                2.79181288               -0.25789049               -0.60896246                0.67540002
               7.13266205                2.69169155               60.72605415                1.00000000               -0.45022816               -0.37867812                1.42320919               -0.19851105               -0.76700901                0.10713040
               8.13005130                2.28259458               60.41092239                1.00000000               -0.07418161                0.03573645                0.06840365               -0.20038905               -0.71433939               -0.12221741
               9.13117842                1.87183783               60.10013206                0.61612899                0.18576468                0.49624690               -1.32150901               -0.33984520                0.10834782               -0.61635915
              10.13376659                1.45709874               59.80130745                0.55050843                0.51038307                1.04536552               -2.89809402               -0.34053123                0.99616491               -0.08214491
              11.14138608                1.03979086               59.50796588                0.43133599                0.92745540                1.49222085               -4.44080289               -0.39348966                1.26056527               -0.40860358
              12.15231570                0.61740014               59.21434210                0.09671870              -10.13361532                2.01416845               -5.85932223              -16.10024374                6.67896740               -0.66657376
              12.93871377               -0.12390601               59.02897759                0.00010000              -21.97368810                5.13079414               -2.11759637              -27.07600192                3.83638128               -4.80867410
              13.71284194               -1.15466777               58.89690736                0.00010000               -5.35851558                7.49662851               -6.52130521              -28.84581343                5.79534339                7.70936787
              14.83154346               -2.07468147               58.60617656                0.60296532                8.61119153                6.17903884              -16.17453125              -24.42658963               -0.34014987                2.26351155
              15.88506577               -2.54735553               58.29671640                1.00000000                5.35223078                7.31243901              -19.51751362                0.92159794               -2.03908543               -0.79508175
               6.54484644                4.09199264               60.93178648                1.00000000               -0.54362785               -0.76128403                2.49459829               -0.03929897               -0.05624150                0.92850422
               7.53941016                3.68790477               60.62012270                1.00000000               -0.34360869               -0.33880721                1.12468896                0.01481871               -0.04886365                0.17007796
               8.53797427                3.28295195               60.30825610                1.00000000                0.05588621                0.07567769               -0.22941409                0.02216323                0.03069894               -0.26093026
               9.54052789                2.87680029               59.99798658                0.47432629                0.42052478                0.52846430               -1.61681885               -0.07269614                1.21996266               -0.77419316
              10.54638476                2.46755239               59.70989861                0.47410938                0.83862962                1.03689578               -3.27047530               -0.09699223                2.19854175               -0.16784475
              11.55730048                2.05471306               59.41889853                0.36540621                1.33884666                1.50758061               -4.86302352               -0.17057426                2.05033578               -0.58565886
              12.57316170                1.63754183               59.12797465                0.00010000               -0.16563850                1.93617802               -6.32174892              -14.66290843               13.09346045               -0.91811204
              13.55398771                0.92740193               59.05881430                0.00010000               -8.66950824               -1.02659199               -2.64570765              -35.29235973               20.66190093               -0.50364671
              14.39977153               -0.07970149               59.00125036                0.00010000              -13.51831352                7.56622867               -6.85726861              -38.62901368               10.63220177                6.91874946
              15.28362144               -1.01289108               58.68070036                0.17615030               -1.64078659                5.64346330              -24.40283274              -22.18689845                1.06088848               28.13163219
              16.36695580               -1.47423114               58.37095863                1.00000000                8.33343607                5.94848906              -27.70712463               -0.71277680                1.12225166               22.12994386
               6.94644563                5.08483535               60.83054420                1.00000000               -0.44465126               -0.66437245                2.18477903               -0.04487553                0.14873637                1.10811906
               7.94199911                4.68491540               60.51521240                1.00000000               -0.24232963               -0.25423861                0.81733699                0.00523283                0.30868488                0.10690617
               8.94159903                4.28410814               60.20281265                0.72909166                0.15624673                0.16743940               -0.53449770                0.01356384                0.58820314               -0.55433118
               9.94512405                3.88240711               59.89293780                0.00010000                0.61574713                0.60314859               -1.85026065               -0.09280093                2.42749528               -0.96928875
              10.95391398                3.47783665               59.61739219                0.00010000                1.14305559               -0.44682036               -3.64772527               -1.18401155                3.42355325                2.36023805
              11.96798516                3.06994247               59.32693272                0.00010000                1.62273455               -1.61679307               -5.22861905               -1.75206666                2.75134142                5.85095215
              12.98636867                2.65612370               59.03817950                0.00010000               -0.89376346               -5.98531809               -6.58142563              -20.28275641               21.77858307               12.58416049
              13.95010989                1.85556215               59.12789064                0.00010000               -5.29069965               -4.49280547               -5.08385649              -40.34865468               37.38239237                4.52647611
              14.88055467                0.99665680               59.12318831                0.00010000               -8.38873769                6.33426277               -6.95282751              -43.03468957               41.81031339                5.03225219
              15.78233514                0.03818779               59.28461401                0.42697723               -4.35321702                3.65859254               -3.00854219              -23.71649043               25.66238923               28.31336363
              16.79349033               -0.42838574               58.91649195                0.95888834                1.11551967                3.77111487               -5.92509999               -1.67562720               -1.38863833               21.73960370
               7.34378883                6.07870519               60.72783245                1.00000000               -0.35467950               -0.55391923                1.86825380               -0.05511477                0.26670111                0.91921494
               8.34024203                5.68281999               60.40781226                0.64013522               -0.15174967               -0.16320751                0.49978392                0.00432475                0.60112509               -0.30263232
               9.34075384                5.28630074               60.09432204                0.11910707                0.23506587                0.27624832               -0.85448350                0.00970397                1.24531101               -1.13002067
              10.34494335                4.88886327               59.78715085                0.00010000               -0.27923303                0.13454754               -2.12043452               -1.87099813                6.41289723                0.95705782
              11.33516918                4.45861599               59.57737950                0.00010000               -0.04856268               -1.96564032               -3.04401105               -3.84235403               11.27671917                4.79408091
              12.34397210                4.02237720               59.36753098                0.00010000                2.33588574               -5.11783773               -4.24469042               -6.93460610               14.91371147               10.31146983
              13.38188689                3.51783546               59.22480906                0.00010000                3.12547098              -11.16140389               -4.87576236              -17.80945775               23.39105516               16.13852829
              14.40648152                2.83754582               59.16173360                0.00010000               -1.27173991               -2.61336018               -5.59277705              -28.15442223               32.59355842                3.11793929
              15.35645209                2.04698377               59.18665463                0.00010000               -8.60736720                4.03284199               -5.71704171              -38.77216686               45.81643946               -3.60995641
              16.23433417                1.06028077               59.37366118                0.11904988               -4.49308806               11.13107020               -9.41357726              -19.03719955               29.72429466              -17.25615305
              17.26659033                0.60119116               59.00233614                0.75119090                3.22561570                3.79150027              -11.94978602                4.34065053                2.45147388              -17.31730413
               7.73711372                7.07375697               60.62230761                0.95189701               -0.26236603               -0.43442519                1.56051725               -0.04548090                0.11011963                0.74618288
               8.73449006                6.68165125               60.29457977                0.38006503               -0.06819409               -0.08330960                0.15756887                0.05221598                0.64178911               -0.62821726
               9.73574984                6.28963310               59.97738798                0.00010000                0.04493867                0.32202740               -1.18355154               -0.46348155                4.19346829               -1.80419906
              10.73538884                5.88509806               59.72073711                0.00010000                0.39015592               -1.07883310               -0.99339881               -2.93658028               11.14732584                2.94430597
              11.74355296                5.43852385               59.54543213                0.00010000                1.73423624               -2.26794383               -3.00337222               -4.64853190               16.22727905                4.13767389
              12.77007356                4.96758571               59.38532491                0.00010000                3.57289694               -5.03643575               -4.08005290               -7.66396023               19.30734810                6.20619299
              13.81501090                4.43289562               59.26131751                0.00010000                4.38997916               -6.96176531               -5.07934371              -14.96893034               24.08148643                5.30288543
              14.85787314                3.80329494               59.18204083                0.00010000                3.36827450               -3.31227149               -6.10602245              -22.96721426               28.78794335                0.32802154
              15.88237639                3.07731364               59.13801777                0.00010000               -0.52446962                2.85744127               -7.53356928              -27.53138402               29.43725923               -9.63562651
              16.84738375                2.26080920               59.06533759                0.07089937               -4.19469168               17.72300105               -6.40986513              -15.18050766               17.35627650              -34.59569409
              17.79848255                1.64744426               58.77222519                0.69631047               -4.89011970               11.87409242              -11.28563362               -7.54103535                9.17737831              -30.29708750
               8.12709064                8.07001669               60.51564041                0.90655721               -0.16804234               -0.32361916                1.27391538               -0.03654289                0.04997254                0.76342951
               9.12541022                7.68115380               60.18075034                0.29674871                0.04733770               -0.01550849               -0.15446988                0.07860506                0.54337701               -0.64478629
              10.12803740                7.29274128               59.85567427                0.00010000                0.59553923                0.27098694               -1.56710137               -1.59850699                7.97387943               -2.18940057
              11.13732100                6.86728660               59.66904040                0.00010000                1.58367454               -1.38818865               -2.30523853               -3.80348325               15.98369224                1.60341256
              12.15971089                6.41325711               59.50422244                0.00010000                2.95000571               -2.37174853               -3.30806190               -5.90532748               18.69210266                2.19245204
              13.19632112                5.92164849               59.36890139                0.00010000                4.35440841               -3.92704981               -4.50716603               -9.51037211               21.76730600                2.63699426
              14.24679905                5.37860016               59.25791380                0.00010000                5.31990501               -4.42256491               -5.74979415              -14.94205245               24.52610995                1.51505153
              15.30271922                4.77130039               59.16650802                0.00010000                5.07555507               -2.32615113               -7.29393342              -20.58123633               25.94077104               -2.07669093
              16.34831016                4.10413259               59.07016826                0.00010000                2.89370908                3.15334889               -9.07784745              -23.52938786               23.98421141               -9.00526032
              17.36059340                3.41474079               58.92069152                0.00897496               -0.29053297               13.80143388              -11.29802896              -15.55308213               14.50773358              -18.82934666
              18.34249950                2.83867301               58.62991389                0.62342016               -1.80939021               18.69851969              -13.59479281               -6.64157982                6.58946644              -20.38915505
               8.51410863                9.06728458               60.40990917                0.88992589               -0.07710675               -0.23529112                0.99422777               -0.04278249                0.02104937                0.86215109
               9.51333756                8.68134108               60.06763692                0.26610794                0.17691329                0.06751973               -0.46708172                0.03112304                0.38894952               -0.63177867
              10.51764690                8.29505284               59.73269870                0.00010000                1.27328898                0.24070079               -1.97967386               -2.39744540                9.99454358               -2.43133200
              11.53880334                7.85733429               59.58185669                0.00010000                2.67188134               -0.76885749               -2.97039008               -5.19387897               19.99617583               -1.04471049
              12.57108453                7.39108888               59.44751874                0.00010000                3.78598625               -1.79802181               -4.04018990               -7.41618037               21.88635612                0.15644262
              13.61452307                6.88904472               59.33348563                0.00010000                4.77167116               -2.56930026               -5.22581378              -10.75738388               23.95223879                0.47805891
              14.66651795                6.34444433               59.23733740                0.00010000                5.30964562               -2.46656888               -6.66563325              -15.03682634               25.58412699               -0.13532069
              15.72071598                5.75677192               59.14947409                0.00010000                5.09151408               -0.51101518               -8.61459590              -18.99127899               25.92837799               -2.03869290
              16.76834823                5.14038062               59.04784887                0.00010000                4.05328539                4.18953749              -11.71451687              -20.04601404               23.06454831               -4.43393500
              17.80178169                4.53683788               58.88561107                0.00195492                2.47191411               11.52206073              -15.92147318              -13.48819619               13.82745178               -6.48466710
              18.81778651                4.02141466               58.59441492                0.59902474                1.60048223               17.38548571              -18.63031664               -5.74084062                7.23495416               -7.88286209
               8.89812199               10.06531086               60.30470620                0.88231140                0.01424259               -0.16472218                0.71582785               -0.04967089                0.00885759                0.92299068
               9.89826442                9.68250420               59.95467457                0.25801299                0.29866432                0.17536879               -0.79035779               -0.06527626                0.23490421               -0.67076771
              10.90409528                9.29755530               59.60916428                0.00010000                1.95714842                0.33952050               -2.47038873               -3.07073453               11.47811068               -2.77194350
              11.93740739                8.85190945               59.48326719                0.00010000                3.77907849               -0.27413314               -3.78890709               -6.17005984               23.28329654               -2.24576475
              12.97967685                8.37729667               59.37593521                0.00010000                4.52053005               -0.98011024               -4.93001597               -8.05325135               25.03949045               -1.32162335
              14.02781799                7.87026248               59.28729820                0.00010000                4.93292370               -1.23717313               -6.12195702              -10.76426332               26.69120069               -0.73166338
              15.07833533                7.32926878               59.21577783                0.00010000                4.95696777               -0.67385432               -7.69397991              -13.98828171               27.80796318               -0.55759849
              16.12695735                6.76108008               59.15083747                0.00010000                4.44942971                1.10854171               -9.94483214              -16.16065075               28.22403853                0.20268669
              17.16732392                6.18792334               59.08420103                0.00010000                4.14190456                4.92275691              -13.65727566              -15.28883631               26.44713596                0.48143713
              18.20979544                5.64518200               58.96879637                0.02870403                4.56026025               10.95402344              -22.09759374               -9.68618050               17.55179089                6.78845916
              19.25852912                5.18638272               58.70075730                0.59160677                4.87336876               15.20026867              -25.75972724               -4.10246958               10.78900071                5.80672667
               9.27872855               11.06399014               60.19973680                0.88414733                0.10590546               -0.10498768                0.43954732               -0.05723597               -0.00357336                0.94948923
              10.27978760               10.68484846               59.84141743                0.27547003                0.40492004                0.30406067               -1.13161707               -0.15876860               -0.01786786               -0.73517138
              11.28682695               10.30184325               59.48283657                0.00010000                2.79365853                0.64726541               -3.19579950               -3.57662774               12.69799303               -3.02414635
              12.33566077                9.85185163               59.37860036                0.00010000                5.24197599                0.08026971               -5.06541733               -6.48442817               26.38060421               -2.69816752
              13.39166647                9.37148667               59.29646661                0.00010000                5.58024610               -0.42520235               -6.08344855               -7.34379574               28.33467462               -1.87251418
              14.44726570                8.86430125               59.23558543                0.00010000                5.21341214               -0.12708668               -7.08448725               -9.01863060               30.00140642               -1.16785952
              15.49593471                8.33096724               59.19705457                0.00010000                4.57913545                0.85975938               -8.67875220              -11.28866648               32.07369843               -0.49672383
              16.53884841                7.77894275               59.19210157                0.00010000                4.12674365                2.46147114              -11.38375332              -12.37412970               32.36641788                1.92421559
              17.57846959                7.23883576               59.16965020                0.00010000                3.53751459                4.67177442              -14.70996540               -9.33717552               34.76124177               14.26020756
              18.60959870                6.75591834               59.21107766                0.08489689                3.74330452                8.82767919              -23.01031705               -3.97752488               24.30710423               12.45751724
              19.65333568                6.32542003               58.95527337                0.58372601                4.37369788                9.21586312              -22.65135858               -2.75944737               12.58094433               10.14669217
               9.65526064               12.06321111               60.09463980                0.83864641                0.19752973               -0.05175105                0.17553883               -0.05564569                0.00735635                0.85788244
              10.65723594               11.68858541               59.72779019                0.30478615                0.51494595                0.44139715               -1.49257347               -0.13537010               -0.17889937               -0.71078495
              11.66555956               11.31050061               59.35726544                0.00010000                4.04197345                1.02897066               -4.13859065               -4.07114134               13.99951780               -2.20815514
              12.73807541               10.85351485               59.27496846                0.00010000                7.73958746               -0.67966901               -6.67763385               -5.15175895               29.48107384               -1.88846512
              13.82035131               10.36879263               59.21523124                0.00010000                7.49447023               -0.26969236               -7.45731976               -4.75993996               31.82708737               -1.33579656
              14.88796481                9.86772075               59.18129624                0.00010000                5.87845940                0.52764463               -7.96299351               -5.22424867               33.79645510               -0.87310242
              15.93792050                9.34646397               59.17827448                0.00010000                4.18207121                1.86084734               -9.50166341               -6.53989259               36.68298749               -0.37730556
              16.97160624                8.81030951               59.23129968                0.00010000                3.28421612                3.78488535              -12.30394292               -7.09502465               47.51134014                1.98108783
              18.00360482                8.28135883               59.48895813                0.12354503                3.60272155                4.00845847              -17.59137879               -4.54524523               38.39944730               16.25099665
              19.04366067                7.82173559               59.38336156                0.20484916                3.03659947                4.06602479               -7.92140732               -1.15714190               11.87095809                5.89921453
              20.06433681                7.37069999               59.07572880                0.57547406                2.06761419                3.17366222               -8.69788153               -2.23382147                3.79920217                3.49135325
              10.02686704               13.06295512               59.98752226                0.91798720                0.29236684               -0.02559896               -0.09000623                0.23276766                0.38134370                0.76059631
              11.02979070               12.69367640               59.61545698                0.70547986                0.68038247                0.50909920               -1.83007672                0.22885388                0.58668276               -0.65494478
              12.04047468               12.32242267               59.24758004                0.47706690                7.22714365                1.19220578               -4.37009537               -5.27939524               15.84792944               -1.34752969
              13.17433358               11.83825825               59.18108314                0.36742901               12.08935426               -1.52566023               -8.04467684               -4.19067503               32.30631791               -0.55363576
              14.28226177               11.36609282               59.13933751                0.36058771                9.53879024               -0.26998017               -8.45889177               -1.97915881               35.42742821               -0.42704960
              15.36510938               10.87485415               59.12803638                0.36575110                7.01431665                0.71333979               -8.62836059               -2.18097487               37.69068167               -0.14240663
              16.42254810               10.36818419               59.15067320                0.38285339                4.84718339                2.17202184              -10.00834321               -2.54792367               41.54541951                0.31813366
              17.46205305                9.85464046               59.25296565                0.41261697                2.67952496                4.43309535              -13.35497252               -3.41428163               53.97294530                3.36603758
              18.47613860                9.31900492               59.58216465                0.61381511                1.75308264                3.76460945              -14.20478678               -3.61670272               39.16059021                8.92748134
              19.49711470                8.83723884               59.41926399                0.65299103                1.72959213                1.55032536               -4.85892497               -1.16017898                8.84950119                0.61254271
              20.51073044                8.38889327               59.10956914                0.78560042                1.36157422                1.81932858               -6.56267846               -0.19519304                2.79964551                0.88656124
               6.45150489                3.21406336               62.06512447                1.00000000               -0.61730178               -0.78031080                2.70215446               -0.25170057               -0.58621428                0.66316912
               7.44533188                2.80016904               61.74005278                1.00000000               -0.43228404               -0.36619186                1.37444799               -0.19458932               -0.73491738                0.10322500
               8.44285921                2.38556715               61.41153729                1.00000000               -0.06476688                0.03448222                0.05907300               -0.19499105               -0.69346158               -0.11484158
               9.44403654                1.96940530               61.08702853                0.60988953                0.19489935                0.48019447               -1.28822545               -0.33102556                0.01284817               -0.59600942
              10.44675720                1.54937540               60.77258866                0.53561876                0.51655256                1.00847889               -2.82363745               -0.33968166                0.81223436               -0.11478925
              11.45436759                1.12662326               60.46389467                0.40547656                0.93680488                1.45088541               -4.34153239               -0.39569781                1.14315332               -0.45710577
              12.46549330                0.69918876               60.15634351                0.05307654              -15.33627447                1.91309520               -5.70293175              -23.58021290                9.66002304               -0.74947431
              13.14764210               -0.19552765               60.01849341                0.00010000              -22.98385500                7.66686917               -1.41413734              -25.25731578                9.58381472               -1.92030694
              14.00581620               -1.15602645               59.83192110                0.00010000                0.03669434                5.28533742               -6.21873814              -23.74037300                3.77589086               12.15099409
              15.14837599               -2.08250470               59.45635148                0.65606594                9.23957121                4.90262857              -12.98682848              -23.03345215               -2.44097644                1.57853588
              16.19060762               -2.58167957               59.11424432                1.00000000                4.22316349                5.86461730              -15.87709986                0.70051164               -2.01680797               -0.59060048
               6.86288220                4.20626025               61.95636563                1.00000000               -0.52481127               -0.73458677                2.41369520               -0.04173973               -0.04283298                0.91599116
               7.85763409                3.79650713               61.63117538                1.00000000               -0.32955139               -0.32725462                1.08438585                0.00967431               -0.02508560                0.16289143
               8.85629117                3.38591197               61.30594029                1.00000000                0.05940337                0.07313385               -0.22909367                0.01873787                0.04510122               -0.26106409
               9.85882216                2.97420725               60.98197964                0.48114464                0.42301158                0.51225840               -1.57374122               -0.07444672                1.08150782               -0.72940228
              10.86475140                2.55946019               60.67756801                0.47585937                0.83408885                0.99577590               -3.17532563               -0.09591738                1.94074020               -0.21005019
              11.87550393                2.14113212               60.37080085                0.35803305                1.30076102                1.45902230               -4.72842229               -0.18785921                1.87863037               -0.61889379
              12.89076662                1.71831971               60.06564280                0.00010000               -2.64136924                1.80677085               -6.12028284              -20.76322307               14.99295160               -0.92518873
              13.82267655                0.88114104               60.02241674                0.00010000               -8.94328166                2.71181418               -4.51307399              -33.83678163               22.78601700                1.75213913
              14.71190099               -0.10317307               59.92884377                0.00010000               -9.59042607                6.28259524               -7.28842986              -34.39393643                4.60969918               11.47120157
              15.63086803               -1.03347841               59.44607761                0.12510792               -0.75566902                4.55978408              -20.07342511              -20.59655375               -5.14562313               41.36980002
              16.69678761               -1.52303340               59.10370702                1.00000000                6.59195850                4.61711004              -22.96071789               -0.39457297               -0.19246402               36.62353593
               7.27017635                5.19937162               61.85208177                1.00000000               -0.43027031               -0.63637743                2.11527760               -0.04873835                0.15936284                1.09356560
               8.26587364                4.79362395               61.52323047                1.00000000               -0.23212488               -0.24569745                0.78536032               -0.00173494                0.32927028                0.09175430
               9.26553385                4.38702982               61.19747040                0.69600660                0.15628700                0.16406319               -0.52885166                0.00950836                0.63604170               -0.57218404
              10.26899938                3.97965047               60.87464827                0.00010000                0.61900687                0.59140038               -1.79743130               -0.10774838                2.25759205               -0.91946995
              11.27791398                3.56929092               60.58148562                0.00010000                1.13757508               -0.75702646               -3.51736974               -1.16592567                3.10009619                2.79989351
              12.29175088                3.15580371               60.27546212                0.00010000                1.61529630               -2.12397255               -5.04126980               -1.60978621                2.61964165                6.48488285
              13.31021991                2.73532418               59.97329945                0.00010000                0.03241859               -7.36638525               -6.36763194              -23.04968876               22.82932254               13.58715536
              14.29239926                1.85870863               60.07145182                0.00010000               -3.88314941               -1.60876117               -5.85259936              -41.43135244               38.76145882                6.06612794
              15.23255692                0.96962546               60.04904893                0.00010000               -6.80470106                5.96108723               -7.32988042              -42.20307169               45.83845578                9.78809664
              16.15630523                0.00869099               60.26148183                0.42729168               -3.53653947                3.16283106               -2.01542991              -22.65772627               29.37667385               42.21421434
              17.16182613               -0.48933737               59.87196590                0.95634886                0.55208990                2.89760198               -3.44261762               -1.02209096               -1.10623630               37.32361216
               7.67340277                6.19353270               61.74627692                1.00000000               -0.34615858               -0.52465706                1.81264784               -0.05547488                0.27875578                0.91481209
               8.66994119                5.79159318               61.41271089                0.61471067               -0.14739763               -0.16250021                0.47973579                0.00838764                0.61857203               -0.33394682
               9.67045482                5.38919323               61.08575979                0.09015901                0.22324523                0.26572603               -0.85232086                0.02566322                1.31705855               -1.16093898
              10.67440609                4.98603526               60.76619158                0.00010000               -0.25875826               -0.28783088               -2.06035894               -2.19682070                6.70671356                1.74100803
              11.66527965                4.54431966               60.54763734                0.00010000                0.14344297               -2.52718025               -2.92662427               -4.20095615               11.71705538                5.50287449
              12.67727495                4.09865267               60.32572258                0.00010000                3.07941347               -6.19144769               -4.12218748               -7.59520364               15.48443052               11.37666154
              13.72686792                3.57099201               60.17580932                0.00010000                4.12366352              -13.07438400               -4.88455170              -19.72993952               24.09532995               17.70748470
              14.75974822                2.84896582               60.10406591                0.00010000               -0.45053584               -2.37296352               -5.78104608              -31.62131325               33.56579767                4.77638956
              15.71785721                2.01604867               60.12655396                0.00010000               -6.15359476                4.11508323               -6.04280060              -40.57002550               45.14149082               -0.17081251
              16.63667633                1.02977821               60.26711961                0.16548039               -2.27273542                7.05453354              -10.68447680              -21.36496263               28.17308060              -12.20527468
              17.67240250                0.53491864               59.87610574                0.80774758                3.57261733                2.41225505              -12.03230717                2.49382010                1.52545625              -13.00273631
               8.07294589                7.18887848               61.63775684                0.93909280               -0.25650319               -0.40352946                1.52040855               -0.03962309                0.10228196                0.76557270
               9.07038086                6.79037395               61.29612399                0.36201267               -0.06704311               -0.09766031                0.15256212                0.07480856                0.66493747               -0.65853100
              10.07160503                6.39234434               60.96561133                0.00010000               -0.02221616                0.26399460               -1.16484329               -0.80711859                5.07297557               -1.88098964
              11.06993654                5.97389385               60.71223054                0.00010000                0.48362104               -1.58264777               -0.88895390               -3.38168918               11.66884689                3.02459774
              12.08127745                5.51874732               60.51582252                0.00010000                2.16189629               -2.87924521               -2.96113240               -5.14028707               16.17820603                4.52498531
              13.11317446                5.03197476               60.34483921                0.00010000                4.20152573               -6.04967012               -4.02670075               -8.85316902               19.77547659                6.79432182
              14.16530797                4.47383650               60.21039200                0.00010000                5.08709319               -8.00894405               -5.07371343              -17.31724554               24.49265955                6.01103741
              15.21491633                3.81124936               60.12030585                0.00010000                3.75180271               -3.74357614               -6.12170789              -25.90401918               28.85372512                1.43017362
              16.24034402                3.05192712               60.06087510                0.00010000               -0.23901600                2.62345114               -7.43032385              -33.00454839               30.26241420               -8.09523693
              17.21013601                2.14978166               59.99826392                0.08833178               -1.94611763               14.76770881               -7.36292919              -19.76497459               16.59826251              -29.56563043
              18.20142167                1.55890773               59.64991592                0.72474109               -0.87143396               10.11114838              -11.75382424               -7.38747901                5.50655482              -22.65099435
               8.46961937                8.18546211               61.52829003                0.89744676               -0.16478818               -0.29285238                1.24701508               -0.03383734                0.04352038                0.80459635
               9.46797149                7.78963997               61.17923221                0.28767907                0.05865828               -0.04321688               -0.14531099                0.08913929                0.53744027               -0.66414774
              10.47079254                7.39447312               60.83998381                0.00010000                0.61989215                0.13658857               -1.56578035               -1.95285777                8.32129541               -2.35310818
              11.48036934                6.95438230               60.64616740                0.00010000                1.68002361               -1.60187919               -2.30425374               -4.43236541               16.62240743                1.00196322
              12.50439301                6.48673476               60.47150592                0.00010000                3.23765254               -2.94605022               -3.27388048               -6.79305838               19.11191963                2.32728167
              13.54512239                5.97765926               60.32396775                0.00010000                4.84276957               -4.66005964               -4.49501631              -11.08242046               22.07066678                3.00314695
              14.60124840                5.41081313               60.20017592                0.00010000                5.92274137               -5.21986528               -5.76047771              -17.29129192               24.61139806                2.04789633
              15.66357721                4.77409430               60.09284613                0.00010000                5.89927717               -3.03652025               -7.27914837              -23.65803314               25.67808706               -1.45747134
              16.71923395                4.06851769               59.97900530                0.00010000                3.54095038                2.19637211               -8.93431661              -27.47204772               23.35162000               -8.29785389
              17.73439622                3.32513239               59.80800346                0.00240154               -0.64165910               15.30733494              -10.54978443              -18.37714810               13.75007932              -20.69529005
              18.70640077                2.73714161               59.49140526                0.63000417               -2.79954568               18.11954123              -13.52855064               -9.48347458                6.38307081              -19.82080599
               8.86391343                9.18302143               61.41980595                0.88396922               -0.07607940               -0.20772616                0.97603493               -0.04225330                0.01652167                0.91307072
               9.86315263                8.78950961               61.06301852                0.26402067                0.19460590                0.03391580               -0.44809523                0.00080322                0.33956898               -0.66024466
              10.86780555                8.39507612               60.71268173                0.00010000                1.29374818                0.05959243               -2.00833205               -2.81849701               10.18905618               -2.69332667
              11.88902760                7.94185627               60.55231139                0.00010000                2.71668885               -1.08546698               -2.96896924               -6.05075854               20.48842468               -1.29096501
              12.92213932                7.45982631               60.40727705                0.00010000                3.92100443               -2.20139579               -4.03379504               -8.55750323               22.32281013                0.12781646
              13.96744769                6.93877356               60.28115678                0.00010000                5.04538866               -3.07208460               -5.25547785              -12.58927342               24.25587181                0.76044928
              15.02304710                6.36943919               60.17012809                0.00010000                5.83017070               -3.09948719               -6.74580989              -17.75871539               25.53321934                0.30675719
              16.08405110                5.75051896               60.06165151                0.00010000                5.84089405               -1.38343885               -8.73963822              -22.56543885               25.14217140               -1.59050408
              17.13986498                5.09585456               59.92960417                0.00010000                4.49590142                3.31197724              -11.52412718              -23.87420135               21.38238693               -5.03919611
              18.17396913                4.45592836               59.73028913                0.00010000                2.39343756               11.43581120              -14.85193477              -16.04783644               12.22939894               -9.31806054
              19.18773373                3.92129856               59.41462717                0.59375760                1.37645997               16.24712578              -17.24421197               -6.96475463                5.96747659              -10.86660524
               9.25579795               10.18130759               61.31184232                0.87810709                0.01349207               -0.13874596                0.70255809               -0.05014769                0.00470872                0.98191200
              10.25593287                9.79031829               60.94683898                0.26230215                0.31389931                0.13834922               -0.76292669               -0.14363558                0.10373175               -0.72093548
              11.26207594                9.39566497               60.58385579                0.00010000                1.93355480                0.16037039               -2.55012620               -3.63337327               11.42515033               -3.23123728
              12.29460397                8.93267296               60.44518797                0.00010000                3.71248588               -0.62885096               -3.77786642               -7.06788810               23.60199024               -2.85139653
              13.33632566                8.44270684               60.32636464                0.00010000                4.45600334               -1.18823178               -5.00495407               -9.16359921               25.51575322               -1.52671660
              14.38372404                7.91621757               60.22563591                0.00010000                4.90015211               -1.44795253               -6.23933456              -12.74059317               27.06459022               -0.47086465
              15.43432870                7.34882338               60.13740211                0.00010000                5.10645151               -1.02015798               -7.92732012              -17.17880714               27.84059272               -0.12475610
              16.48585307                6.74642552               60.04881459                0.00010000                5.10059128                0.53089390              -10.38392363              -20.49340631               27.10362919                0.17082683
              17.53634052                6.13475724               59.93730324                0.00010000                5.10712162                3.91733567              -14.72144623              -19.99675832               23.30991743                0.28589261
              18.58799550                5.55384861               59.75565063                0.00010000                5.00123714               10.04107862              -20.54998109              -12.98802076               13.70296378                1.51191718
              19.63636527                5.06208413               59.44078859                0.58208031                4.83697682               14.38837868              -24.51355098               -5.13466500                7.19728905                0.05626905
               9.64488908               11.18024651               61.20413235                0.88067897                0.10334602               -0.08075735                0.42893202               -0.06045502               -0.01296358                1.02755016
              10.64592254               10.79227659               60.83015719                0.29377771                0.39471645                0.26898105               -1.09865270               -0.27185143               -0.35082412               -0.82313063
              11.65278340               10.39828352               60.44952021                0.00010000                2.73527151                0.53663330               -3.30267503               -4.28759615               12.02295942               -3.73326902
              12.70062797                9.92927925               60.32500757                0.00010000                5.12696618                0.06304578               -5.43839504               -7.23700001               26.30567647               -4.35782376
              13.75532273                9.43606168               60.23395789                0.00010000                5.29456574               -0.26950680               -6.53001029               -7.99839317               29.04130744               -2.31004992
              14.80651928                8.90981451               60.16376099                0.00010000                4.69701383                0.01559104               -7.29664688              -10.80117900               30.64878549               -0.88864651
              15.84926300                8.34903603               60.10834422                0.00010000                4.08649192                0.99555695               -9.08084397              -14.58243316               32.03702809               -0.06522212
              16.88824912                7.76113684               60.06928798                0.00010000                4.16218569                2.77288917              -12.80598917              -17.79109333               32.12932241                2.07474398
              17.93250672                7.17420128               60.01610135                0.00010000                4.93163524                4.74940603              -16.74752334              -15.72884788               29.52750620               10.60778561
              18.98688182                6.65674993               59.91429101                0.03085976                6.80313385               10.38570391              -29.24062726               -8.49926057               20.21017666               16.03938979
              20.06856940                6.20906613               59.63193027                0.57403352                8.16875718               12.70416981              -33.92727017               -4.83414092               13.59148497               12.60674132
              10.03052869               12.17969244               61.09644814                0.83248127                0.19301449               -0.03570681                0.17253502               -0.05659594               -0.01329761                0.96064985
              11.03245883               11.79569791               60.71285142                0.35590446                0.43963346                0.41649582               -1.46712196               -0.23041999               -0.79376984               -0.82142383
              12.03932136               11.40639764               60.31384303                0.00010000                3.98134914                0.99155149               -4.02359091               -4.50659917               12.43288448               -2.66763143
              13.11208582               10.93393388               60.19970811                0.00010000                7.82505873                0.05541821              -10.17166418               -5.49607709               29.18912052               -3.60394022
              14.19582253               10.43731671               60.13583674                0.00010000                7.13201405                0.26427296               -8.20595385               -4.88871637               33.26626522               -1.61487133
              15.25472610                9.91652939               60.10042403                0.00010000                4.77675883                0.98716778               -8.17345970               -6.39606706               34.82310459               -0.63685635
              16.29135771                9.36873452               60.08037929                0.00010000                2.50699290                2.60179364              -10.14319104               -8.77661817               37.05856120               -0.05230339
              17.30486596                8.80188330               60.09977292                0.00010000                1.73963834                5.23442262              -14.17809881              -11.56822190               44.95982149                1.85551612
              18.32615048                8.22974536               60.24731395                0.05299376                3.91397385                7.61149665              -28.22010983               -8.81367139               45.44696775               14.40805212
              19.38314543                7.76156269               60.27271367                0.13160121                5.44497821                7.30804128              -22.65060090               -3.23356693               23.45229222               13.85749285
              20.43505004                7.31616752               59.95333689                0.56828059                5.19046075                7.56455542              -23.48894658               -4.50472306               11.18003667               10.15653030
              10.41174622               13.17953238               60.98675348                0.91390920                0.28627143               -0.01600635               -0.08193029                0.22916670                0.43101817                0.88194171
              11.41460894               12.80060651               60.59713800                0.74701845                0.63346143                0.49086034               -1.79272475                0.14411907                0.20638771               -0.78180672
              12.42441545               12.41811455               60.20320782                0.52323256                7.25892101                1.17169139               -4.03867007               -5.00153549               13.73728134               -1.59532549
              13.55978736               11.93038762               60.08627261                0.36714305               12.52687172               -0.35462613              -13.33218767               -4.06821693               31.15982378               -0.46505575
              14.67495289               11.44134713               60.04761826                0.36061900                9.36963829                0.40304285               -9.28364788               -2.12845220               37.30693313               -0.80693420
              15.74718012               10.92955787               60.03953196                0.36555908                5.67119227                1.30284748               -9.03054847               -2.76835896               39.13987285               -0.13025392
              16.78837673               10.40107191               60.04737124                0.38179710                2.43468610                3.23373836              -10.93505011               -3.48472677               41.81814792                0.36394695
              17.79587384                9.86582529               60.10462776                0.41035538                0.40885868                6.39419868              -15.47537662               -4.63124595               53.62749557                1.60149225
              18.79655390                9.32643121               60.37392178                0.56902622                1.99572379                9.66858514              -30.24386805               -6.10538404               50.51368249               13.67210023
              19.83578832                8.80291075               60.35519571                0.60890015                3.63556810                4.13480639              -16.30857842               -3.03940980               21.21083046                6.08888732
              20.86926527                8.36035724               60.01752673                0.78356888                3.34769458                4.41897164              -18.04595075               -0.83382879                9.28197226                2.90185498
               6.77747495                3.33084210               63.09165698                1.00000000               -0.59240715               -0.74869291                2.59666190               -0.24359135               -0.56538925                0.65245278
               7.77155088                2.91151085               62.75354311                1.00000000               -0.41343154               -0.35259487                1.32169803               -0.18922519               -0.70547988                0.09921192
               8.76920632                2.49149176               62.41210385                1.00000000               -0.05834348                0.03057970                0.05859680               -0.18820022               -0.67437382               -0.10811024
               9.77038401                2.07001542               62.07436755                0.60451316                0.19694099                0.45770924               -1.23373799               -0.31774307               -0.08145120               -0.57813747
              10.77314514                1.64484427               61.74483470                0.52209589                0.50551463                0.96101615               -2.70753500               -0.33563005                0.61959653               -0.14518510
              11.78049430                1.21683638               61.42113523                0.38095235                0.88861389                1.39313538               -4.17695588               -0.42121144                1.01660101               -0.50010648
              12.79091742                0.78381206               61.10028347                0.01205801              -16.28409171                1.82700408               -5.47103607              -26.30101719               12.11537789               -0.87097302
              13.45481247               -0.17015881               61.00069484                0.00010000              -22.02078648                7.96451041               -2.46198042              -25.29580324               16.89058886                2.48579738
              14.35050169               -1.10549323               60.77253260                0.00010000                2.27941235                3.80879449               -5.48538296              -20.83991555                3.30872683               15.52218186
              15.50040071               -2.02256302               60.34643999                0.74001773                8.92211175                3.19375907               -9.02260907              -21.08548370               -3.27712630                1.08905177
              16.52894392               -2.53809293               59.97917440                1.00000000                2.85432078                3.86109350              -11.10809187                0.33738785               -1.57627177               -0.18790396
               7.19437028                4.32335517               62.98006038                1.00000000               -0.50364874               -0.70233592                2.31816628               -0.04400068               -0.03022714                0.90573741
               8.18933379                3.90798490               62.64181042                1.00000000               -0.31491235               -0.31479363                1.04135727                0.00436994               -0.00233384                0.15543863
               9.18807203                3.49179756               62.30367423                1.00000000                0.05982659                0.06765937               -0.21963468                0.01516813                0.05948406               -0.26364546
              10.19053033                3.07459251               61.96651175                0.48973919                0.41531618                0.48951767               -1.50956167               -0.07332364                0.95072478               -0.68699553
              11.19637836                2.65445443               61.64639210                0.47945616                0.81339826                0.94604622               -3.04240866               -0.09339357                1.69130225               -0.24268739
              12.20679829                2.23076773               61.32433008                0.35250979                1.25132405                1.39410073               -4.53932387               -0.21512331                1.71758734               -0.63635933
              13.22140484                1.80208210               61.00556899                0.00010000               -3.01456052                1.69441160               -5.87817182              -23.26167184               15.89649848               -0.95134450
              14.14650708                0.90948630               60.96855282                0.00010000               -7.65500990                3.26971683               -5.43278713              -33.73551308               26.75456870                5.92733471
              15.06830464               -0.06740528               60.85548176                0.00010000               -7.03306752                5.01008835               -6.81120559              -32.16598164                2.63192583               16.34159254
              16.00584573               -0.99062543               60.27923186                0.09957133               -1.02284666                4.19965550              -13.39119122              -19.27628928               -8.97799583               51.18928206
              17.04784771               -1.49948200               59.91174427                1.00000000                4.20019776                4.18903508              -15.47064349                0.18702086               -0.63093828               48.19002921
               7.60733546                5.31679538               62.87284976                1.00000000               -0.41395794               -0.60144053                2.03108763               -0.05175400                0.16806227                1.08287783
               8.60319589                4.90521498               62.53091961                1.00000000               -0.22166949               -0.23686817                0.75181304               -0.00768117                0.34759093                0.07809523
               9.60290207                4.49284495               62.19223561                0.65583971                0.15323903                0.15717319               -0.51286156                0.00665380                0.68554028               -0.59873550
              10.60626067                4.07980577               61.85698918                0.00010000                0.60999849                0.57543196               -1.72499029               -0.12050005                2.10953378               -0.87270074
              11.61510204                3.66376519               61.54704480                0.00010000                1.11517483               -1.00589246               -3.35648217               -1.07432251                2.80956019                3.21412160
              12.62856416                3.24471840               61.22610733                0.00010000                1.59316863               -2.51171942               -4.81159075               -1.36872305                2.49843812                7.07413757
              13.64696542                2.81770030               60.91082686                0.00010000                1.05127147               -8.35947492               -6.10450252              -24.27187745               23.53122768               14.46788150
              14.64958959                1.89523553               61.01083866                0.00010000               -1.98358158               -1.26333602               -5.95764066              -42.12230054               39.66416927                9.18593114
              15.60729379                0.99470854               60.97659071                0.00010000               -5.13189743                4.95733126               -6.78010933              -40.29409354               49.90407802               15.48373028
              16.54695164                0.06143009               61.24430541                0.43963721               -2.84481608                3.50093075               -1.67143386              -20.33112483               32.96572097               52.99126728
              17.55039746               -0.45431223               60.84763960                0.95727705                0.34458206                3.13342066               -1.98754921               -0.01025800               -0.35557682               50.32126753
               8.01649600                6.31132636               62.76408541                1.00000000               -0.33654002               -0.48700351                1.74153061               -0.05340202                0.28905284                0.91511807
               9.01313060                5.90324754               62.41740697                0.59050354               -0.14408400               -0.16278321                0.45961380                0.01765506                0.62664868               -0.35986812
              10.01361432                5.49494102               62.07727562                0.00010000                0.20347416                0.24721731               -0.83764022                0.05271674                1.38967696               -1.19498617
              11.01720008                5.08610115               61.74594367                0.00010000               -0.18175168               -0.70957891               -1.97976824               -2.41552601                6.99828908                2.44442488
              12.00997928                4.63433658               61.51884702                0.00010000                0.41443236               -2.93051105               -2.86714996               -4.30807180               12.09252526                6.20384237
              13.02548873                4.18053335               61.28508723                0.00010000                3.77354353               -6.97457092               -4.02975116               -7.84972675               15.90008808               12.43270185
              14.08545016                3.63489261               61.12711803                0.00010000                5.07820478              -14.44752616               -4.84269657              -20.69408713               24.46447955               19.45851869
              15.12705282                2.88421958               61.04611268                0.00010000                0.53890295               -2.60586662               -5.70437110              -33.41381523               34.19762102                7.33598822
              16.09622821                2.03174134               61.06579862                0.00010000               -3.94044105                3.41245121               -5.85722676              -40.12267868               44.17708533                4.85070484
              17.04824400                1.07939318               61.15997165                0.23106382               -0.85505185                3.35913255               -9.58981370              -21.25991923               25.81249521               -7.76518616
              18.07912718                0.56318642               60.76169000                0.87891829                3.08831740                1.67185447               -9.88883190                1.12493306                0.42126132               -8.34989649
               8.42242506                7.30705531               62.65271578                0.92845267               -0.24907383               -0.36334285                1.46257422               -0.03056441                0.09383394                0.78825325
               9.41993432                6.90195932               62.29763101                0.34742823               -0.06611290               -0.11356115                0.15114335                0.10343184                0.67903794               -0.68094847
              10.42110280                6.49778930               61.95409111                0.00010000               -0.06898657                0.18338490               -1.13234824               -1.12156655                5.87072689               -1.96999684
              11.41855459                6.06561419               61.70295803                0.00010000                0.67028065               -1.94280628               -1.26599261               -3.57936811               12.30388603                3.42809025
              12.43450841                5.60515497               61.48620948                0.00010000                2.62295077               -3.29941852               -2.96106606               -5.31087854               16.10884433                4.98020002
              13.47101360                5.10522698               61.30479090                0.00010000                4.74445154               -6.75697470               -4.02191477               -9.64147383               20.09717744                7.55506991
              14.52939744                4.52874977               61.15984324                0.00010000                5.67254731               -8.75353050               -5.03786171              -18.87051486               24.70822733                7.12367128
              15.58446455                3.84311820               61.05960668                0.00010000                4.01345819               -4.17071361               -5.92456958              -27.76967280               28.92714372                3.38080570
              16.60966661                3.06295756               60.98941129                0.00010000                0.29218177                1.88525485               -6.69863194              -35.52742243               30.44670435               -5.43850426
              17.59030818                2.12861274               60.91807901                0.12535367               -0.21784771                9.47082968               -7.30209266              -20.44408417               16.18666759              -18.99732527
              18.60530965                1.57912486               60.53714870                0.76801593                1.50014683                5.71796074               -9.28680472               -3.73728097                1.74973684              -13.51517062
               8.82607670                8.30405950               62.54058071                0.89054086               -0.16114489               -0.25307985                1.20039341               -0.02887476                0.03714489                0.84511937
               9.82446525                7.90097632               62.17784412                0.28374834                0.07257069               -0.07149494               -0.12709958                0.09340346                0.50318998               -0.67473555
              10.82752811                7.49860872               61.82435866                0.00010000                0.68908984               -0.02374831               -1.54758106               -2.13494684                8.59435287               -2.54583008
              11.83824704                7.04724502               61.62295532                0.00010000                1.83104109               -1.65598854               -2.33612681               -4.74192895               17.16882481                0.62499955
              12.86414893                6.56834821               61.43874483                0.00010000                3.54087049               -3.31842478               -3.33270088               -7.38321276               19.46792382                2.71657141
              13.90906445                6.04539385               61.27900106                0.00010000                5.29998532               -5.13207192               -4.53774455              -12.13751793               22.24475050                3.67199226
              14.97014864                5.45982200               61.14270425                0.00010000                6.41935612               -5.76982471               -5.73285852              -18.86491908               24.58523052                3.08733825
              16.03745158                4.80080530               61.02092505                0.00010000                6.50182946               -3.70624115               -7.00154411              -25.53783879               25.33511425               -0.06612810
              17.10018523                4.06944644               60.89148193                0.00010000                4.28717245                0.91705959               -8.24131090              -30.71518941               22.77419212               -6.12428888
              18.12319502                3.26880978               60.70969583                0.01779687                0.15860422               13.71083777               -8.49755061              -21.04311626               12.46182078              -19.21980597
              19.10335731                2.67754563               60.35934288                0.65192862               -1.98377137               13.77871795              -11.33573628              -10.96889928                5.50677218              -15.53236684
               9.22801393                9.30199371               62.42942987                0.87980813               -0.07607614               -0.17183994                0.93691953               -0.03912191                0.01294339                0.95994786
              10.22725317                8.90052942               62.05867502                0.27043653                0.20606137               -0.00147477               -0.41095949               -0.04095193                0.24275124               -0.67763776
              11.23213516                8.49731433               61.69253206                0.00010000                1.33616764               -0.12583236               -1.98134650               -3.06569014               10.28041754               -2.95195925
              12.25397652                8.03249442               61.52247731                0.00010000                2.82800872               -1.25298402               -2.93860824               -6.49182804               20.88340719               -1.26527797
              13.28869533                7.53878648               61.36684284                0.00010000                4.14064703               -2.41333584               -4.11461398               -9.22569230               22.63760595                0.39277992
              14.33678946                7.00258554               61.22837607                0.00010000                5.39961394               -3.35764340               -5.35892648              -13.82126602               24.42909099                1.45060290
              15.39668761                6.41335328               61.10242120                0.00010000                6.36469343               -3.56322307               -6.79512951              -19.58861495               25.42174057                1.33087345
              16.46408333                5.76899337               60.97468133                0.00010000                6.53353699               -2.19725791               -8.52842551              -25.01886486               24.45552678               -0.35099471
              17.52735835                5.08129876               60.81736632                0.00010000                4.86316696                1.88487909              -10.54314123              -26.98314396               20.17624820               -4.45036425
              18.56134667                4.40282949               60.58857237                0.00010000                2.05508023               11.13043452              -13.16242955              -18.47126012               10.99680570              -10.32378887
              19.56845995                3.85469922               60.24953068                0.60216158                0.71132855               14.63296915              -15.52473153               -8.37094349                4.88548730              -11.59044803
               9.62822285               10.30062270               62.31875737                0.87554962                0.01027426               -0.10291951                0.66718164               -0.04730364                0.00245012                1.03416354
              10.62832559                9.90094682               61.93941604                0.28292300                0.30132273                0.09219953               -0.70469277               -0.22002635               -0.09822847               -0.75460588
              11.63424930                9.49609207               61.55816176                0.00010000                1.93063738               -0.00618528               -2.45802423               -3.92304380               11.27733510               -3.55801934
              12.66693834                9.02218534               61.40770986                0.00010000                3.76473347               -1.11597084               -4.01982200               -7.63252413               23.72097160               -3.29975234
              13.70954397                8.52008149               61.27583613                0.00010000                4.55669982               -1.14864484               -5.18707940               -9.94502479               25.75880656               -1.45781468
              14.75807233                7.97824098               61.16251151                0.00010000                5.12122663               -1.54226640               -6.46136547              -14.12291685               27.31112317                0.28589777
              15.81196850                7.38855753               61.05723142                0.00010000                5.55282337               -1.33338319               -8.12086994              -19.34600834               27.78927473                0.93572224
              16.86912880                6.75686015               60.94315900                0.00010000                5.73588637                0.02429636              -10.55910542              -23.59095583               26.13036790                0.84885870
              17.92668623                6.10714402               60.78977210                0.00010000                5.56202798                2.98410001              -14.19401098              -23.43916733               20.82964891                0.22033298
              18.98036936                5.49141847               60.55779675                0.00010000                5.27563784                7.84068039              -18.57599859              -15.01561824               11.24526212               -2.38061724
              20.03219899                4.97020502               60.21048628                0.58666649                5.18296271               10.51536677              -21.68010448               -6.04999949                5.76339022               -5.73449687
              10.02641961               11.29993532               62.20831544                0.87863528                0.09636521               -0.04098601                0.39230137               -0.05792695               -0.02007508                1.09832066
              11.02738327               10.90237341               61.81944437                0.34254578                0.30080715                0.21146503               -1.01461751               -0.35523172               -0.71991588               -0.89510730
              12.03243576               10.49719063               61.41678307                0.00010000                2.49766755                0.36841463               -2.88440987               -4.95435733               11.16810273               -3.94322966
              13.07733662               10.01017501               61.26983245                0.00010000                5.06517186               -0.10071699               -5.46561770               -7.42256339               26.09459127               -7.14745196
              14.13373919                9.51581358               61.16586641                0.00010000                5.42592330                0.13766676               -7.29479199               -8.15090340               29.44434160               -2.08545734
              15.18585508                8.97174021               61.08965249                0.00010000                4.87045424                0.04858356               -7.57782661              -12.36579741               31.20466932                0.01454483
              16.23114828                8.38668561               61.01543769                0.00010000                4.39113203                0.89166726               -9.58920437              -16.72432928               31.81916161                0.94074290
              17.27367772                7.76947930               60.93598179                0.00010000                4.64342019                2.76099559              -13.43664783              -20.54828251               31.31105421                2.62141108
              18.32401668                7.14098076               60.83469973                0.00010000                6.21477932                5.22777100              -19.09924478              -19.84595023               25.59924389                5.63789772
              19.39797331                6.55964310               60.62626512                0.00111246                8.29350905                8.32811408              -27.46467225              -12.48299965               14.29336234               11.48721484
              20.48988686                6.06500655               60.27672797                0.58100258                9.19135540               10.90145547              -32.97963419               -4.73904874                7.94831039                7.50614249
              10.42218813               12.29980298               62.09809050                0.82855568                0.17775162                0.00239786                0.13190262               -0.04774835               -0.05077092                1.05918867
              11.42396565               11.90517612               61.69844775                0.45718307                0.25862107                0.35468525               -1.35821788               -0.31308819               -1.17528753               -0.91260096
              12.42736055               11.50346037               61.27679363                0.10019329                3.79492316                0.72979776               -2.93895165               -4.56775868                8.28545625               -2.59062672
              13.49986411               11.02017100               61.07153518                0.00010000                7.88000713                2.28265696              -17.02186313               -5.24212736               25.25456659               -6.31098539
              14.58496070               10.52283483               61.05111216                0.00010000                7.00101189                0.52887524               -8.10110904               -4.97782315               35.41196696               -1.14264911
              15.63988435                9.97921266               61.01782705                0.00010000                4.73910638                1.11465005               -8.73389577               -7.70725841               35.50474450                0.06616481
              16.67974282                9.40639088               60.97541066                0.00010000                3.19918281                2.73968075              -10.96430552              -10.22328070               37.04015402                0.66415535
              17.70386801                8.81208006               60.94773770                0.00010000                2.99303007                5.37406697              -16.22274001              -13.01583698               39.71564226                2.49852178
              18.73960343                8.21169944               60.92455593                0.00010000                5.14077807                9.91252575              -29.97264966              -12.11358472               42.52290506                6.48282339
              19.80668357                7.65798075               60.93034954                0.07597219                9.35438375               11.72047068              -41.56994391               -7.18561376               29.26115919               15.46693700
              20.92669110                7.18823412               60.60594986                0.58009180               12.00075334               12.67720644              -45.74071757               -2.88361383               18.33763795               10.46887429
              10.81471837               13.29998328               61.98588365                0.91057900                0.27457515                0.01802967               -0.13824539                0.20140666                0.47280555                1.00566683
              11.81746412               12.90946711               61.57960248                0.81946643                0.56836683                0.42909900               -1.62647319               -0.05998816                0.14196971               -0.89696401
              12.82608570               12.51178658               61.16680663                0.59947613                6.78277456                0.83262128               -3.04015085               -2.80943362                7.71429046               -1.46165034
              13.95311961               12.05582815               60.91443939                0.36696681               12.45276896                3.56571410              -18.02025550               -3.94422519               24.82546605               -3.50763996
              15.07514108               11.52639109               60.95366455                0.36057445                9.75171288                0.35562557               -9.48701085               -4.07170832               40.39209883               -0.93311350
              16.14815387               10.99403321               60.94742541                0.36539412                5.93370905                1.48205562               -9.73544726               -3.41864130               39.63068867               -0.08336303
              17.19381526               10.44147923               60.93197219                0.38095717                2.99492780                3.50883496              -12.20610531               -4.44638479               42.19017842                0.32408464
              18.20805242                9.87696064               60.94345811                0.40812163                2.10145191                6.48805827              -17.89250972               -4.69395636               46.70247454                1.54971619
              19.23584430                9.33923127               60.97728729                0.51751810                3.48369658               12.75318293              -35.67254645               -4.52131899               53.32759318                4.69578028
              20.27772635                8.79405251               61.09309242                0.57081173                6.79317666               13.60717663              -41.48088708               -3.92975088               36.82203126               14.65128515
              21.37170783                8.31855068               60.74865012                0.79165361                9.39814803               13.03165593              -44.32828802               -3.04850977               21.44887379                8.31755497
               7.11642485                3.45030560               64.11705771                1.00000000               -0.56494439               -0.71233834                2.47636676               -0.23342144               -0.54512726                0.64169232
               8.11077540                3.02561866               63.76648674                1.00000000               -0.39387749               -0.33792559                1.26526246               -0.18225497               -0.67686101                0.09498696
               9.10854730                2.60026418               63.41270923                1.00000000               -0.05493675                0.02431144                0.06640442               -0.18000269               -0.65506997               -0.10180127
              10.10967667                2.17355415               63.06235377                0.60046257                0.19170738                0.42915615               -1.15955368               -0.30115226               -0.16910050               -0.56119786
              11.11238145                1.74335690               62.71843796                0.51009619                0.47870865                0.90394385               -2.55309889               -0.32836823                0.43489801               -0.17351623
              12.11925084                1.31023144               62.38035555                0.35785179                0.79299002                1.32014019               -3.95246069               -0.46513880                0.90589304               -0.53925739
              13.12824125                0.87119825               62.04692278                0.00010000              -15.30230467                1.75511825               -5.17545810              -25.96469402               13.77174293               -0.98568178
              13.81320475               -0.08152766               61.96925380                0.00010000              -20.09978305                7.10715840               -3.75550477              -24.66892912               20.43955969                4.41682396
              14.72624558               -1.01148114               61.72221344                0.00010000                3.14934554                3.10818115               -4.81199670              -19.47749831                3.51837125               17.68271085
              15.87619166               -1.92630740               61.27589929                0.85137994                8.36838944                1.87492140               -5.60094593              -20.06941856               -3.21980629                0.69837085
              16.89361337               -2.45057740               60.89208248                1.00000000                1.74217146                2.28793827               -6.92365030                0.12606489               -1.03948815                0.03624933
               7.53877758                4.44318222               64.00272896                1.00000000               -0.48040167               -0.66507240                2.20906987               -0.04562984               -0.01824175                0.89525607
               8.53397356                4.02223940               63.65200253                1.00000000               -0.29990272               -0.30146748                0.99607023               -0.00053600                0.01948111                0.14756225
               9.53277952                3.60050730               63.30154759                1.00000000                0.05726116                0.05947700               -0.20149345                0.01170474                0.07385168               -0.26767149
              10.53511879                3.17784571               62.95178841                0.50030571                0.39897970                0.46051934               -1.42544567               -0.07033761                0.82905444               -0.64622893
              11.54075912                2.75239634               62.61671983                0.48491486                0.77799980                0.88807632               -2.87458466               -0.09036383                1.45539208               -0.26741753
              12.55067878                2.32343284               62.28001437                0.34867231                1.18573675                1.31489366               -4.29816512               -0.24800847                1.55473418               -0.64185691
              13.56447385                1.88874943               61.94807936                0.00010000               -2.14118147                1.59672649               -5.59228901              -23.30085133               16.58243452               -0.96322968
              14.50785515                0.98954392               61.91376099                0.00010000               -5.53066918                2.31975323               -5.44044715              -33.12173572               28.96413528                8.21332537
              15.45386047                0.01960067               61.79261966                0.00010000               -5.64047765                4.02321741               -5.78101338              -31.30879792                2.35629247               19.80753927
              16.39504560               -0.90755818               61.17825379                0.09751160               -1.73582246                5.70419714               -7.86562046              -18.94597909              -10.61219739               56.98029382
              17.41914402               -1.42769801               60.79429415                1.00000000                2.40984214                5.88598271               -9.18128672                0.70765878               -0.55496080               55.51179066
               7.95739789                5.43700415               63.89270352                1.00000000               -0.39582851               -0.56065932                1.93310929               -0.05332888                0.17502600                1.07196215
               8.95343960                5.01958931               63.53826674                1.00000000               -0.21114025               -0.22774956                0.71740870               -0.01200229                0.36313708                0.06582641
               9.95317508                4.60145372               63.18721317                0.60897850                0.14706344                0.14653553               -0.48596242                0.00536802                0.73360200               -0.63133907
              10.95638087                4.18276453               62.84014846                0.00010000                0.59059784                0.55545973               -1.63440857               -0.13268018                1.97912568               -0.82800035
              11.96498704                3.76111843               62.51435598                0.00010000                1.07783565               -1.15822596               -3.16651818               -0.95038715                2.54462643                3.55346336
              12.97793758                3.33652931               62.17923031                0.00010000                1.55630469               -2.74048535               -4.54415908               -1.08293651                2.37393027                7.57944353
              13.99611313                2.90313278               61.85120940                0.00010000                2.09906054               -8.88017138               -5.79316842              -24.05018434               24.15000282               15.24434448
              15.01991880                1.96486740               61.95229901                0.00010000                0.05292997               -2.13131789               -5.73082392              -41.84923401               40.58687525               11.95531946
              15.99717173                1.06898321               61.91344674                0.00010000               -3.76740187                4.03207579               -5.85465028              -37.17056923               53.11298776               19.94559545
              16.94457076                0.18777655               62.22805315                0.45979210               -2.45627621                5.41295339               -1.68748964              -16.99258462               35.68938590               59.86904310
              17.94804621               -0.33285774               61.83221491                0.95778312                0.34754503                5.30548141               -1.48305639                0.84892143                0.19784406               59.06236264
               8.37254070                6.43196903               63.78110753                1.00000000               -0.32567513               -0.44279551                1.65582845               -0.04875092                0.29732533                0.91338047
               9.36928395                6.01768441               63.42190317                0.56800673               -0.14145203               -0.16357359                0.44032124                0.03078334                0.62454592               -0.37898323
              10.36971166                5.60343801               63.06900699                0.00010000                0.17582647                0.22038201               -0.80780999                0.08939834                1.45772875               -1.23074770
              11.37280048                5.18895490               62.72659621                0.00010000               -0.08625279               -0.86602619               -1.87799173               -2.33455847                7.22921229                2.75929889
              12.36798660                4.72923182               62.49029434                0.00010000                0.71026149               -3.13324653               -2.87094636               -4.18486719               12.31394164                6.85629583
              13.38700570                4.26862313               62.24512755                0.00010000                4.35727355               -7.36834911               -4.00087762               -7.72695739               16.13757173               13.38255660
              14.45513207                3.71114600               62.07895538                0.00010000                5.90071700              -15.12045369               -4.83207875              -20.65809808               24.62349042               21.13840803
              15.50502004                2.94691757               61.98997849                0.00010000                1.62039358               -3.04071489               -5.52668363              -33.34657304               34.64968970               10.02080293
              16.48753994                2.10024218               62.00940943                0.00010000               -2.39925960                2.42452608               -5.34266548              -37.62913200               43.54061860                9.58173400
              17.45703485                1.20070089               62.07532333                0.32277646               -0.50744601                1.61672128               -6.78378533              -19.01346887               23.95505321               -4.25461448
              18.47739102                0.67841162               61.67832911                0.96985038                2.03561703                1.19045923               -6.49438781                0.28261388               -0.24476534               -4.05669534
               8.78499212                7.42814824               63.66700832                0.91930293               -0.24058246               -0.31593110                1.38838870               -0.01830301                0.08629247                0.80420746
               9.78258629                7.01631783               63.29914686                0.33908332               -0.06497812               -0.12915767                0.15518415                0.13432562                0.67943036               -0.69127598
              10.78369255                6.60586136               62.94296437                0.00010000                0.06547977                0.08387838               -1.08781773               -1.15085446                6.26719267               -2.06915547
              11.78389589                6.16544401               62.68691069                0.00010000                0.89644571               -2.07959452               -1.78450779               -3.54243383               12.75315627                3.93160925
              12.80162147                5.69845350               62.45660120                0.00010000                2.87941853               -3.43994970               -3.01935560               -5.32812658               16.12087359                5.41984092
              13.84148426                5.18916233               62.26440091                0.00010000                5.15176342               -7.05545986               -4.10589703               -9.93387584               20.19107176                8.34028263
              14.90465674                4.60072370               62.10963477                0.00010000                6.12034477               -9.05820365               -5.04641166              -19.46061334               24.79453528                8.40452993
              15.96389115                3.90405311               62.00181446                0.00010000                4.30745183               -4.46102432               -5.64902193              -28.33841042               29.10658156                5.63045850
              16.99080577                3.11747373               61.92690246                0.00010000                1.11203979                0.89173490               -5.75175485              -34.27675330               31.02315152               -2.01902397
              17.98613195                2.22011097               61.85222206                0.19116258                0.37356257                3.47710102               -5.10118307              -18.38927213               16.36484773               -9.41336646
              18.99827702                1.69095144               61.46417982                0.83459409                1.21450756                1.78503387               -5.41411314               -0.92339838                0.24934584               -6.80864629
               9.19583546                8.42565041               63.55229790                0.88542271               -0.15781185               -0.20522560                1.13367060               -0.02042098                0.03333256                0.87289444
              10.19425734                8.01510125               63.17669022                0.28862357                0.08664676               -0.09664519               -0.09876310                0.08921733                0.43395022               -0.66851580
              11.19756839                7.60511558               62.80903219                0.00010000                0.75511627               -0.18137651               -1.48787099               -2.09095948                8.75037437               -2.71435479
              12.20935966                7.14736301               62.59944487                0.00010000                2.00686812               -1.68239183               -2.37445213               -4.80968376               17.49773588                0.68534837
              13.23770575                6.66043283               62.40485190                0.00010000                3.83491613               -3.39314448               -3.49025466               -7.62389366               19.59009927                3.14541652
              14.28605798                6.12751393               62.23321286                0.00010000                5.66616364               -5.24435799               -4.67356123              -12.57420072               22.22463483                4.43171455
              15.35102903                5.52998193               62.08551874                0.00010000                6.77219145               -5.95971101               -5.74532236              -19.46484706               24.49223095                4.32800029
              16.42150181                4.85769708               61.95281525                0.00010000                6.74589932               -4.13939940               -6.59520662              -25.87898430               25.17006736                1.79840513
              17.48594701                4.11807688               61.81417908                0.00010000                4.71349397               -0.44583097               -6.99037441              -32.43805241               22.83779290               -3.42987731
              18.51577169                3.27024291               61.63805245                0.06591961                1.56475498                9.06203398               -5.35737882              -21.41778278               11.35095565              -13.45638144
              19.51724211                2.71411229               61.26469053                0.69939080                0.14704182                7.36973763               -6.84473349               -7.35056979                2.77063683               -8.83508679
               9.60568201                9.42404373               63.43854434                0.87787087               -0.07765353               -0.12725615                0.87251936               -0.03117262                0.01158818                0.98829383
              10.60490547                9.01438493               63.05479933                0.29019957                0.19647997               -0.03222223               -0.35509063               -0.07516617                0.10930655               -0.66971236
              11.60961161                8.60223383               62.67305480                0.00010000                1.37397438               -0.24310023               -1.82698388               -3.04141628               10.27475517               -3.03889981
              12.63238496                8.13179617               62.49353922                0.00010000                2.96905342               -1.40201234               -2.95869820               -6.48269280               20.98954894               -1.33268926
              13.66899267                7.63059061               62.32498477                0.00010000                4.40330922               -2.29529233               -4.27494905               -9.42633118               22.59663542                0.74393133
              14.72045114                7.08427517               62.17397825                0.00010000                5.80919876               -3.34274107               -5.58624443              -14.32839517               24.35129025                2.23053427
              15.78517665                6.48152948               62.03422550                0.00010000                6.88826858               -3.77302937               -6.86874051              -20.22861817               25.23406995                2.55723139
              16.85821652                5.82126512               61.89108300                0.00010000                7.21611246               -2.77974230               -8.15403275              -25.92772222               24.13245274                1.24598260
              17.92949890                5.10855711               61.71874135                0.00010000                5.17621839                0.18768042               -9.11248105              -28.37823666               19.41327821               -2.47240756
              18.96174088                4.40135165               61.46704054                0.00795767                1.70139775                9.91503073              -10.09126713              -19.68980184               10.69594306              -11.36970030
              19.96352685                3.83834620               61.10413254                0.63556515                0.17859710               10.30423056              -12.25550721               -9.84994984                5.04059367              -11.54313948
              10.01452960               10.42310529               63.32518595                0.87498089                0.00343054               -0.05819704                0.60152398               -0.03746240                0.00445539                1.06065066
              11.01456391               10.01445681               62.93274512                0.32463235                0.23996080                0.04789064               -0.61278791               -0.23502987               -0.28444645               -0.74530381
              12.01932882                9.60025357               62.53469530                0.00010000                1.83925596               -0.07233856               -2.06746257               -3.94941355               10.70775133               -3.39095441
              13.05134903                9.11932277               62.36479153                0.00010000                3.86856575               -0.46456395               -3.95689371               -7.23375446               23.42094307               -3.51896404
              14.09670014                8.61452698               62.22262306                0.00010000                4.86010894               -0.57570573               -5.68934452              -10.16334009               25.75774614               -1.57992641
              15.14855121                8.06065911               62.09640860                0.00010000                5.63832874               -1.47426459               -6.75576034              -14.97077000               27.25844969                1.11331611
              16.20946671                7.45452134               61.97498471                0.00010000                6.36842688               -1.59289141               -8.35879408              -20.22082972               27.53256548                2.06078783
              17.27591975                6.80210223               61.83763248                0.00010000                6.44145174               -0.61393843              -10.39618949              -24.78496023               25.47136665                1.92395973
              18.33829575                6.12183049               61.65342302                0.00010000                5.81334108                2.18091484              -12.74838325              -25.44246717               19.79431542               -0.34843459
              19.39218657                5.46854352               61.38413066                0.00010000                5.39791396                5.62948913              -16.00505374              -16.63268182               10.17599724               -5.09539025
              20.44625402                4.92019690               61.00718650                0.61579265                5.40674574                6.26895982              -18.71366355               -6.68050903                4.49040144               -8.77891995
              10.42222971               11.42287979               63.21197838                0.87883408                0.08268766                0.01013586                0.32116419               -0.04024592               -0.01927540                1.12818524
              11.42305659               11.01534274               62.80986484                0.42531608                0.17638337                0.14154861               -0.87129031               -0.32033396               -0.83292105               -0.89170381
              12.42575738               10.60078706               62.39183201                0.04437489                2.51899352                0.21539857               -1.97517209               -4.01118087               10.30701427               -3.31814265
              13.47343646               10.12250489               62.21569521                0.00010000                4.93160739                2.18922342               -9.22406910               -9.51004921               24.40988242              -13.26695968
              14.52438953                9.61907650               62.08806205                0.00010000                5.38024628                0.60692993               -7.23856617              -10.33225752               29.43059340               -1.56689618
              15.58104138                9.05478988               62.01220446                0.00010000                5.74637037               -0.02896735               -8.09353139              -13.87167779               31.61128893                0.71534750
              16.63931693                8.44967166               61.91656013                0.00010000                5.70833888                0.54808913              -10.14579185              -17.65100527               31.17361391                1.90423144
              17.69520816                7.80898635               61.80055503                0.00010000                5.74456673                2.11375908              -13.44471366              -21.16912329               29.39100433                2.60371381
              18.75420827                7.15217540               61.63411645                0.00010000                6.77563355                4.74918872              -18.92061113              -21.96719608               22.84624305                2.70440449
              19.83072083                6.51394143               61.36499757                0.01172990                8.62008181                6.77653033              -25.26685016              -14.68309484               11.62030112                1.26917073
              20.92660991                5.96372539               60.97233758                0.61276456                9.58890720                6.67129739              -29.31945072               -4.80419753                5.82638237               -4.15597681
              10.82879878               12.42330800               63.09908619                0.82614121                0.14511767                0.05898092                0.03420940               -0.02527375               -0.09444057                1.07839202
              11.83024996               12.01728778               62.68568706                0.60343122                0.15721349                0.25075094               -1.11839935               -0.26388493               -0.98449822               -0.87260111
              12.83194305               11.60456154               62.25506400                0.24858937                0.63043268                0.40342338               -1.59391688               -1.80367876               -0.19004365               -2.00890862
              13.84285861               11.16310723               61.85927085                0.00010000                6.29134769                2.59607499              -12.75793623               -9.09468279               23.44925523              -11.27904138
              14.95777001               10.62666558               61.97381456                0.00010000                9.88319407               -0.07481998               -8.76541606               -8.88040781               41.35039442               -0.66227102
              16.04052249               10.06007977               61.92574611                0.00010000                7.22400630                0.69520000               -9.50542841               -9.03687953               35.18639646                0.51537573
              17.10225013                9.46548313               61.86109318                0.00010000                5.47555191                2.23794374              -11.98854208              -10.94358443               35.82119840                1.35881735
              18.15003353                8.84437741               61.77531812                0.00010000                4.58733042                4.81962223              -17.05870911              -12.96343919               35.37400999                2.01591374
              19.19399674                8.21681427               61.64786095                0.00010000                6.84705754                8.13543440              -26.15829922              -14.05200479               31.17446458                2.90151181
              20.28697468                7.60407413               61.44131479                0.06095833               12.83027086               12.82546331              -46.52222190               -9.65230668               19.09289236                4.12194021
              21.45060216                7.05362285               61.03852254                0.61481537               16.36274746               13.87912131              -54.16057397               -2.01925595                9.93133791               -2.08254426
              11.23376468               13.42405941               62.98398857                0.90832288                0.27606703                0.07514049               -0.28248431                0.12642510                0.48637751                1.01462999
              12.23652535               13.02035776               62.56460853                0.91508156                0.50498359                0.30699792               -1.28785667               -0.13265474                0.34255492               -0.83450785
              13.24386435               12.60885553               62.14240480                0.69739395                1.64567074                0.42939869               -1.95629268               -1.10443834                0.27860246               -1.10402845
              14.26943876               12.17442639               61.72586750                0.36669880               10.29722444                1.13191598              -10.74807884               -6.90575640               21.98066784               -1.74937243
              15.44980884               11.61758010               61.85787805                0.36072015               14.60237431               -0.90854852              -10.09075018               -6.08274246               44.34273039               -2.02927242
              16.56148625               11.06869388               61.84482301                0.36514751                9.31693780                0.86141100              -10.78018665               -4.06110256               39.24366107               -0.00755677
              17.63614760               10.49443053               61.80324913                0.37997601                6.15609937                2.89474054              -13.71374709               -4.77600755               40.40726525                0.41579440
              18.68460824                9.90537879               61.74677756                0.40582660                3.86619326                6.10013793              -19.68416776               -5.51985125               41.90880018                0.80440931
              19.71347146                9.31488409               61.66047085                0.47435863                5.81289372                9.80698269              -30.54229105               -4.79893252               40.04342663                0.09066460
              20.80086611                8.77045070               61.52557796                0.55313569               13.68279368               16.63765735              -56.55889906               -2.28967063               27.90280192                3.84619285
              21.98712734                8.24130782               61.13096097                0.81053378               18.62612225               18.76849668              -63.75117475                0.73822970               18.35503062               -1.92389908
               7.46771434                3.57233345               65.14118431                1.00000000               -0.53521968               -0.67189689                2.34269992               -0.22104515               -0.52434671                0.62931784
               8.46236214                3.14237903               64.77884836                1.00000000               -0.37382204               -0.32228698                1.20552132               -0.17345809               -0.64772789                0.09048089
               9.46023789                2.71177901               64.41343194                1.00000000               -0.05444367                0.01611833                0.08144509               -0.17031240               -0.63397665               -0.09569626
              10.46127327                2.27992219               64.05117647                0.59764287                0.18017122                0.39510505               -1.06796139               -0.28184895               -0.24472664               -0.54375647
              11.46384132                1.84481021               63.69377272                0.49967828                0.44270385                0.83778574               -2.36604778               -0.31753839                0.26666627               -0.19944452
              12.47012734                1.40673359               63.34208602                0.33608470                0.68063525                1.23222471               -3.68077649               -0.51063716                0.81010708               -0.56956181
              13.47745402                0.96178527               62.99677431                0.00010000              -14.09071703                1.67456264               -4.82906167              -24.69322715               14.65762230               -1.08614943
              14.18831300                0.02916329               62.92558475                0.00010000              -18.16152024                6.15443103               -4.73483464              -23.42818619               21.90976009                4.78469686
              15.11422362               -0.89265144               62.67629266                0.00010000                3.89112749                3.01636457               -4.67061314              -18.45198602                4.46151508               18.64843224
              16.26613555               -1.81330459               62.23442108                0.98610182                8.07820836                1.01311793               -3.28369844              -19.87781761               -2.45996228                0.35470370
              17.27578779               -2.34179128               61.84070139                1.00000000                0.96522349                1.24126606               -4.06676108                0.03932992               -0.55713062                0.02279337
               7.89545831                4.56561448               65.02424178                1.00000000               -0.45535279               -0.62387003                2.08794543               -0.04607156               -0.00681365                0.88194623
               8.89090478                4.13915616               64.66173183                1.00000000               -0.28475585               -0.28740795                0.94910535               -0.00437251                0.04009624                0.13914864
               9.88976319                3.71194019               64.29964436                1.00000000                0.05171991                0.04898828               -0.17528885                0.00857890                0.08792188               -0.27158706
              10.89193918                3.28387324               63.93800284                0.51274765                0.37485226                0.42578828               -1.32298043               -0.06625118                0.71883479               -0.60651218
              11.89726023                2.85318807               63.58890040                0.49204344                0.72971326                0.82248748               -2.67531477               -0.08729966                1.23790586               -0.28500424
              12.90653344                2.41905584               63.23836678                0.34617777                1.10233355                1.22302448               -4.00954495               -0.27975852                1.38986092               -0.63499519
              13.91930691                1.97853089               62.89372321                0.00010000               -1.26419747                1.49629501               -5.24641199              -22.44527474               17.10464327               -0.95427999
              14.88124949                1.09070760               62.85974388                0.00010000               -3.41846037                1.44805683               -5.45318596              -31.51209645               29.96871216                9.05558160
              15.85093770                0.13751221               62.73986150                0.00010000               -4.46610992                3.47410601               -5.16034242              -30.71526135                2.92523491               21.57414557
              16.79192729               -0.80317341               62.12191945                0.11457336               -2.31349637                8.75229965               -4.40711093              -19.55275921              -10.77399248               59.85991010
              17.80466777               -1.32937861               61.72811854                1.00000000                1.27404768                9.23456695               -5.18590991                0.89163112               -0.29251436               59.47514100
               8.31970955                5.55985605               64.91151194                1.00000000               -0.37605733               -0.51626599                1.82307681               -0.05287182                0.18036835                1.05632301
               9.31594898                5.13663087               64.54526778                1.00000000               -0.20085805               -0.21842025                0.68311056               -0.01399983                0.37558004                0.05492001
              10.31569239                4.71275877               64.18251636                0.55553729                0.13756957                0.13173397               -0.44771578                0.00598720                0.77665985               -0.66573575
              11.31870037                4.28843796               63.82430101                0.00010000                0.56101691                0.53258285               -1.52727134               -0.14705066                1.86309540               -0.78188199
              12.32691273                3.86125996               63.48371444                0.00010000                1.02444880               -1.19853916               -2.94908351               -0.83886658                2.30339642                3.77657884
              13.33918934                3.43119408               63.13522414                0.00010000                1.49920220               -2.80209844               -4.23967565               -0.82515587                2.24406393                7.94306346
              14.35689677                2.99171117               62.79496349                0.00010000                2.99502068               -8.96477471               -5.43032677              -22.96537676               24.66835143               15.85517347
              15.39908976                2.05812442               62.89622218                0.00010000                1.84513148               -2.77937078               -5.66365451              -40.32687010               41.36100166               13.82856375
              16.39379940                1.17683068               62.85949770                0.00309395               -2.85592846                3.62040479               -5.23742936              -33.28124877               55.37083436               22.66925885
              17.34197119                0.36174140               63.21055561                0.47292778               -2.38842925                8.66526935               -1.85769810              -13.37162620               37.48187136               63.42305114
              18.34603082               -0.15709994               62.81797847                0.94637427                0.40596270                8.97331084               -1.52511047                1.29349357                0.37434743               63.72864306
               8.74085123                6.55528916               64.79720197                1.00000000               -0.31291743               -0.39534805                1.55744164               -0.04192639                0.30350552                0.90323546
               9.73772206                6.13478775               64.42621340                0.55137689               -0.13876927               -0.16420610                0.42269491                0.04518089                0.61229671               -0.38947947
              10.73807585                5.71457487               64.06111942                0.00010000                0.13874620                0.18111080               -0.75971366                0.13637884                1.51722534               -1.26784228
              11.74049698                5.29452490               63.70838384                0.00010000               -0.01745340               -0.85201146               -1.75683965               -2.20385367                7.35176246                2.83603862
              12.73772678                4.82921728               63.46142809                0.00010000                0.95410676               -3.11328640               -2.90512758               -3.94940466               12.32565362                7.32190008
              13.75957912                4.36301387               63.20506968                0.00010000                4.76711255               -7.36233787               -4.03544134               -7.36848826               16.14684847               14.09425383
              14.83306903                3.79923540               63.03047645                0.00010000                6.50067297              -15.07170783               -4.92825363              -19.84579297               24.56869775               22.51935061
              15.88959257                3.03512018               62.93557900                0.00010000                2.43133579               -3.26169066               -5.46117542              -31.95381820               34.97865196               12.32659789
              16.88169574                2.20992030               62.95894531                0.00010000               -1.55835937                2.04883755               -4.86157234              -33.95327857               43.71336190               13.00803673
              17.85842539                1.37013198               63.02429594                0.44024795               -0.67377121                0.79374455               -3.70194094              -16.07380551               23.41496623               -1.80866901
              18.86822032                0.85008760               62.63180224                1.00000000                0.97949324                0.68452222               -3.27395311                0.01307462               -0.30997873               -1.24572084
               9.15987384                7.55194909               64.68048356                0.91248854               -0.23069543               -0.26538953                1.29986510               -0.00486008                0.07971773                0.80385932
              10.15756688                7.13334675               64.30073470                0.33965544               -0.05955089               -0.14171120                0.16498434                0.15599046                0.65769238               -0.68598250
              11.15868282                6.71638099               63.93233476                0.00010000                0.12070002               -0.01718392               -1.02278212               -1.01219590                6.39267246               -2.14857290
              12.15998088                6.27139773               63.66726787                0.00010000                1.03764204               -2.01007187               -2.01963065               -3.27508462               12.80632786                4.15421417
              13.17943566                5.79899423               63.42582237                0.00010000                3.09102893               -3.31721567               -3.16758092               -5.14971283               15.98581576                5.75044594
              14.22180146                5.28394732               63.22267296                0.00010000                5.42194696               -6.92815342               -4.28345724               -9.77030165               20.02731541                8.97862270
              15.28787460                4.69027701               63.05891501                0.00010000                6.37635131               -8.87220647               -5.16278768              -19.18674364               24.74290654                9.57889139
              16.34932849                3.99289061               62.94662624                0.00010000                4.59237174               -4.38076561               -5.48261081              -27.49347824               29.44292975                7.74130838
              17.37972204                3.21780743               62.87437619                0.00010000                1.54996449               -0.04551482               -4.83816941              -31.26330882               32.37726888                1.40507477
              18.38032778                2.37761629               62.81605535                0.28794005                0.33295099                0.73658481               -2.60405769              -15.99698137               16.86112650               -4.04693632
              19.38638106                1.85659051               62.42886644                0.92867341                0.60532763                0.54017859               -2.49351890               -0.23890095               -0.01888255               -2.79744173
               9.57795871                8.54998137               64.56325412                0.88255151               -0.15487491               -0.15387762                1.04865312               -0.00969029                0.03021040                0.87153048
              10.57640996                8.13195353               64.17586885                0.30485691                0.09111172               -0.11332428               -0.06219791                0.08058900                0.33946118               -0.63965140
              11.57978095                7.71423119               63.79460124                0.00010000                0.79860430               -0.27538854               -1.34905019               -1.87112603                8.73978183               -2.74450349
              12.59238205                7.25432346               63.57546628                0.00010000                2.12009883               -1.54518757               -2.43656509               -4.47507897               17.49819400                0.79960293
              13.62218292                6.76287297               63.36893974                0.00010000                4.02541268               -3.15501417               -3.70305622               -7.45596569               19.35280123                3.46035646
              14.67289030                6.22445080               63.18552984                0.00010000                5.91039730               -4.99734233               -4.90767706              -12.41543163               21.93601502                5.02935122
              15.74039087                5.62179127               63.02779780                0.00010000                6.96511424               -5.76225334               -5.85342677              -19.02781354               24.33030257                5.43416367
              16.81219259                4.94750487               62.88902092                0.00010000                6.56565079               -4.18974107               -6.24151355              -24.99466074               25.37132319                3.60981019
              17.87170388                4.20901001               62.75167444                0.00010000                4.37550484               -1.26003819               -5.52836551              -30.13484294               24.34351458               -0.87352056
              18.89970268                3.38486367               62.60254825                0.15301973                1.68949935                2.58704899               -2.51232388              -16.92861384               11.93756049               -6.98180755
              19.90549387                2.86089117               62.22244821                0.78022784                0.57911876                1.23749775               -2.94592379               -1.96191177                0.54500140               -4.73399082
               9.99573572                9.54887154               64.44688026                0.87813558               -0.08068744               -0.07898472                0.78401679               -0.01738276                0.01265192                0.97445594
              10.99492884                9.13108026               64.05157320                0.32400604                0.15773262               -0.04891436               -0.28516098               -0.06404850               -0.00382745               -0.62467431
              11.99889037                8.71087322               63.65599238                0.00010000                1.34543442               -0.23677091               -1.51294863               -2.70046541               10.04269698               -2.80007421
              13.02183753                8.24049398               63.46330334                0.00010000                3.06493190               -1.23366937               -3.02415306               -5.99659401               20.66184663               -1.09351355
              14.06018901                7.73589395               63.28134386                0.00010000                4.63685003               -1.87336444               -4.50737808               -9.27973027               22.15229293                0.76336827
              15.11457453                7.18400048               63.11665118                0.00010000                6.20376282               -3.10848496               -5.87713472              -14.14363161               23.89947183                2.81415367
              16.18426426                6.57503194               62.96504639                0.00010000                7.38210033               -3.71763022               -7.00464260              -19.69498122               24.89146289                3.54780761
              17.26221654                5.90909579               62.81160068                0.00010000                7.77010559               -3.08187780               -7.75699422              -24.72500190               24.06246555                2.72989348
              18.33966637                5.19260667               62.63511670                0.00010000                6.38288988               -1.21048883               -7.70545212              -28.76840192               19.54475657               -0.17086376
              19.38987433                4.42935727               62.38674703                0.08658440                2.77107209                5.33449809               -5.27687581              -19.04215343               10.08442625              -10.51947886
              20.39508782                3.88134046               62.00442054                0.70666890                0.52134815                3.27652022               -6.21029852               -6.28160804                3.54649747               -9.25136728
              10.41319361               10.54840168               64.33078785                0.87731389               -0.00662972               -0.01363763                0.50588061               -0.01636927                0.01108938                1.03091369
              11.41312731               10.13097524               63.92716028                0.38463248                0.15821588                0.02585670               -0.49554167               -0.14817631               -0.33508413               -0.67130693
              12.41635792                9.70949577               63.51681251                0.01426810                1.71510668               -0.02070729               -1.48147862               -3.37349350               10.31323880               -2.74683756
              13.44742944                9.22965007               63.32857199                0.00010000                3.83619460                0.49312572               -3.98856097               -6.83117013               22.40333709               -6.97047217
              14.49308182                8.72540568               63.16204924                0.00010000                5.17251158               -0.13048946               -6.06487077              -10.08580795               24.89844245               -1.34768006
              15.55087967                8.16228110               63.02739631                0.00010000                6.41570589               -1.36454129               -7.05301613              -15.14793793               26.92169319                1.49628784
              16.62139593                7.54743866               62.89005554                0.00010000                7.46190748               -1.81850853               -8.59615950              -19.72040323               26.87810486                2.83033738
              17.70011782                6.88586731               62.73523521                0.00010000                7.73392146               -1.26139257              -10.06597209              -24.04567410               24.93418225                2.88831096
              18.77607436                6.18480023               62.53480444                0.00010000                6.50039986                0.40121204              -10.95233295              -25.87405235               19.24819429                0.40669938
              19.83012582                5.49155363               62.23769568                0.07016019                4.99104845                4.92425538              -12.08723609              -17.80473922               10.25700763               -8.74870121
              20.87589533                4.92642158               61.83621301                0.68473145                4.57695108                3.46052584              -12.94633314               -6.68087241                2.70668340               -9.90588962
              10.83026120               11.54859878               64.21473873                0.88132572                0.06100168                0.04794779                0.21830406               -0.00493974               -0.01564608                1.06444929
              11.83087122               11.13159739               63.80201857                0.52781378                0.12422335                0.10025810               -0.68265979               -0.14845693               -0.63556105               -0.75105502
              12.83274567               10.71045907               63.37727963                0.14155822                1.92165032                0.16068139               -1.12973379               -2.38114678                5.35685700               -2.34673856
              13.86930422               10.25035649               63.08535107                0.00010000                4.65480756                2.73839101              -11.60970149               -8.72528493               21.54430285              -12.40206795
              14.92584182                9.73328416               63.02109508                0.00010000                6.01392824                0.71838685               -6.64712514              -12.06176650               32.28494664               -2.64243951
              15.98958279                9.15670965               62.92778186                0.00010000                7.02140851               -0.26897437               -8.55290683              -14.45842008               30.88766155                0.89109232
              17.06626999                8.53866177               62.81252185                0.00010000                7.71793513               -0.02802197              -10.55027051              -17.38214322               30.01252140                2.35626759
              18.14394149                7.88386794               62.66708752                0.00010000                7.51145097                1.01542432              -13.14416902              -20.67841276               27.38117148                2.77893930
              19.21649901                7.20063091               62.45628751                0.00010000                7.41083559                2.92875260              -16.10038034              -21.75019353               20.16158649                0.99920507
              20.29215820                6.52784238               62.12092812                0.07964224                8.76177361                4.41427590              -21.70344906              -14.11629596               10.53467981               -9.08118493
              21.39173448                5.95055098               61.69033895                0.68350908                9.95762775                3.07691342              -22.42459838               -4.97878836                1.51160010              -12.03716858
              11.24709759               12.54936063               64.09877469                0.82584950                0.12002919                0.09361696               -0.10130203                0.00921694               -0.09470524                0.94845406
              12.24829788               12.13298040               63.67607976                0.75586290                0.14391527                0.16683093               -0.78760439               -0.08117306               -0.53433502               -0.63292982
              13.24997589               11.71270940               63.24491529                0.40113093                0.09003908                0.22826651               -0.77655378               -0.54546940               -0.83168772               -1.33280243
              14.25009866               11.28441789               62.81637645                0.00010000                4.77587154                1.86454581               -2.51213732               -8.24902439               23.21139246               -7.46796501
              15.34549332               10.73977342               62.87580384                0.00010000               10.31174981               -0.78027512               -8.76790566              -10.51589611               40.96729764               -2.08330221
              16.45633366               10.15690162               62.82771848                0.00010000               10.05507297               -0.04906870              -10.04336083               -9.74109879               35.13281310                0.50986284
              17.54659478                9.54687822               62.73563982                0.00010000                8.41233871                1.34107203              -12.73495663              -10.84948928               33.67111700                1.52460411
              18.62458043                8.90617580               62.60656352                0.00010000                7.52506330                3.31310065              -16.62839352              -12.92188619               31.03726298                1.96186187
              19.69709605                8.24337528               62.40138995                0.00010000                8.66496999                5.75969341              -22.56612911              -14.24616129               20.67125346                0.39442549
              20.79787983                7.57983915               61.99990510                0.10528607               11.69031586                8.73038219              -36.10105630               -9.11406858                8.53794042               -8.83703290
              21.93090237                6.98795985               61.52273839                0.68248319               13.30225352                7.23224256              -36.28802849               -2.37253309               -2.74764097              -11.53454637
              11.66320599               13.55047112               63.98023397                0.90749259                0.26929891                0.11104904               -0.43147828                0.05712986                0.48162489                0.83366158
              12.66589898               13.13493401               63.55384535                1.00000000                0.35963967                0.19536100               -0.89186789               -0.01222546                0.45975894               -0.52449921
              13.67039879               12.71502440               63.12768078                0.78766980                0.56803686                0.23150011               -1.17885916               -0.32204082                0.12866129               -0.71246655
              14.67725972               12.28764741               62.69947781                0.36642011                8.63206925                0.32295127               -1.75031481               -7.15118146               22.96367904               -0.37063578
              15.84304017               11.71767865               62.75184954                0.36070215               15.51981412               -2.20947623               -9.19177985               -6.84127145               42.72795349               -2.05735262
              16.98765600               11.15572828               62.73182168                0.36489014               12.84829224               -0.11733376              -11.57622319               -4.47753746               38.42791988               -0.17992482
              18.10000602               10.56548321               62.65769725                0.37910868               10.06753529                1.86049876              -14.86728942               -4.93879287               37.29775795                0.34109837
              19.18900671                9.95012995               62.54977476                0.40361318                7.89532057                4.39541511              -19.84564349               -6.04029394               35.86583399                0.26007333
              20.25791243                9.31582478               62.36644147                0.44656551                8.81427779                7.24494957              -27.60013339               -6.30235830               25.55468391               -1.34172991
              21.36529226                8.70245002               61.96191444                0.56547324               13.50649991               12.26108727              -49.31449697               -4.29020391                9.46139144              -11.50820710
              22.52804243                8.09519583               61.47362663                0.84320610               16.27501624               10.72359843              -49.96192068               -1.01141322               -2.79823302              -14.35990399
               7.83060982                3.69677702               66.16391171                1.00000000               -0.50366061               -0.62835099                2.19777527               -0.20642991               -0.50257114                0.61423659
               8.82557322                3.26166134               65.79059717                1.00000000               -0.35350877               -0.30583861                1.14309707               -0.16261162               -0.61759426                0.08567049
               9.82353965                2.82592542               65.41433813                1.00000000               -0.05659309                0.00657170                0.10228075               -0.15902197               -0.61065771               -0.08966551
              10.82444136                2.38902629               65.04099454                0.59632277                0.16327884                0.35646437               -0.96223936               -0.26082989               -0.30667285               -0.52457424
              11.82680522                1.94911265               64.67111701                0.49082630                0.40050214                0.76418946               -2.15366397               -0.30257359                0.11804525               -0.22257037
              12.83245140                1.50627868               64.30674002                0.31513188                0.55448691                1.13161296               -3.37373212               -0.55658119                0.72581868               -0.59062942
              13.83789496                1.05557744               63.95034155                0.00010000              -13.02849031                1.58972015               -4.44323554              -23.29206780               14.95170684               -1.19310053
              14.57188159                0.14584801               63.87455711                0.00010000              -16.56277018                5.41701124               -5.29209173              -22.14042820               22.51499117                4.56220533
              15.50663956               -0.76565016               63.62880118                0.00010000                4.53510452                3.35287069               -4.91584496              -17.64790092                6.21599954               18.60859563
              16.66258368               -1.69421008               63.21022533                1.00000000                8.16352815                0.77155575               -2.31157773              -20.09278039               -1.01738889                0.18173999
              17.66991012               -2.22495582               62.81074726                1.00000000                0.73264399                0.94835468               -2.87609616                0.02396955               -0.18593758               -0.04088106
               8.26366121                4.69049351               66.04448786                1.00000000               -0.42883083               -0.58033028                1.95695720               -0.04486885                0.00385882                0.86377197
               9.25937290                4.25860295               65.67098463                1.00000000               -0.26971311               -0.27275999                0.90111927               -0.00644087                0.05897557                0.13022834
              10.25826695                3.82599113               65.29804182                1.00000000                0.04332677                0.03692671               -0.14191083                0.00616961                0.10120026               -0.27388236
              11.26023944                3.39259093               64.92532880                0.52717959                0.34431717                0.38598011               -1.20448861               -0.06166179                0.62042037               -0.56757320
              12.26515329                2.95675454               64.56321354                0.50098294                0.67068747                0.75048357               -2.44981327               -0.08347600                1.04222786               -0.29548694
              13.27365319                2.51759481               64.19982347                0.34462509                1.00181622                1.12044986               -3.68135516               -0.30807455                1.23215285               -0.61956590
              14.28518962                2.07147464               63.84315113                0.00010000               -0.62810381                1.39527842               -4.84633355              -21.34947596               17.34563064               -0.94152628
              15.26109111                1.20001813               63.80469728                0.00010000               -1.75000114                0.98777713               -5.63600475              -29.64365363               30.43378575                9.19162602
              16.25018960                0.26787854               63.68941281                0.00010000               -3.48912035                3.44673653               -5.33214621              -30.14486106                4.08211202               21.91140683
              17.19130871               -0.68649452               63.09011157                0.13788752               -2.46470183               12.40355794               -3.08552504              -20.51035428               -9.82183765               61.11546980
              18.20089556               -1.21547227               62.69057595                1.00000000                0.95868527               13.14936186               -3.64841563                0.64109064                0.02931399               61.39142982
               8.69349358                5.68517042               65.92916505                1.00000000               -0.35467959               -0.47156951                1.70372044               -0.05009072                0.18422656                1.03262845
               9.68994678                5.25620614               65.55192895                1.00000000               -0.19092605               -0.20875224                0.64971548               -0.01334687                0.38464446                0.04517714
              10.68967505                4.82666395               65.17825885                0.49740625                0.12489645                0.11358182               -0.39866999                0.00792634                0.81111275               -0.69624607
              11.69244471                4.39674589               64.80960303                0.00010000                0.52283871                0.50589378               -1.40463859               -0.16270079                1.75764251               -0.73472242
              12.70013183                3.96412232               64.45537431                0.00010000                0.95625489               -1.15963277               -2.70722657               -0.76988387                2.08593463                3.86775832
              13.71156981                3.52868768               64.09443679                0.00010000                1.41751493               -2.72677075               -3.89996909               -0.66990918                2.11473364                8.11767721
              14.72848213                3.08348301               63.74260287                0.00010000                3.55174070               -8.69465719               -5.01831213              -21.61385181               24.88880019               16.19265614
              15.78260462                2.16560356               63.83902592                0.00010000                3.08864280               -2.84863298               -6.00673795              -38.25826676               41.50707721               14.89736153
              16.79025498                1.30328457               63.80869815                0.02547629               -2.34386043                3.88229419               -5.60934062              -29.44209124               57.05443010               24.11075635
              17.73572741                0.55386108               64.19089919                0.44276937               -2.47837726               12.27611456               -2.43367696              -10.20423037               38.88197357               64.52667435
              18.74068744                0.03803142               63.80171270                0.89713067                0.49600266               12.90407536               -2.02060251                1.18119807                0.33775144               65.36031945
               9.12058796                6.68106212               65.81225636                1.00000000               -0.29755297               -0.34985665                1.44988632               -0.03389086                0.30688253                0.87942488
              10.11761243                6.25442790               65.43035706                0.54141032               -0.13511219               -0.16317044                0.40682135                0.05714029                0.59144586               -0.39072510
              11.11788572                5.82826277               65.05381272                0.00010000                0.09573099                0.13720664               -0.69134060                0.18093386                1.56086879               -1.29543822
              12.11952705                5.40270881               64.69145942                0.00010000               -0.00359442               -0.76500198               -1.61183260               -2.03053797                7.33998276                2.78730182
              13.11781383                4.93356189               64.43219178                0.00010000                1.06836305               -2.90857753               -2.91220209               -3.69242732               12.10127195                7.50181411
              14.14089432                4.46305939               64.16441873                0.00010000                4.90914359               -7.02065251               -4.08946350               -6.93061313               15.86680327               14.43922602
              15.21599670                3.89758150               63.98039031                0.00010000                6.76149537              -14.42514138               -5.11100207              -18.64672339               24.23560327               23.41774343
              16.27612422                3.14304547               63.88075498                0.00010000                2.85467706               -3.00830969               -5.67522338              -29.86865657               35.15258115               14.08306064
              17.27309024                2.34552443               63.91217798                0.00010000               -1.18234877                2.47807622               -4.87233702              -30.26753197               44.95632167               15.32252356
              18.25247725                1.55902777               64.00128451                0.55861041               -0.84556997                0.35294273               -1.53220932              -13.48891847               24.21490150               -0.39671408
              19.25617885                1.04260924               63.61285004                1.00000000                0.37015984                0.31626136               -1.20780360               -0.06236570               -0.14203677                0.08488800
               9.54608420                7.67817329               65.69300563                0.90760703               -0.21952582               -0.21889027                1.20174815                0.00805567                0.07525029                0.77876037
              10.54388894                7.25294273               65.30244654                0.34881274               -0.05356854               -0.14790931                0.17787272                0.16609005                0.61817733               -0.66391262
              11.54501283                6.82940808               64.92250872                0.00010000                0.13229456               -0.08474430               -0.92635864               -0.83079969                6.34344716               -2.15413389
              12.54653483                6.38144585               64.64651808                0.00010000                1.04599355               -1.76946043               -2.08281706               -2.89996608               12.63262490                4.13626387
              13.56593270                5.90595077               64.39324958                0.00010000                3.12015507               -2.97217083               -3.31366300               -4.81434173               15.60224115                5.85665031
              14.60893793                5.38827463               64.17873177                0.00010000                5.48144454               -6.44683318               -4.51047270               -9.29723371               19.57706991                9.31482243
              15.67556159                4.79498018               64.00637902                0.00010000                6.41753155               -8.25238415               -5.40952531              -18.23449864               24.51371606               10.42539311
              16.73728856                4.10543736               63.89216225                0.00010000                4.66802252               -3.90633108               -5.56676806              -25.66033410               29.97544218                9.45191998
              17.76892204                3.35284609               63.83013907                0.00010000                1.57878357               -0.28292327               -4.28919528              -27.91588507               34.23309164                4.10063041
              18.76886423                2.56091994               63.80014091                0.39785727                0.16775785                0.04436514               -1.20280087              -13.86087762               17.93852655               -1.79741987
              19.77227720                2.04435665               63.41430944                1.00000000                0.34129618                0.06345706               -1.08578973               -0.04815982               -0.06993179               -1.11409165
               9.97121019                8.67668432               65.57327096                0.88223626               -0.15107578               -0.10870804                0.95186509                0.00178792                0.02873738                0.82872260
              10.96969944                8.25146972               65.17544626                0.32934228                0.07782029               -0.11713556               -0.02312245                0.08557134                0.25509838               -0.58784370
              11.97276660                7.82656788               64.78205118                0.00010000                0.76428046               -0.26934992               -1.12862693               -1.52137681                8.53684530               -2.57049688
              12.98498505                7.36731960               64.55071356                0.00010000                2.09658115               -1.23128279               -2.49894368               -3.93569144               17.09344903                0.84523090
              14.01469822                6.87411847               64.33079077                0.00010000                4.04675907               -2.66011476               -3.90155344               -7.02194385               18.75138204                3.50958573
              15.06592023                6.33412273               64.13505932                0.00010000                5.97228864               -4.47914286               -5.18262355              -11.78922692               21.33280085                5.29646563
              16.13414400                5.73253382               63.96845021                0.00010000                6.95657030               -5.23761457               -6.06717854              -17.83545291               24.04091231                6.13070953
              17.20505163                5.06491884               63.82798498                0.00010000                6.25729869               -3.78943317               -6.10024340              -23.02804513               25.98947132                4.89715272
              18.25928997                4.33986596               63.70361177                0.00010000                3.93487536               -1.54181270               -4.51798870              -26.43390665               26.79609816                1.22194632
              19.28374914                3.55991507               63.58780597                0.26672705                1.45261297               -0.25526447               -1.10405335              -13.53631235               13.51846095               -3.36463136
              20.28834223                3.04387838               63.20577206                0.88755901                0.45930887               -0.24012976               -1.18941117               -0.26204018                0.02171645               -2.61875757
              10.39654916                9.67599912               65.45422468                0.88081954               -0.08323559               -0.04096128                0.68387974               -0.00009473                0.01423590                0.90034483
              11.39571680                9.25060002               65.04909611                0.36399787                0.10931255               -0.04422055               -0.21321609                0.00800446               -0.04531294               -0.54291552
              12.39873541                8.82402109               64.64279583                0.00010000                1.22768065               -0.12691563               -1.14326880               -2.11822628                9.64148311               -2.32790046
              13.42027041                8.35682020               64.43305616                0.00010000                2.99776417               -0.47270042               -2.96139692               -5.10393089               19.83034195               -1.31615272
              14.45869069                7.85274848               64.23483721                0.00010000                4.72338171               -1.31481563               -4.73524514               -8.84909924               21.24621141                0.55429620
              15.51473805                7.29869177               64.05643556                0.00010000                6.46828631               -2.73342687               -6.11561987              -13.47310187               23.08105438                2.98085916
              16.58805642                6.69022789               63.89413265                0.00010000                7.73287344               -3.44405936               -7.17568061              -18.19985794               24.28987770                4.02011679
              17.66939552                6.02964870               63.73594312                0.00010000                7.85956297               -3.02686169               -7.46636209              -22.17075965               23.98366300                3.58375984
              18.74524768                5.32200984               63.56463231                0.00010000                6.23650279               -1.55361443               -6.32306013              -25.61624312               21.40583684                1.07390950
              19.79412557                4.55581465               63.36150302                0.20721454                2.69310552               -0.02633319               -1.53910848              -13.51433874               10.29039317               -5.97287355
              20.79910979                4.03955405               62.97992657                0.81781939                0.49842146               -0.38588401               -1.42121813               -0.87551909                1.20411534               -4.87624598
              10.82200652               10.67586509               65.33530356                0.88156530               -0.01689529                0.00914041                0.40247657                0.01241899                0.01702190                0.92223240
              11.82183756               10.25058531               64.92283429                0.44466435                0.10876876                0.04010754               -0.37880138                0.01260706               -0.25547624               -0.53790345
              12.82418189                9.82402957               64.50506573                0.06803869                1.61707368                0.08642129               -0.99272997               -2.09465535                9.30099272               -2.02455014
              13.85417904                9.35786559               64.28502031                0.00010000                3.58313865                1.49194359               -4.65457598               -6.79853803               20.69054802               -9.52602752
              14.89584467                8.84782216               64.10132564                0.00010000                5.23998669               -0.01376850               -5.75881034              -10.47222088               24.02233307               -1.51518533
              15.95897877                8.27945419               63.95534828                0.00010000                7.16726213               -1.32011096               -7.26161764              -14.57698650               25.97022706                1.47312445
              17.03918991                7.66365263               63.80306152                0.00010000                8.54378617               -1.95075806               -8.72022152              -18.14336474               25.65749683                3.04881010
              18.12985450                7.00438161               63.63631304                0.00010000                9.08046255               -1.82059397               -9.61550633              -21.25942689               23.99848677                3.24520304
              19.22079916                6.30879367               63.43437636                0.00010000                8.30318285               -0.82179199               -9.26505349              -24.33207380               18.52012636                1.53075405
              20.29591815                5.55938841               63.14238594                0.20165652                4.12769396                0.71468310               -5.49696333              -12.96977827                8.97656462               -8.18992017
              21.30335304                5.03616070               62.74825984                0.80449598                0.74348862               -0.15487048               -4.46259319               -1.37724914                1.59619592               -7.14253142
              11.24735711               11.67618193               65.21634446                0.88629158                0.04473556                0.04583763                0.11612969                0.03642435               -0.01837129                0.89629965
              12.24780446               11.25140217               64.79621164                0.61426322                0.11024535                0.11085504               -0.49840677                0.05763359               -0.37009649               -0.51022466
              13.24956201               10.82574951               64.36923734                0.22126047                0.63513007                0.17373873               -0.68253442               -0.69561940                1.34209619               -1.55135966
              14.26050706               10.38665907               63.98350118                0.00010000                3.90478287                2.08778012               -6.44232269               -7.56287684               19.71506324              -10.62704969
              15.32765767                9.85247310               63.95511955                0.00010000                7.34303908                0.32114583               -6.50908843              -12.22201249               33.55105716               -2.98846379
              16.40736785                9.27228955               63.84114632                0.00010000                8.63020165               -0.66084947               -8.56446465              -13.84481825               29.35891792                0.55315220
              17.50026171                8.65121273               63.70555472                0.00010000                9.58490450               -0.64264117              -10.62952419              -16.07076067               27.92299633                2.35208367
              18.59906594                7.99323682               63.53767165                0.00010000               10.16688478               -0.17270999              -12.41155700              -18.52322827               24.98642745                2.77201769
              19.70359940                7.30557400               63.31210884                0.00010000               10.41485236                0.28775695              -13.28465468              -21.49237219               16.22560882                0.82457992
              20.80736298                6.57010831               62.93092858                0.21787989                5.72104152                1.34793670              -10.82972142              -11.43252292                6.84031283               -9.32862248
              21.81802023                6.03645664               62.52384561                0.81202182                1.06572479                0.17417759               -8.32046429               -1.03367980                0.56795454               -7.31992068
              11.67229454               12.67678185               65.09706015                0.82706628                0.11281209                0.08160760               -0.19781966                0.04292173               -0.03989331                0.73142282
              12.67342266               12.25280241               64.66993497                0.85293851                0.13590326                0.14672176               -0.51857748                0.05958760               -0.21022054               -0.33012278
              13.67501260               11.82750435               64.23953292                0.49672040                0.13876248                0.16628525               -0.47377090               -0.09690580               -0.38851061               -0.82074000
              14.67619791               11.39962119               63.80902810                0.00010000                4.53806662                0.70759463               -0.52829562               -6.46113762               20.69052698               -2.98631466
              15.76577393               10.85424508               63.79845644                0.00010000               10.35724365               -1.40657320               -6.92997190               -9.45088093               38.13990300               -2.39163227
              16.88334278               10.26623720               63.72487890                0.00010000               11.55267459               -0.77002866              -10.01566284               -9.33080867               33.21622466                0.11906186
              17.99682743                9.65079981               63.60639405                0.00010000               11.08429416                0.29624491              -12.77565865              -10.07109122               30.39268143                1.43492913
              19.10502866                9.00092741               63.44275025                0.00010000               10.86264000                1.54604841              -15.62819677              -12.10681161               26.20982794                1.74828774
              20.21408023                8.31454881               63.19653837                0.00010000               11.56781934                2.61862230              -18.31634324              -15.28771044               12.63096494               -0.05506233
              21.33638505                7.58634714               62.71929367                0.22657186                6.79512754                2.30797900              -15.77239551               -9.96793826                3.13283888              -10.12411583
              22.34998278                7.03964425               62.31276197                0.80340166                1.35977265                0.79383047              -10.79888613               -0.18438638                0.05347075               -7.00931215
              12.09617442               13.67781408               64.97535901                0.90704348                0.20992973                0.10322390               -0.47478955                0.04023978                0.44670246                0.59373345
              13.09827371               13.25433660               64.54677117                1.00000000                0.23153470                0.15341936               -0.62612840                0.04816230                0.42339765               -0.19843344
              14.10080511               12.82907522               64.11882762                0.83188703                0.31349335                0.15708701               -0.75872571               -0.09703102                0.32093577               -0.41392895
              15.10454358               12.40081096               63.69086120                0.36620000                8.56094663                0.11897667               -0.69093372               -7.40211129               20.65549472               -0.30360422
              16.27202404               11.82434164               63.67404245                0.36067486               15.98266797               -2.99034350               -7.09670216               -6.57108824               39.14761070               -1.40496447
              17.42419694               11.25688898               63.61329855                0.36474319               14.60628151               -0.93482270              -11.43802332               -4.27478447               35.13525000               -0.38591539
              18.56414967               10.65713763               63.50590334                0.37812426               13.44918790                0.63378222              -15.02288037               -4.90433467               32.30334226                0.26490500
              19.69318070               10.02415779               63.34986469                0.40148642               12.41378922                2.32303767              -19.17373632               -6.14435573               28.39443010                0.05685540
              20.81242546                9.35794644               63.10846818                0.43311981                9.48640414                4.33976314              -23.80561183              -10.55997169               10.27028974               -1.27139546
              21.88290878                8.61626789               62.53928803                0.61451427                4.76564182                2.99207443              -24.60961258              -10.62828649               -3.37744310              -14.46425612
              22.90773830                8.05233325               62.13172256                0.89695445                2.48295130                1.26890022              -18.98641126               -0.61791197               -3.29541762              -10.80422969
               8.20429199                3.82346587               67.18513982                1.00000000               -0.47081571               -0.58292938                2.04437352               -0.18983973               -0.48011194                0.59630469
               9.19958383                3.38331751               66.80171030                1.00000000               -0.33323089               -0.28885631                1.07892405               -0.14972631               -0.58708008                0.08061775
              10.19762737                2.94257833               66.41547756                1.00000000               -0.06114493               -0.00365030                0.12748024               -0.14619957               -0.58585257               -0.08385045
              11.19836093                2.50076220               66.03193169                0.59611763                0.14146881                0.31510882               -0.84594431               -0.23913600               -0.35409168               -0.50348461
              12.20045675                2.05616574               65.65069944                0.48345560                0.35291208                0.68552831               -1.92400477               -0.28506762               -0.01089603               -0.24359725
              13.20541917                1.60875410               65.27461138                0.29504279                0.41071635                1.02136462               -3.03953168               -0.61110810                0.64551705               -0.60120086
              14.20867107                1.15230411               64.90790960                0.00010000              -12.26329892                1.51349444               -4.02604637              -22.16388785               14.80134784               -1.30651689
              14.96015319                0.26012706               64.81974291                0.00010000              -15.28978398                4.99442466               -5.47652931              -21.34931178               22.48831612                3.84553235
              15.90287539               -0.64170278               64.57797576                0.00010000                5.18442502                3.75461551               -5.10344352              -17.04944154                8.46582817               17.58109099
              17.06384170               -1.56944227               64.18818952                1.00000000                8.40748872                0.79043984               -2.14736133              -19.97960381                0.68260196                0.10536270
              18.07102517               -2.10226627               63.78317947                1.00000000                0.71834721                0.97508117               -2.70556203                0.04761212               -0.11017118               -0.09025468
               8.64254195                4.81763657               67.06338092                1.00000000               -0.40116082               -0.53628732                1.81878053               -0.04204699                0.01343756                0.84026722
               9.63853034                4.38042895               66.67975421                1.00000000               -0.25494571               -0.25777656                0.85276445               -0.00652559                0.07546780                0.12088644
              10.63744303                3.94254182               66.29680615                1.00000000                0.03227632                0.02423136               -0.10255062                0.00487616                0.11328714               -0.27386450
              11.63917586                3.50391328               65.91391307                0.54390410                0.30835427                0.34253434               -1.07368063               -0.05719838                0.53481145               -0.52971035
              12.64361012                3.06302103               65.53990414                0.51149968                0.60315232                0.67355669               -2.20414640               -0.08023108                0.87057210               -0.30065683
              13.65123891                2.61896775               65.16473968                0.34364237                0.88677988                1.00991341               -3.32311904               -0.33728443                1.08355724               -0.59698749
              14.66134571                2.16743905               64.79679654                0.00010000               -0.37876941                1.30104983               -4.40544581              -20.37419313               17.20237151               -0.92882016
              15.64366352                1.31007131               64.74702379                0.00010000               -0.70900345                0.99434436               -5.78690271              -28.43064296               30.14672255                8.67878859
              16.64716565                0.39584337               64.63321857                0.00010000               -2.46680601                3.89917114               -6.48756033              -29.57349210                4.79825656               20.51471074
              17.59432740               -0.56153788               64.06020895                0.14850765               -2.14201785               15.52721097               -3.07054585              -21.28022093               -8.33637280               61.59389936
              18.60432529               -1.09251546               63.65515023                1.00000000                0.99978864               16.50493156               -3.62791062               -0.09107652                0.11654380               62.44317415
               9.07786630                5.81274012               66.94558635                1.00000000               -0.33182292               -0.42997434                1.57873217               -0.04553752                0.18653912                1.00014364
              10.07454807                5.37816198               66.55826209                1.00000000               -0.18128704               -0.19866483                0.61764989               -0.01064426                0.39006392                0.03600147
              11.07424056                4.94306295               66.17454296                0.43673171                0.10948471                0.09372058               -0.34073230                0.00993679                0.83515041               -0.71778603
              12.07673776                4.50761288               65.79620823                0.00010000                0.47785520                0.47213031               -1.26679085               -0.18421875                1.66035329               -0.67751156
              13.08379766                4.06963688               65.42956990                0.00010000                0.87588485               -1.08213647               -2.44448611               -0.77388600                1.89412590                3.84274087
              14.09425546                3.62895237               65.05722476                0.00010000                1.31429948               -2.57321664               -3.53152179               -0.69170148                1.99292954                8.08704255
              15.11008365                3.17832510               64.69459725                0.00010000                3.44402779               -8.18124669               -4.56853374              -20.44196482               24.56579228               16.19867023
              16.16313602                2.28001395               64.77608742                0.00010000                3.64655423               -2.32131203               -6.21799692              -36.24257288               40.77439115               15.33219015
              17.18301473                1.43628064               64.74731089                0.00010000               -1.82699526                4.95432418               -7.98492916              -26.28925017               56.60092682               24.68507443
              18.12659611                0.74110195               65.16188208                0.32076347               -2.59279624               15.72469232               -5.94898798               -8.03621654               40.74548526               62.65242732
              19.13115881                0.22783236               64.77756642                0.77514116                0.45627002               16.58520426               -4.79590821                0.56920281               -0.00127246               63.95428703
               9.51078748                6.80903709               66.82619970                1.00000000               -0.27928572               -0.31152125                1.33808031               -0.02660804                0.30708035                0.84219247
              10.50799462                6.37645565               66.43434982                0.53636419               -0.12983060               -0.15913399                0.39235488                0.06292067                0.56577027               -0.38465878
              11.50819086                5.94441624               66.04729261                0.00010000                0.04614738                0.09984460               -0.60661193                0.20699568                1.59264400               -1.30251234
              12.50891757                5.51335589               65.67614719                0.00010000               -0.06989773               -0.63720109               -1.40076342               -1.89415860                7.22563222                2.65671699
              13.50679291                5.04137830               65.40318405                0.00010000                0.98995436               -2.60543149               -2.79757199               -3.51916714               11.57248604                7.40444823
              14.52871665                4.56750342               65.12328041                0.00010000                4.73259649               -6.46745937               -4.10597961               -6.58031086               15.27898506               14.35287757
              15.60144484                4.00381412               64.92825641                0.00010000                6.60699374              -13.38000648               -5.34384681              -17.46117766               23.55488165               23.65197507
              16.66085653                3.26364507               64.82207454                0.00010000                2.94239030               -2.26574662               -6.16116249              -27.34715005               35.02793271               15.41857851
              17.66029265                2.49492985               64.86149857                0.00010000               -0.94025881                3.60528060               -6.00353561              -26.86493141               47.29697785               17.08714558
              18.64205135                1.75295597               64.99365175                0.62314315               -0.90220626                0.70222480               -0.51383527              -11.37047010               26.13590982                1.24242736
              19.64224852                1.23918862               64.60764617                1.00000000                0.01971677                0.67771526               -0.33014404               -0.10240759               -0.02494073                1.46028088
               9.94249701                7.80650970               66.70451852                0.90486208               -0.20696734               -0.18501586                1.10165969                0.01672999                0.07162427                0.72981539
              10.94042733                7.37497930               66.30429215                0.36178855               -0.05083874               -0.14542818                0.18907922                0.16436200                0.57212873               -0.62931763
              11.94148023                6.94505985               65.91380759                0.00010000                0.07325986               -0.09410414               -0.80231882               -0.65253788                6.15859882               -2.06077006
              12.94189253                6.49486886               65.62561153                0.00010000                0.88932809               -1.43329476               -2.03273775               -2.54688642               12.17361344                3.91733087
              13.95926679                6.01752825               65.35954911                0.00010000                2.91604458               -2.49506214               -3.35782607               -4.45968892               14.93679767                5.66882937
              15.00021342                5.49960318               65.13246350                0.00010000                5.27258260               -5.74135459               -4.70118604               -8.68165217               18.80139823                9.25201475
              16.06471845                4.91072497               64.95072450                0.00010000                6.24319275               -7.35811458               -5.75714338              -16.90327744               24.01888025               10.79481362
              17.12507728                4.23469902               64.83529088                0.00010000                4.58433793               -3.09890064               -6.03892753              -23.31873992               30.58934856               10.57669854
              18.15640520                3.50838625               64.78859229                0.00010000                1.49253315                0.20129222               -4.37543389              -24.60201829               36.49193613                6.02633347
              19.15492794                2.75514644               64.79199933                0.47342638                0.01200751                0.16264814               -0.70801976              -12.05696628               19.46125157               -0.83565871
              20.15664535                2.24138666               64.40715064                1.00000000                0.17174142                0.18551350               -0.61523639                0.01139718               -0.08471353               -0.37568245
              10.37418287                8.80533677               66.58229142                0.88327541               -0.14511576               -0.08319331                0.85770750                0.01005999                0.02813166                0.74741161
              11.37273171                8.37354709               66.17540640                0.35233897                0.05338396               -0.10726920                0.00960057                0.11107424                0.21104449               -0.52200006
              12.37525055                7.94253415               65.77202870                0.00010000                0.63898645               -0.18795910               -0.89117936               -1.12886715                8.17195919               -2.26784162
              13.38551144                7.48469000               65.52548741                0.00010000                1.88071321               -0.75023424               -2.49468369               -3.32733202               16.34169319                0.75304270
              14.41286481                6.99147705               65.29090867                0.00010000                3.81877228               -2.05416216               -4.00721448               -6.47733150               17.85401123                3.21887864
              15.46188688                6.45267632               65.08187736                0.00010000                5.77093237               -3.81372431               -5.38649532              -10.90692379               20.41759755                5.17067067
              16.52828346                5.85665183               64.90645423                0.00010000                6.74667848               -4.49510017               -6.36619245              -16.25867265               23.53649705                6.31034797
              17.59682045                5.20166705               64.76701605                0.00010000                5.97606989               -3.11280482               -6.30438320              -20.56916310               26.71267999                5.54763714
              18.64780486                4.49895570               64.66131467                0.00010000                3.55455811               -1.25329901               -4.37587190              -22.98200605               29.38375690                2.58462207
              19.66791162                3.75620893               64.58046718                0.36003788                1.10955832                0.00866964               -0.64445120              -11.52984070               15.21854477               -1.70902482
              20.66999602                3.24289889               64.19865998                0.98024506                0.20844061               -0.00294492               -0.57965621               -0.04712071               -0.06219447               -1.22300136
              10.80627757                9.80484583               66.46055785                0.88522581               -0.08261339               -0.03051149                0.59663654                0.01329473                0.01449107                0.77720375
              11.80545143                9.37283392               66.04730888                0.39508846                0.07412064               -0.02227220               -0.15655346                0.09893716               -0.02911091               -0.44513210
              12.80775998                8.94130066               65.63312701                0.01586554                1.04757773                0.00145555               -0.85924716               -1.40142627                9.12470532               -1.86629284
              13.82640299                8.47986418               65.40407540                0.00010000                2.69869270                0.19972528               -2.89202197               -4.26933044               18.63188999               -2.04996778
              14.86173383                7.97644500               65.18663896                0.00010000                4.52485923               -0.83287126               -4.73360048               -8.30998934               19.98862903                0.27768342
              15.91690017                7.42332870               64.99433879                0.00010000                6.44102131               -2.28217463               -6.21455831              -12.44802896               21.94229455                2.71474889
              16.99055426                6.82082297               64.82153278                0.00010000                7.72449835               -2.98295135               -7.32038233              -16.27940617               23.36865883                3.94410783
              18.07139014                6.17244292               64.66227343                0.00010000                7.58344715               -2.63121061               -7.37344269              -19.27752169               24.08645269                3.69566327
              19.14222320                5.48332027               64.50865550                0.00010000                5.44988955               -1.55084622               -5.36493339              -21.22619734               23.90677107                1.44225530
              20.18038793                4.75531983               64.35596486                0.32514337                2.00499082                0.10603679               -0.51749349              -10.70652442               11.74713399               -2.01597329
              21.18232302                4.24132776               63.97599618                0.93275140                0.19350890               -0.16234916               -0.31330770               -0.09543567                0.10343766               -1.78535907
              11.23847259               10.80472654               66.33883738                0.88772135               -0.02169697               -0.00388221                0.32926493                0.03160303                0.01191382                0.75974062
              12.23825562               10.37310164               65.91958425                0.48018455                0.08595865                0.07291514               -0.29596345                0.14808516               -0.15755692               -0.39034243
              13.24019176                9.94256326               65.49695791                0.09708356                1.33624363                0.18320106               -0.74270967               -0.99395385                7.70259366               -1.49049382
              14.26498049                9.48868450               65.23548047                0.00010000                3.15043713                1.69717622               -3.96421846               -5.82116770               18.65502417               -9.23883335
              15.30320050                8.97481963               65.04687303                0.00010000                5.17839235               -0.00304622               -5.19652281              -10.20838416               23.20702247               -2.06689163
              16.36854834                8.40703283               64.88216395                0.00010000                7.51903037               -1.25433072               -7.19369657              -13.42005126               24.33814327                1.13160871
              17.45358111                7.79699280               64.71565111                0.00010000                9.01121907               -1.92260263               -8.63762083              -16.01698309               24.02403858                2.77716620
              18.54877272                7.14904284               64.54292508                0.00010000                9.34114420               -1.97859196               -9.06279800              -18.16641250               22.70133375                3.07067625
              19.64040399                6.46793877               64.34950337                0.00010000                7.35004574               -1.41798885               -7.42546418              -19.25910656               19.76781160                1.25864314
              20.69577363                5.75832967               64.12775641                0.34989146                2.78337269                0.45211841               -0.98377160               -9.57235545                8.86440903               -1.74400719
              21.69607145                5.23965191               63.74696114                0.94749445                0.02978145               -0.08386644               -0.06657517               -0.12095150                0.51428706               -1.51188960
              11.67015942               11.80476819               66.21706132                0.89246225                0.04169938                0.01240025                0.06585510                0.05627803               -0.02585093                0.69647610
              12.67057641               11.37429222               65.79205043                0.64468563                0.10693136                0.13583843               -0.38563988                0.17807895               -0.19645401               -0.29386078
              13.67229805               10.94496469               65.36362894                0.24590085                0.35734286                0.20705273               -0.55247258                0.12181354                0.70223607               -1.03751801
              14.67772327               10.51380770               64.95650462                0.00010000                3.34598874                1.43235411               -1.58941138               -6.42877080               18.51061522               -8.94868425
              15.73921782                9.97638408               64.89091331                0.00010000                7.43013537               -0.09008776               -5.71150064              -11.31627655               31.53146763               -2.99373429
              16.82632598                9.39824208               64.75649257                0.00010000                9.44933830               -0.99511023               -8.21223520              -12.49204762               27.18422373                0.18594803
              17.92820459                8.78237092               64.59993137                0.00010000               10.53949682               -1.08823071              -10.24117513              -14.11875284               25.24825081                2.00604369
              19.03711591                8.13287108               64.41885638                0.00010000               10.97748293               -1.00471658              -11.22167822              -15.87752394               21.98187156                2.57561034
              20.14775425                7.45496049               64.19059441                0.00010000                9.00558865               -1.10120376              -10.02941715              -16.78704695               16.21903470                0.98445491
              21.21722769                6.76436220               63.90433369                0.39594251                3.47526316                0.53338626               -1.56454188               -8.33853403                6.09663990               -1.58990268
              22.21725951                6.23965044               63.52392967                0.98248739                0.00318221                0.01223742                0.06279281               -0.02299038                0.84987817               -0.92901708
              12.10055008               12.80497454               66.09481830                0.82993351                0.10706167                0.04899498               -0.20163609                0.04220116                0.01681815                0.54225044
              13.10162070               12.37581841               65.66570821                0.84819743                0.12812346                0.15003613               -0.41628984                0.10258411               -0.04735416               -0.12537617
              14.10311255               11.94670432               65.23543987                0.49057967                0.16824919                0.15958736               -0.42952334                0.09713010               -0.07230799               -0.49910400
              15.10498568               11.51733158               64.80581054                0.00010000                4.46640205                0.20507147               -0.26440380               -5.81274655               18.03636186               -1.66662514
              16.19244059               10.97301787               64.73720440                0.00010000               10.38674326               -1.89883643               -5.53698992               -8.29318701               33.72604109               -1.98147692
              17.31272055               10.38713063               64.62740522                0.00010000               12.20682320               -1.35357076               -9.28956792               -8.28077781               29.72530175               -0.14117751
              18.43657705                9.77522818               64.48012664                0.00010000               12.29560586               -0.53040989              -12.07293868               -8.84399920               26.35384676                1.15929070
              19.55863266                9.12894851               64.29399959                0.00010000               11.82974396                0.20835504              -13.78310213              -10.60494625               21.23312909                1.58935213
              20.67317193                8.44591470               64.03506308                0.00010000                9.28401739                0.57883800              -12.95008131              -11.69052368               12.29634478                0.63806226
              21.74431301                7.76899739               63.68445719                0.41002646                3.59316204                0.44069906               -1.97285413               -7.43783536                2.81686429               -1.84257169
              22.74503517                7.23989666               63.30676066                0.98053805                0.07221633                0.07698097               -0.29540088                0.09020112                0.79162537               -0.59934363
              12.52931571               13.80574809               65.97073818                0.90735841                0.15826157                0.07735405               -0.41977716                0.03104830                0.39103368                0.42193017
              13.53089832               13.37729294               65.54132278                1.00000000                0.17058858                0.14745293               -0.55169840                0.04817986                0.38921804               -0.01727488
              14.53272748               12.94815643               65.11250627                0.80875498                0.21282313                0.14521144               -0.62042236               -0.00769774                0.48337018               -0.22338779
              15.53515478               12.51790913               64.68565914                0.36596010                8.54137801                0.05775470               -0.44550473               -7.47054376               18.02623257               -0.18420069
              16.70355504               11.93840735               64.60991550                0.36075084               16.16726628               -3.46105228               -5.84603180               -6.22547843               33.77783303               -1.00915489
              17.85850011               11.37117067               64.50306121                0.36442507               15.29758404               -1.59599595              -10.43352615               -3.75427512               30.11122394               -0.41793446
              19.00950672               10.77176272               64.35723964                0.37718633               14.79151818               -0.34654645              -14.09457909               -4.41365783               26.29088585                0.23162294
              20.15433047               10.13703818               64.16630003                0.39931122               13.21940852                0.80896707              -16.85810373               -5.69149226               20.20573986                0.30827117
              21.27389489                9.46653725               63.89032923                0.42796346                6.00792738                2.06225541              -17.37507926               -8.12080438                7.40198485               -0.56265728
              22.27448902                8.77317618               63.46972219                0.69698255                0.16850575                0.41787890               -3.88743793               -8.24975894               -1.56171959               -3.01518308
              23.27726500                8.24119005               63.09389840                0.97727264                0.27759828                0.12933964               -2.11738425                0.02437008               -0.53002532               -1.01367338
               8.58786662                3.95222091               68.20479918                1.00000000               -0.43727450               -0.53685797                1.88551094               -0.17182761               -0.45795062                0.57660565
               9.58349388                3.50718586               67.81217565                1.00000000               -0.31327071               -0.27169780                1.01408536               -0.13516780               -0.55755779                0.07555134
              10.58160121                3.06159123               67.41688774                1.00000000               -0.06781209               -0.01427934                0.15604453               -0.13233807               -0.56125733               -0.07859041
              11.58213764                2.61499384               67.02407566                0.59747603                0.11532026                0.27263397               -0.72175169               -0.21799173               -0.38950556               -0.48197142
              12.58390761                2.16583131               66.63263691                0.47736320                0.30069751                0.60396334               -1.68306597               -0.26673760               -0.11803254               -0.26101866
              13.58815159                1.71399806               66.24594939                0.27577590                0.24413850                0.90436097               -2.68634217               -0.67987079                0.57443830               -0.60450993
              14.58879038                1.25167321               65.86982062                0.00010000              -11.82849204                1.45373778               -3.57312548              -21.47380173               14.38549619               -1.42099767
              15.35158174                0.36819692               65.76502652                0.00010000              -14.06404337                4.90524743               -5.32341190              -21.20717939               22.30545128                3.15608234
              16.30750952               -0.52451396               65.52673231                0.00010000                5.97251348                3.33515937               -4.86565566              -17.67092578               11.11421434               15.14490904
              17.47103201               -1.43614169               65.16727810                1.00000000                8.51086406                0.78325985               -2.00535462              -19.14766521                2.50734239                0.07426848
              18.47772680               -1.97070242               64.75663602                1.00000000                0.66947825                0.97066831               -2.56888084                0.10563491               -0.10785919               -0.09069819
               9.03118339                4.94685233               68.08086348                1.00000000               -0.37263494               -0.49331963                1.67615095               -0.03803121                0.02156813                0.81320550
              10.02745704                4.50446889               67.68803992                1.00000000               -0.24047742               -0.24276558                0.80456510               -0.00531630                0.08910120                0.11157698
              11.02637384                4.06144843               67.29599080                1.00000000                0.01903189                0.01152697               -0.05843274                0.00410028                0.12337487               -0.27194812
              12.02783768                3.61772018               66.90385518                0.56297137                0.26821429                0.29838492               -0.93421853               -0.05451447                0.46178740               -0.49413679
              13.03173812                3.17187095               66.51913061                0.52341860                0.52971264                0.59329579               -1.94456651               -0.07941504                0.72536655               -0.30091248
              14.03843193                2.72304167               66.13336109                0.34277419                0.76074073                0.89448644               -2.94649707               -0.37054460                0.95003628               -0.57204403
              15.04695294                2.26621059               65.75504221                0.00010000               -0.54141970                1.21616709               -3.93402730              -19.68236749               16.77008640               -0.92220695
              16.02760354                1.41724939               65.68895922                0.00010000               -0.69916899                1.44998451               -5.67426871              -28.17879461               29.08519731                8.26196197
              17.03296956                0.50883763               65.55966160                0.00010000               -1.24769701                4.66100079               -8.23647450              -30.82945656                5.45245793               17.19800992
              18.00264959               -0.42830909               65.02870065                0.13042801               -0.98128379               15.48042560               -3.24981485              -21.02419042               -5.97511914               59.15986178
              19.01334388               -0.96099574               64.61801774                1.00000000                1.06942891               16.76618205               -3.81334735               -1.69034053                0.11382789               61.22544672
               9.47187288                5.94235451               67.96073970                1.00000000               -0.30814345               -0.39392622                1.45156350               -0.04009913                0.18738746                0.96211588
              10.46879144                5.50233055               67.56428194                1.00000000               -0.17204789               -0.18821085                0.58732506               -0.00774260                0.39243611                0.02700043
              11.46843192                5.06182177               67.17144421                0.37546837                0.09166962                0.07497341               -0.27726198                0.00991915                0.85025402               -0.72957532
              12.47062484                4.62096154               66.78426722                0.00010000                0.42829492                0.43598361               -1.11675391               -0.19069790                1.57311625               -0.57343905
              13.47699782                4.17769723               66.40648459                0.00010000                0.78881082               -1.00996501               -2.16794546               -0.93407705                1.72850022                3.78211070
              14.48640105                3.73188779               66.02380636                0.00010000                1.19687491               -2.40817348               -3.14655048               -0.93654745                1.88046734                7.86682177
              15.50093532                3.27599655               65.65123219                0.00010000                2.94888766               -7.58584178               -4.09365062              -19.66719572               24.05224526               15.82107498
              16.54537880                2.39719661               65.71466598                0.00010000                1.77717739               -1.25179058               -6.69914395              -34.57266576               38.35771984               14.91416740
              17.53647886                1.56870606               65.64899957                0.00010000               -1.24986117                6.85741527               -8.06524244              -25.46233787               54.38995520               25.92338341
              18.52038158                0.87346683               66.07191943                0.07101422               -1.35927856               19.10340752              -31.90031915               -8.88432948               41.83010265               53.52666347
              19.50929329                0.36462122               65.70579454                0.55621167               -1.10882887               20.16131874              -29.44573799               -0.16719513                6.88693456               49.00702141
               9.91042933                6.93897380               67.83901797                1.00000000               -0.25943938               -0.28383201                1.22654863               -0.02208578                0.30444008                0.79727278
              10.90783493                6.50070467               67.43820416                0.53116354               -0.12440451               -0.15153800                0.37972193                0.06125537                0.53948814               -0.37543779
              11.90794124                6.06294790               67.04168048                0.00010000                0.01566627                0.08174096               -0.51346159                0.20843427                1.65464222               -1.28278914
              12.90814826                5.62643985               66.66344415                0.00010000               -0.29054532               -0.52546440               -0.81141816               -1.88177603                6.57029057                2.59550323
              13.90213033                5.15167164               66.37624034                0.00010000                0.66266994               -2.30472460               -2.61937303               -3.53713936               10.71388343                7.03049901
              14.92140166                4.67487820               66.08229913                0.00010000                4.30849409               -5.85849124               -4.02991893               -6.48942185               14.38191144               13.87972720
              15.98830021                4.11449375               65.87351337                0.00010000                6.10195287              -12.16589565               -5.54259585              -16.52440598               22.53528235               23.12603308
              17.04344071                3.39221358               65.75753173                0.00010000                2.95761865               -1.25833933               -6.93832277              -25.13394343               34.14985175               15.67294468
              18.04745258                2.64598594               65.79210727                0.00010000               -0.71964345                5.24253036               -8.67010601              -21.64405378               50.97024056               19.24273828
              19.02904785                1.95375906               65.99100781                0.57433249               -0.98806926                4.19622534               -0.34331848               -9.23029890               29.27684832                6.15669587
              20.02769120                1.44223063               65.60624716                1.00000000               -0.13566460                4.06039841               -0.19556421                0.39650758                0.16188503                5.51870025
              10.34796943                7.93667787               67.71503882                0.90402370               -0.19269771               -0.16902921                1.00606501                0.01786870                0.06750400                0.66942898
              11.34604245                7.49929979               67.30622813                0.36858833               -0.05520023               -0.13458426                0.19426260                0.15634120                0.53472266               -0.59131319
              12.34686542                7.06345659               66.90646235                0.00010000               -0.08884386               -0.05281355               -0.66863618               -0.53319980                5.91797003               -1.90563584
              13.34426557                6.61045225               66.60586332                0.00010000                0.54756281               -1.12616353               -1.81776999               -2.35315828               11.61494989                3.39593522
              14.35781668                6.13160274               66.32609306                0.00010000                2.47624681               -2.01327222               -3.24774561               -4.12380604               14.04918091                5.13167100
              15.39379051                5.61471797               66.08470805                0.00010000                4.76475717               -4.96086722               -4.74410003               -8.07995663               17.73058608                8.81707223
              16.45311182                5.03267864               65.89123615                0.00010000                5.87086197               -6.32806267               -6.12287003              -15.56265531               23.07506928               10.64713990
              17.51120775                4.37202982               65.77138370                0.00010000                4.44702422               -2.16622756               -7.00981052              -20.90589481               30.96453768               10.92746681
              18.54205231                3.67355666               65.74263040                0.00010000                1.41615809                1.27546254               -5.30817052              -21.42885500               39.00329782                7.72452758
              19.53953091                2.95739133               65.78598052                0.45942538               -0.08860019                0.40049930               -0.57644567              -10.30003009               21.34893092               -0.33081775
              20.54028030                2.44582918               65.40200472                1.00000000                0.07493926                0.41710917               -0.47242528               -0.00513763               -0.06926348                0.09994972
              10.78554286                8.93559322               67.59042511                0.88613775               -0.13598175               -0.08403144                0.77858990                0.01035146                0.02564766                0.65424383
              11.78418304                8.49801298               67.17563827                0.36211132                0.02909607               -0.08901347                0.02880250                0.14106977                0.20515800               -0.45929802
              12.78612478                8.06189163               66.76422760                0.00010000                0.43779501               -0.08452810               -0.71090390               -0.82494163                7.72085620               -1.97894626
              13.79293894                7.60391658               66.50081989                0.00010000                1.46318546               -0.23122347               -2.38900476               -2.76773706               15.38126411                0.38408566
              14.81538849                7.11140620               66.25064648                0.00010000                3.28938394               -1.46324777               -3.93119637               -5.89362556               16.79661150                2.66485844
              15.85872662                6.57566086               66.02732941                0.00010000                5.21733811               -3.10089052               -5.40165287               -9.92870479               19.25665335                4.69705147
              16.91973525                5.98793250               65.84112636                0.00010000                6.28590849               -3.63827362               -6.64829443              -14.61943529               22.66593276                6.03129830
              17.98444479                5.34888903               65.70189731                0.00010000                5.68893598               -2.21884441               -6.99931236              -18.18216020               27.05895744                5.72229934
              19.03351397                4.67149519               65.61609433                0.00010000                3.31649653               -0.54452097               -5.17276263              -19.97403072               31.95076473                3.15971947
              20.05077472                3.96176905               65.57491694                0.36780624                0.85993846                0.54073097               -0.60714286               -9.93628534               17.08306512               -1.00526320
              21.05071274                3.45057282               65.19417893                0.99077365               -0.00619804                0.48582625               -0.44955092               -0.07784279               -0.05398963               -0.46647304
              11.22333692                9.93499724               67.46615741                0.89082590               -0.07714913               -0.05183895                0.54198226                0.01263675                0.00948419                0.65133399
              12.22256543                9.49751952               67.04596504                0.40222662                0.05630347                0.00119616               -0.12780689                0.15758156                0.00883466               -0.36208709
              13.22446299                9.06176602               66.62561088                0.00010000                0.84154154                0.09130630               -0.70715697               -0.77394850                8.46636302               -1.54682050
              14.23939626                8.60582778               66.37521572                0.00010000                2.18684482                0.83715645               -2.79700991               -3.75013958               17.30354994               -2.36700057
              15.26819989                8.10233778               66.14016520                0.00010000                3.96469268               -0.45981154               -4.44287124               -7.76072424               18.74413055               -0.20144798
              16.31869012                7.55270016               65.93214439                0.00010000                5.96475295               -1.78641363               -6.08239144              -11.20938379               20.56277222                2.15861382
              17.38749495                6.95991317               65.74772500                0.00010000                7.26558678               -2.35675654               -7.35083573              -14.29364623               22.18298188                3.49990769
              18.46400185                6.32765293               65.58847426                0.00010000                7.10983621               -1.98384186               -7.64802467              -16.58313993               24.09101138                3.43745574
              19.52969167                5.66266624               65.45733364                0.00010000                4.88628627               -0.97337845               -5.60640275              -18.08184471               26.45203579                1.69870675
              20.56172758                4.96820595               65.35115315                0.35969912                1.57121190                0.71851953               -0.61618312               -9.10733489               13.75072539               -1.16492718
              21.56111591                4.45554571               64.97366042                0.97273278               -0.06116668                0.37082976               -0.30059011               -0.04019531               -0.00842574               -0.76845050
              11.66075104               10.93455644               67.34188886                0.89466743               -0.01851433               -0.04333546                0.30954960                0.02429405               -0.00065043                0.61531330
              12.66056589               10.49803691               66.91691502                0.47692074                0.07932582                0.09407364               -0.26697834                0.19518246               -0.08163171               -0.28146463
              13.66233755               10.06371776               66.49021154                0.08690534                0.83992510                0.23755821               -0.67028196               -0.13438190                6.93716049               -1.17033150
              14.67736440                9.62065971               66.20573594                0.00010000                2.54820379                1.57637642               -2.09958923               -4.87345257               17.28390985               -8.44108430
              15.71330163                9.10220997               65.99739518                0.00010000                4.97995826               -0.00353655               -4.62603630               -9.53139673               21.64376415               -2.33244623
              16.77696356                8.53993259               65.81147435                0.00010000                7.28039623               -1.09664573               -6.79198026              -11.90342258               22.44760261                0.56424606
              17.85890955                7.94079737               65.63030910                0.00010000                8.65326767               -1.65275467               -8.31326007              -13.76762161               22.24288712                2.25487977
              18.95002891                7.30921219               65.45505708                0.00010000                8.62072525               -1.69892072               -8.66493451              -15.23656373               22.02449006                2.66817830
              20.03132406                6.65202762               65.28586707                0.00010000                6.28598224               -1.14814307               -6.32876928              -16.01308191               21.85071031                1.55965250
              21.07574856                5.97613944               65.12271050                0.41677448                2.19526304                0.67017597               -0.50688244               -7.99026288               10.75392921               -0.70094105
              22.07522932                5.45798941               64.74692833                1.00000000               -0.05192390                0.12655342               -0.04228263               -0.07950650                0.09845745               -0.49993674
              12.09686187               11.93413053               67.21766156                0.89964286                0.04458958               -0.03032195                0.08923609                0.03204792               -0.02834048                0.55189606
              13.09730776               11.49940100               66.78849884                0.61057635                0.11453425                0.14928156               -0.37706092                0.18373796               -0.08203313               -0.16474602
              14.09915255               11.06651719               66.35818788                0.20530925                0.30636185                0.24635924               -0.60028769                0.45404353                1.06830063               -0.73305304
              15.10343500               10.63735531               65.95171295                0.00010000                2.95732631                0.82372312                0.45697208               -5.32269622               16.77908417               -7.73859510
              16.15829908               10.10226705               65.84088954                0.00010000                6.92996343               -0.32983097               -4.47479053              -10.05948091               28.25364509               -3.01990426
              17.24203427                9.53076724               65.67690162                0.00010000                9.22819174               -1.15437891               -7.53647046              -10.87229812               24.49277769               -0.23491458
              18.34286291                8.92685807               65.50073122                0.00010000               10.30030275               -1.20600108               -9.46598050              -11.93461422               22.63504590                1.56044244
              19.44804032                8.29367452               65.31323808                0.00010000                9.98199372               -1.19706967               -9.94457530              -13.12143966               20.52210648                2.32797089
              20.54250279                7.63970338               65.11152050                0.00010000                7.39601031               -1.22261921               -7.22398391              -13.69197959               17.99913388                1.73130751
              21.59596053                6.98160947               64.89963775                0.50282183                2.66615240                0.39838847               -0.37228056               -6.81752048                8.26075987               -0.31773854
              22.59582583                6.45807678               64.52510147                1.00000000               -0.01346943               -0.01503869                0.08589711               -0.05431786                0.13705818               -0.10149869
              12.53085107               12.93395000               67.09302743                0.83339464                0.10029263                0.01411962               -0.12484057                0.00545496                0.06764642                0.42521758
              13.53185400               12.50102254               66.66160918                0.74542671                0.13065186                0.16804842               -0.47693981                0.08385835                0.09894413               -0.02253485
              14.53346411               12.06864494               66.23094246                0.38617611                0.16533057                0.19787401               -0.54248941                0.15476199                0.31574323               -0.30012739
              15.53516061               11.63713417               65.80374003                0.00010000                4.26179835                0.00372222               -0.05167392               -5.44037956               15.82872500               -1.44995248
              16.61870008               11.09561335               65.68771664                0.00010000                9.98829824               -2.17653493               -4.34228990               -7.42048044               29.35225344               -2.07663296
              17.73492658               10.51684501               65.53908754                0.00010000               11.93049589               -1.67744692               -8.29827499               -7.09364974               25.85228486               -0.36717152
              18.85730999                9.91667735               65.36493527                0.00010000               11.99141171               -0.96569912              -10.78104920               -7.38542761               22.59291327                0.90233589
              19.97475481                9.28527080               65.16708821                0.00010000               10.61197595               -0.39760994              -11.56066570               -8.64682614               18.89160914                1.54966450
              21.06954951                8.62757524               64.93753675                0.00010000                7.31349722               -0.17711960               -8.46518431               -9.33116874               14.34727474                1.56920973
              22.12102475                7.98410721               64.67983658                0.55244336                2.58294174                0.19123843               -0.32484680               -5.88709536                5.90893873               -0.21930683
              23.12120835                7.45768864               64.30685395                1.00000000                0.01835948               -0.01462395                0.01493815                0.00611912                0.11940460                0.06083933
              12.96282589               13.93441293               66.96696346                0.90792990                0.14640994                0.04629280               -0.31572798                0.03238501                0.36648481                0.32137560
              13.96428999               13.50276196               66.53573721                0.94440612                0.16551350                0.17394259               -0.65029318                0.04668566                0.45682723                0.07556097
              14.96613616               13.07047467               66.10641917                0.72658024                0.16845068                0.18297266               -0.68785964                0.00059406                0.80446486               -0.09145179
              15.96765900               12.63742975               65.68195110                0.36572559                8.20212377                0.02955813               -0.21844902               -7.33707712               15.79123658               -0.14132901
              17.13017863               12.05873635               65.55712181                0.36074105               15.57191392               -3.68770001               -4.70692280               -5.86271704               28.65806157               -1.22566810
              18.27909728               11.49721831               65.40462802                0.36433819               14.82749696               -1.96267042               -9.15980458               -3.14254288               24.87527223               -0.36231919
              19.42672857               10.90754409               65.22401176                0.37631392               14.25543149               -0.91332558              -12.28991275               -3.63294176               20.92319833                0.30004774
              20.56420591               10.28572232               65.01270262                0.39731954               11.51572150                0.04515212              -13.67541768               -4.62404521               16.18663193                0.62503616
              21.65704300                9.63616099               64.76096659                0.42588903                4.19496564                0.85857536              -10.77808792               -6.26505535                9.88910860                0.62305627
              22.64810522                8.98543424               64.46153927                0.76831958               -0.41288219                0.13270311               -0.53428568               -6.21078803                3.67472781               -0.30890369
              23.64878536                8.45778430               64.08937488                1.00000000                0.06801369                0.00956607               -0.27959218               -0.00729329               -0.08038949                0.02624174
               8.98038003                4.08286939               69.22285004                1.00000000               -0.40359118               -0.49092216                1.72385853               -0.15290025               -0.43732100                0.55694701
               9.97634412                3.63310000               68.82199201                1.00000000               -0.29389049               -0.25458014                0.94941781               -0.11935867               -0.53047832                0.07082395
              10.97450222                3.18280038               68.41859845                1.00000000               -0.07612364               -0.02539902                0.18710003               -0.11750939               -0.53803104               -0.07384131
              11.97482164                2.73156371               68.01749665                0.60023484                0.08600724                0.22752757               -0.59239118               -0.19710387               -0.41348904               -0.46141103
              12.97622236                2.27795798               67.61703812                0.47284121                0.24512921                0.51971255               -1.43399438               -0.24724305               -0.20438112               -0.27527098
              13.97972423                1.82184050               67.22088453                0.25715245                0.05407485                0.78294004               -2.32118542               -0.76546901                0.52298490               -0.60115824
              14.97730386                1.35344098               66.83644709                0.00010000              -11.51868477                1.41423617               -3.09322240              -20.93831409               13.84423758               -1.54746289
              15.74935053                0.47538331               66.71327468                0.00010000              -12.71978789                5.02877781               -4.88920003              -20.76545441               22.70328887                3.18102205
              16.72290810               -0.40466319               66.48066265                0.00010000                6.73671508                2.21994983               -4.41217078              -18.95273885               13.46604902               11.45998089
              17.88408483               -1.29080201               66.14808243                1.00000000                8.36220204                0.78200394               -1.83040345              -17.87061899                4.14638864                0.05327106
              18.89015214               -1.82684367               65.73180185                1.00000000                0.60673093                0.96786234               -2.38946517                0.17738664               -0.09749074               -0.08900539
               9.42862041                5.07796016               69.09690394                1.00000000               -0.34353825               -0.45207196                1.53124686               -0.03312059                0.02797143                0.78566435
              10.42518503                4.63055420               68.69584551                1.00000000               -0.22625737               -0.22811235                0.75680212               -0.00328040                0.09972930                0.10341812
              11.42409527                4.18254639               68.29563749                1.00000000                0.00433877               -0.00093032               -0.01106120                0.00214685                0.13106417               -0.26858515
              12.42527181                3.73383899               67.89522870                0.58463153                0.22581367                0.24957110               -0.78726057               -0.05266129                0.40111254               -0.46148659
              13.42861154                3.28315510               67.50101281                0.53709477                0.45281140                0.51056890               -1.67534612               -0.07814652                0.60515166               -0.29880227
              14.43432804                2.82966990               67.10580974                0.34178043                0.62688856                0.77551326               -2.55830434               -0.40893932                0.83277613               -0.54590401
              15.44114931                2.36758334               66.71811600                0.00010000               -0.67899810                1.14172277               -3.44594243              -19.05168673               16.19190936               -0.92440021
              16.42074807                1.52567109               66.63353841                0.00010000               -1.23379691                1.71707374               -5.48074622              -28.34372666               27.32376241                7.27025860
              17.41647337                0.61753631               66.46848908                0.00010000               -0.21395938                6.34829157               -9.46081966              -30.90003843                8.13369451               17.28314856
              18.41646889               -0.28298197               65.99521266                0.08609048                0.57471505                7.00650328               -3.45360658              -20.61914996               -2.81476579               34.13110722
              19.42796767               -0.81716505               65.57888328                1.00000000                1.14987887                2.32935152               -4.01120096                2.13144853                0.10118749               38.04243908
               9.87452955                6.07382795               68.97461762                1.00000000               -0.28372719               -0.36383719                1.32410876               -0.03484587                0.18752086                0.92386368
              10.87169228                5.62853775               68.57000859                1.00000000               -0.16345949               -0.17767423                0.55829489               -0.00546656                0.39264960                0.01978183
              11.87126036                5.18278178               68.16899773                0.00010000                0.07337128                0.05979602               -0.21109279               -0.00170828                0.86125415               -0.73275395
              12.87315971                4.73655513               67.77387316                0.00010000                0.37840801                0.49154312               -0.96294745               -0.70603588                1.50124825               -0.09997959
              13.87882852                4.28816935               67.38621099                0.00010000                0.69787467               -1.03876474               -1.88096385               -1.28001587                1.58659855                3.65024290
              14.88711720                3.83735076               66.99429375                0.00010000                1.07202044               -2.27368138               -2.75059719               -1.35700505                1.77832941                7.51023657
              15.90026893                3.37627544               66.61272424                0.00010000                2.27029162               -7.06262610               -3.60890198              -19.59286984               22.70574479               15.11263853
              16.93252303                2.50972479               66.64210454                0.00010000                0.66457295               -0.26424218               -7.02523810              -32.47305986               37.82023134               13.80498845
              17.91356039                1.72230264               66.58600604                0.00010000               -1.30599198                8.43087427               -9.71799845              -31.53243607               33.57781251               23.74121435
              18.90640319                0.84932806               66.52387569                0.00010000                4.37934420               22.25053838              -45.92754367              -25.27898736               20.82675498               62.06803738
              20.00114728                0.21974336               66.18865166                0.27630302                9.47440823               23.52587502              -46.21294224              -13.60647835                8.98746557               61.81371989
              10.31850389                7.07068342               68.85073067                1.00000000               -0.23820179               -0.26684070                1.11722739               -0.02132527                0.30154451                0.75440829
              11.31612187                6.62700071               68.44194426                0.51989275               -0.12300862               -0.14094101                0.36776925                0.05324338                0.51787303               -0.36800446
              12.31604372                6.18374231               68.03702338                0.00010000               -0.51791808                0.08091182               -0.41628552                0.28066066                2.09275432               -1.25024360
              13.30576351                5.74366985               67.65991882                0.00010000               -0.69140610               -0.55716528                0.26462459               -1.99806960                6.20795501                1.53145328
              14.30221560                5.26237981               67.35079659                0.00010000                0.66591708               -2.12069138               -2.49322328               -3.84482097                9.66936094                6.70820613
              15.31908185                4.78419627               67.04268203                0.00010000                3.73511472               -5.32182050               -3.77453801               -6.67420688               13.42743470               13.13017510
              16.37691789                4.22633082               66.81740449                0.00010000                5.30889092              -11.01103254               -5.52615743              -16.22673862               21.10731756               21.96000814
              17.42525967                3.52038625               66.68330808                0.00010000                3.46517453               -0.04210069               -7.94848598              -23.98631379               31.66565751               14.97650694
              18.44622138                2.78615380               66.68809645                0.00010000               -0.59056238                5.82935478              -12.43689799              -17.50217493               53.61630091               18.35842522
              19.41344842                2.16202880               66.98678538                0.40859614               -1.56069364               15.76464456               -1.37805066               -5.83361497               34.10071690               33.04350039
              20.41500751                1.65335245               66.60373489                1.00000000                0.15590846               21.78552646               -0.86156050               -4.76441441                0.47853395               31.15506674
              10.76146847                8.06849113               68.72463982                0.90467323               -0.17702088               -0.16901820                0.91769906                0.01106041                0.06104251                0.61677413
              11.75969826                7.62571893               68.30817740                0.36357184               -0.06320143               -0.11882479                0.19268881                0.14096956                0.51306378               -0.56137733
              12.76020444                7.18440001               67.90043486                0.00010000               -0.25687192                0.00321899               -0.54895919               -0.59323853                5.74427484               -1.76216600
              13.75456082                6.72541183               67.58925613                0.00010000                0.06006237               -1.03252698               -1.67447567               -1.88450820               11.02965941                2.37896927
              14.76140569                6.24575553               67.29459420                0.00010000                1.75606148               -1.58388635               -2.96211804               -3.72127769               13.06342448                4.49053554
              15.78968205                5.73091435               67.03758150                0.00010000                3.90692489               -4.25076306               -4.55977653               -7.61212596               16.54705835                8.17588028
              16.83954418                5.15605479               66.82826710                0.00010000                5.16458671               -5.27709427               -6.24227180              -14.59576282               21.59177411               10.01851374
              17.89297378                4.50888277               66.69509467                0.00010000                4.11650782               -1.06818854               -8.29184049              -18.96965440               30.26620677               10.65388460
              18.92187434                3.83888974               66.68242888                0.00010000                1.47792270                3.06465247               -7.84700598              -18.83413437               41.72856522                9.52685393
              19.92253224                3.16462095               66.78047042                0.34217470                0.06686718                0.44511164               -0.72416753               -8.26979789               23.91045483               -0.33533733
              20.92321168                2.65545389               66.39770214                0.98020373                0.06794459                0.42806383               -0.46282587               -0.14746909               -0.10818650                0.16948134
              11.20426950                9.06730306               68.59786322                0.89086385               -0.12371195               -0.10411867                0.71624920                0.00129185                0.02060026                0.58423219
              12.20303238                8.62462422               68.17598245                0.35425257                0.01082723               -0.07017540                0.03363291                0.14900150                0.21902810               -0.41554836
              13.20448605                8.18380669               67.75781063                0.00010000                0.18427234               -0.00098487               -0.60230085               -0.69863905                7.26297657               -1.78527739
              14.20671783                7.72301931               67.47770731                0.00010000                0.89007351                0.10981439               -2.16058385               -2.48728783               14.43422112               -0.18229027
              15.22228752                7.23070208               67.21228474                0.00010000                2.49111214               -1.00440919               -3.63073023               -5.27781075               15.79765165                2.00468514
              16.25654007                6.69918101               66.97384431                0.00010000                4.23733468               -2.42791588               -5.14523100               -8.94996916               18.03374422                4.01612296
              17.30703421                6.12078894               66.77348834                0.00010000                5.32457781               -2.72082015               -6.70173105              -13.09093425               21.33204874                5.50087942
              18.36303163                5.49902248               66.62702980                0.00010000                5.33831521               -1.04252540               -7.94923786              -16.13570710               26.52550517                5.53157619
              19.41380052                4.84744684               66.55785942                0.00010000                3.42283429                0.43159624               -7.50273475              -17.06903770               34.04475181                3.15795572
              20.43148832                4.17093103               66.56832433                0.26856312                0.82958667                0.98033902               -1.06554183               -8.44948472               19.41622613               -0.89917664
              21.43039225                3.66191373               66.18966896                0.88855652               -0.10960662                0.88777330               -0.58738175               -0.20531598                0.01752547               -0.25864460
              11.64685199               10.06640876               68.47139750                0.89757427               -0.06773331               -0.08872030                0.51676694               -0.00244604                0.00178498                0.57561720
              12.64617465                9.62431542               68.04475274                0.38459288                0.04922879                0.01571684               -0.12611339                0.16197401                0.05565257               -0.31634123
              13.64783656                9.18438031               67.61898387                0.00010000                0.58725105                0.13864710               -0.65300183               -0.55396505                7.82536463               -1.37539963
              14.65791967                8.72760812               67.34813521                0.00010000                1.59256055                1.01731359               -2.41106920               -3.09778820               16.11840187               -2.25027273
              15.67968777                8.22566734               67.09778153                0.00010000                3.13380682               -0.16278593               -3.95899923               -6.86011133               17.67820813               -0.76941002
              16.72059581                7.68235603               66.87269096                0.00010000                4.90981288               -1.28102392               -5.64324453               -9.79912810               19.18856021                1.45156720
              17.77788403                7.10163838               66.67451607                0.00010000                6.15029612               -1.58523772               -7.15277398              -12.32509298               20.73585874                2.87295419
              18.84360173                6.48803226               66.50931294                0.00010000                6.53504990               -1.06899438               -8.08957396              -14.17219016               23.44997032                3.09092857
              19.90858503                5.84752166               66.39652744                0.00010000                4.77369631               -0.12509405               -7.66088259              -15.39201372               28.17877126                1.79595973
              20.93907566                5.18422773               66.34364120                0.27208622                1.42774715                1.24476111               -1.35798582               -7.80048339               15.97941277               -0.94357722
              21.93713997                4.67320935               65.96998437                0.88717804               -0.19356874                0.81491979               -0.59476065               -0.14120322                0.09322396               -0.44514230
              12.08840726               11.06552865               68.34502837                0.90310378               -0.01069481               -0.08706111                0.32880829               -0.00570637               -0.00986274                0.55284978
              13.08830031               10.62493855               67.91424469                0.43819434                0.08533976                0.09938615               -0.28523152                0.16428808                0.00280782               -0.23577030
              14.09011405               10.18657963               67.48355227                0.00010000                0.75873642                0.25961943               -0.70109593                0.05202074                7.04283933               -1.01988618
              15.10347504                9.74336558               67.19348868                0.00010000                2.01116607                1.67117972               -1.31969334               -4.32248236               16.50826354               -7.48831076
              16.13033737                9.22744636               66.95435231                0.00010000                4.05557171               -0.00014048               -3.77951847               -8.51953823               19.84778687               -2.65664216
              17.18458647                8.67356053               66.74632435                0.00010000                6.22593736               -0.82127151               -6.09499431              -10.13090684               20.66594898               -0.11503415
              18.25485612                8.08908418               66.54938591                0.00010000                7.45590372               -1.13423940               -7.73435468              -11.46164664               20.52211719                1.59378031
              19.33370455                7.47764259               66.36962639                0.00010000                7.74543277               -1.03164472               -8.52443107              -12.54860954               21.31542087                2.44313188
              20.40976478                6.84494496               66.22292798                0.00010000                5.80432056               -0.48023454               -7.44678439              -13.45320509               24.05663713                1.94409973
              21.44979096                6.19582625               66.11761876                0.33395373                1.99200805                0.83268114               -0.80817331               -6.84732917               13.22236477               -0.40938480
              22.44960494                5.67821212               65.74611549                0.94661011               -0.01860199                0.22427452               -0.19995612               -0.16475036                0.08828724               -0.27032971
              12.52791806               12.06466754               68.21884604                0.90792793                0.04913761               -0.06758260                0.15432667               -0.01982620               -0.01762936                0.51269590
              13.52840943               11.62630314               67.78450921                0.53227512                0.12659456                0.15953998               -0.44733167                0.11447051                0.05953031               -0.12750640
              14.53044995               11.18957270               67.35162319                0.00010000                0.10969335                0.29454240               -0.75745865                0.59555380                2.49436674               -0.58266234
              15.53060330               10.76103171               66.96564406                0.00010000                2.43260572                0.73644009                3.43537211               -5.12986068               16.89972305               -8.61247794
              16.57910206               10.22566453               66.80141750                0.00010000                6.28682777               -0.60967116               -3.63227858               -9.06501660               24.95360453               -3.15221287
              17.65633985                9.66593060               66.60576316                0.00010000                8.27334893               -1.07498705               -6.50026632               -8.93748980               22.02981781               -0.79981151
              18.74456904                9.07895359               66.41061176                0.00010000                9.02144530               -0.95449118               -8.43357298               -9.64763536               20.51518363                1.06287134
              19.83676876                8.46739937               66.21996487                0.00010000                8.83841102               -0.85826601               -9.12043753              -10.54388983               19.80436153                2.27150855
              20.92133726                7.83791697               66.04611474                0.00010000                6.60465775               -0.85460815               -7.09199683              -11.44568700               20.99748360                2.24744020
              21.96886192                7.20088135               65.89688808                0.43337849                2.38679825                0.34417416               -0.36427057               -5.84192530               11.05223348               -0.04189888
              22.96907323                6.67769484               65.52564761                1.00000000                0.02113103               -0.06860422                0.02409532               -0.12947124                0.01894631               -0.01478916
              12.96473952               13.06417700               68.09232148                0.83705432                0.09450356               -0.01820011               -0.01222181               -0.04577169                0.10876182                0.40314222
              13.96568455               12.62812935               67.65616941                0.59209454                0.12785223                0.21224787               -0.64858743                0.02316039                0.33896546               -0.00948332
              14.96729656               12.19247048               67.22459008                0.00010000               -0.04492803                0.29006312               -0.81112964                0.10589813                1.16857122               -0.18914847
              15.96478599               11.75809438               66.80477706                0.00010000                3.84207932               -0.11856573                3.40953814               -5.37719834               17.00841153               -3.99968495
              17.04413815               11.21525294               66.65035861                0.00010000                9.38808108               -2.52904427               -3.41787539               -6.55481535               26.66434616               -2.57071195
              18.15254762               10.65206079               66.46143972                0.00010000               10.81482492               -1.65436474               -6.97243991               -5.62414131               22.49956872               -0.60589162
              19.26043465               10.06999436               66.26450566                0.00010000               10.56578789               -0.96714486               -9.21822747               -5.81282334               19.86331759                0.63852170
              20.36386337                9.46047727               66.06278627                0.00010000                9.34672037               -0.45446395               -9.90964672               -6.89010190               18.05585252                1.63120523
              21.44736906                8.82785280               65.86575939                0.00010000                6.46556038               -0.28891450               -7.21455513               -7.81321894               18.00464336                1.90527263
              22.49317458                8.20270974               65.67796026                0.51453853                2.30097378                0.13556951               -0.20931134               -5.01496896                9.13973548                0.03044860
              23.49338853                7.67684004               65.30705943                1.00000000                0.02139502               -0.05109016                0.02078336               -0.04133120               -0.00035554                0.05901352
              13.39909792               14.06430353               67.96442362                0.90876229                0.14812412                0.01265363               -0.17855602                0.06029639                0.37620512                0.30338065
              14.40057916               13.63054810               67.52831692                0.83577985                0.17524809                0.24187504               -0.88738069                0.04298175                0.70825720                0.08266198
              15.40260288               13.19537397               67.09874907                0.61805043               -0.01511408                0.29034838               -0.94668470               -0.06375392                1.66475796               -0.00206186
              16.40027688               12.75866040               66.68129016                0.36551874                7.57182363                0.05660122                3.43146902               -7.46542773               19.29844650               -4.28508248
              17.55403935               12.17508365               66.51577705                0.36077795               14.44193668               -4.01692902               -3.78943795               -5.30073436               25.38340288               -0.95574756
              18.68911561               11.63284331               66.31986512                0.36418635               13.29283721               -1.92174796               -7.51550414               -2.11684820               20.69548053               -0.31110389
              19.81989609               11.05961070               66.11144139                0.37552934               12.59963353               -1.03836599              -10.11321999               -2.78051627               17.27756325                0.39091956
              20.94110828               10.45831009               65.89279168                0.39524055               10.14721586               -0.21671760              -11.05410599               -3.64911017               14.81389560                0.93946588
              22.02284041                9.83213868               65.67476748                0.42361913                3.92335087                0.42858816               -8.29336372               -5.18873184               14.49993784                1.23453174
              23.01957530                9.20359274               65.45903647                0.75990176               -0.14272070                0.08830051               -0.25711677               -5.13321049                7.74809979                0.02509289
              24.01998600                8.67667304               65.08830656                1.00000000                0.04107006               -0.01669991               -0.09001888               -0.03222360               -0.00482467                0.04233571
               9.38083626                4.21525203               70.23927635                1.00000000               -0.37003626               -0.44540044                1.56162341               -0.13332957               -0.41953987                0.53884605
              10.37713590                3.76089533               69.83116401                1.00000000               -0.27501618               -0.23746648                0.88538552               -0.10256860               -0.50717978                0.06662063
              11.37533594                3.30603631               69.42062974                1.00000000               -0.08538613               -0.03588601                0.21938810               -0.10208950               -0.51750088               -0.06981090
              12.37542818                2.85030154               69.01222783                0.60400974                0.05480849                0.18124100               -0.46093543               -0.17734645               -0.42732293               -0.43910702
              13.37643211                2.39237652               68.60395702                0.46942945                0.18870710                0.43455063               -1.18415437               -0.22605106               -0.26884478               -0.28657325
              14.37920232                1.93212450               68.19952568                0.23911088               -0.15735586                0.65898776               -1.95263025               -0.87132545                0.49482077               -0.59292725
              15.37328499                1.45738613               67.80795618                0.00010000              -10.88851820                1.40593029               -2.60128036              -20.06398469               13.31883198               -1.67930313
              16.16143196                0.59128989               67.66724252                0.00010000              -11.56311244                4.25348110               -4.19354349              -20.19029240               23.13637277                3.14135357
              17.14202274               -0.27096720               67.43848890                0.00010000                7.06943137                2.01244210               -3.91756177              -16.83668407               15.82219292                7.33588906
              18.30282058               -1.12933672               67.13067003                1.00000000                8.31576929                0.78565106               -1.65905428              -16.46995929                5.67764515                0.02809515
              19.30833813               -1.66664538               66.70884672                1.00000000                0.55175457                0.96486146               -2.20261613                0.23795884               -0.09366376               -0.09237062
               9.83385967                5.21079803               70.11148841                1.00000000               -0.31415984               -0.41234894                1.38571910               -0.02748225                0.03211859                0.76015117
              10.83071808                4.75852066               69.70317596                1.00000000               -0.21238666               -0.21339437                0.70956539                0.00039255                0.10684840                0.09640702
              11.82961194                4.30567745               69.29576958                1.00000000               -0.01167330               -0.01277552                0.03793515                0.00248907                0.13819580               -0.26491957
              12.83048461                3.85211395               68.88810997                0.60859385                0.18240886                0.19851409               -0.63666291               -0.04735364                0.35392749               -0.43326068
              13.83326012                3.39672203               68.48562369                0.55216629                0.37498263                0.42708920               -1.40290459               -0.07612444                0.50801102               -0.29167596
              14.83798426                2.93871438               68.08219500                0.34050863                0.49011662                0.65478649               -2.16629562               -0.45122597                0.73106348               -0.51969412
              15.84306245                2.47144543               67.68612336                0.00010000               -0.71392821                1.07873495               -2.95372189              -18.54676224               15.39100468               -0.93874830
              16.82370570                1.63382470               67.57934430                0.00010000               -0.45466222                1.61184094               -5.23910873              -27.76092700               25.06377936                6.56308831
              17.83396921                0.74915722               67.37044521                0.00010000                0.61271914                4.74450891               -9.23153679              -28.55318441               10.36654546               13.90267387
              18.83596008               -0.12148021               66.95962852                0.07498524                0.70285884               12.62957811               -3.65927137              -18.73517568                0.57710634               18.28410074
              19.84802638               -0.65699677               66.53779372                1.00000000                1.20663021               12.13446964               -4.19833573               -0.99402951                0.09732944               20.65886757
              10.28484135                6.20700506               69.98722187                1.00000000               -0.25770222               -0.33791319                1.19721230               -0.02909321                0.18631064                0.89024332
              11.28226433                5.75662744               69.57544784                1.00000000               -0.15244566               -0.16724467                0.52936243               -0.00213195                0.38955463                0.01316751
              12.28179244                5.30578080               69.16722235                0.00010000                0.05861007                0.04142207               -0.14279859               -0.00729019                0.86267860               -0.72890181
              13.28343653                4.85427182               68.76500827                0.00010000                0.32583765               -0.52140016               -0.80328966               -0.84064803                1.43852243                0.90570832
              14.28830919                4.40091830               68.36886531                0.00010000                0.60089333               -0.96347327               -1.58903319               -1.47786839                1.46925511                3.41852850
              15.29545440                3.94522023               67.96879441                0.00010000                0.94651164               -2.22602092               -2.34939112               -1.82996464                1.67678392                7.13065874
              16.30723942                3.47896083               67.57905415                0.00010000                1.65236161               -6.66471898               -3.12068200              -19.74677288               21.30327050               14.23066380
              17.32850163                2.62352671               67.57416122                0.00010000                0.95122690                0.24644477               -7.03454045              -33.63408227               33.91028851               12.10111372
              18.32626396                1.82392297               67.45463960                0.00010000                0.28847135                8.37871948              -12.22035652              -25.89698850               20.35477734               20.13091521
              19.33427106                1.12325484               67.15336855                0.00010000                1.66133496               23.97572765              -39.92956497              -14.42076488                9.70736551               62.68480755
              20.35949066                0.57604401               66.78153570                0.06877977                2.52196050               25.66391321              -46.78992972               -6.95425880                3.15585901               68.86507906
              10.73403304                7.20403977               69.86136252                1.00000000               -0.21333496               -0.25621226                1.01026275               -0.02271136                0.29801347                0.72277898
              11.73189969                6.75517577               69.44555955                0.50187088               -0.11056399               -0.12966935                0.35409594                0.03552415                0.50203026               -0.36557404
              12.73182176                6.30650589               69.03335477                0.00010000               -0.66827718                0.08226072               -0.31415869               -0.73050380                3.05444707               -1.21620885
              13.71853415                5.84168594               68.66873664                0.00010000               -0.95337097               -0.70143345                0.17948424               -2.08952203                6.35017309                1.33962228
              14.71275434                5.37745256               68.32637588                0.00010000                0.24041505               -2.04965069               -2.12921049               -3.25206908                8.42955590                6.35608027
              15.72334245                4.89419396               68.00680837                0.00010000                2.85330868               -4.90734638               -3.34498910               -7.18485663               12.73596973               12.31549545
              16.76982051                4.33815105               67.76299023                0.00010000                4.13597287              -10.09978807               -5.17995484              -16.76228227               19.44059395               20.49948715
              17.80606190                3.63875359               67.59856201                0.00010000                2.32403925                0.89295431               -8.24989823              -24.37754834               27.46964622               13.22376110
              18.81630130                2.91673161               67.54336931                0.00010000               -0.53190781                8.52039014              -15.91668587              -15.78676770               54.11466459               18.40740461
              19.79542375                2.35803435               67.96344679                0.20698976               -0.64692116               12.29454004              -12.27430642               -4.61272114               39.42784126               44.14717562
              20.80336288                1.85628150               67.58901595                0.79677853                0.79391272               14.36203622               -7.32638170               -2.96716139                2.47202188               46.33350479
              11.18211512                8.20188081               69.73339280                0.90706554               -0.16064322               -0.17597913                0.83377698               -0.00050792                0.05185360                0.58742208
              12.18050868                7.75403405               69.31008191                0.34610705               -0.07214636               -0.10245478                0.18708739                0.11308569                0.50388737               -0.54581156
              13.18067219                7.30742602               68.89548316                0.00010000               -0.49046313                0.05655928               -0.45209058               -0.79766044                5.48248069               -1.66644402
              14.17069942                6.84024315               68.57237381                0.00010000               -0.49561969               -0.01471208               -1.52294257               -1.94428117               10.57707920                1.16453527
              15.17075980                6.35992529               68.26685069                0.00010000                1.01796768               -1.45699953               -2.60451433               -3.53598300               12.50441010                4.07259618
              16.19105878                5.84707330               67.99351252                0.00010000                2.83371729               -3.66600464               -4.13592630               -7.40523808               15.63158068                7.45001669
              17.22743414                5.27696507               67.76639071                0.00010000                3.56556656               -4.32249652               -5.98900031              -14.11586437               19.92976462                9.16187333
              18.26237011                4.64138579               67.60554689                0.00010000                3.19068580                0.32743416               -8.76589755              -17.90561873               28.27598766               10.08670096
              19.29124786                3.99433078               67.58569028                0.00010000                2.00483193                5.19120650              -12.75228764              -15.77134816               43.55215031               10.82739866
              20.30246675                3.36914564               67.77149717                0.17229541                0.62026380                1.12901956               -4.37232873               -5.95900476               26.96459189               -1.99297779
              21.30365313                2.86328473               67.39274820                0.79473086                0.11863879                0.84180969               -1.81179379               -0.33553609               -0.39467014               -1.55030575
              11.62971639                9.20052018               69.60475009                0.89607028               -0.11001970               -0.12681855                0.66242914               -0.01200014                0.01462836                0.55912290
              12.62861620                8.75312667               69.17631093                0.33173926               -0.00284694               -0.05517940                0.02979166                0.13501636                0.24381533               -0.39856706
              13.62965946                8.30763708               68.75218158                0.00010000               -0.07334745                0.05451862               -0.54074915               -0.74096698                6.90033579               -1.69536570
              14.62714925                7.84139170               68.45760821                0.00010000                0.27725367                0.23989038               -1.83459880               -2.35286483               13.68999889               -0.41954484
              15.63520453                7.34831257               68.17803188                0.00010000                1.55243314               -0.75216381               -3.16527990               -4.70346673               15.04884976                1.43519582
              16.65819791                6.82087386               67.92442479                0.00010000                2.89931022               -1.89109195               -4.65107097               -8.09717199               17.10021254                3.34679308
              17.69319073                6.25170112               67.70709174                0.00010000                3.61929533               -1.77451937               -6.40696068              -11.87077937               20.02562327                4.77606988
              18.73058382                5.64530228               67.54291255                0.00010000                3.99618752                0.27445614               -8.47591431              -14.12628060               24.99296810                5.32243376
              19.77311448                5.02055574               67.46603964                0.00010000                3.83529397                1.95930476              -10.78420338              -14.84982797               35.54666428                2.71046207
              20.80728970                4.38061474               67.55360611                0.11437751                1.76297459                1.54471630               -7.64592656               -7.10229452               21.98152679               -0.75636935
              21.80837398                3.87311769               67.18243130                0.72290142                0.10842784                1.34558023               -3.53698746               -0.41765950                1.48713796               -0.98595726
              12.07666213               10.19934444               69.47649275                0.90649937               -0.05700165               -0.11776464                0.49886021               -0.02115994               -0.00505831                0.56992595
              13.07609212                9.75293047               69.04344277                0.35155113                0.04628454                0.02191785               -0.13767603                0.13269508                0.11327376               -0.31344626
              14.07758782                9.30851639               68.61255085                0.00010000                0.34372589                0.15218158               -0.65070833               -0.67993096                7.47169028               -1.33164137
              15.08296663                8.84504096               68.32699434                0.00010000                0.98102376                0.59964698               -1.91165246               -2.70269975               15.26888382               -2.18606118
              16.09720830                8.34488201               68.06098521                0.00010000                2.13800764               -0.14357080               -3.35162462               -5.67861616               16.74414855               -0.98707415
              17.12572679                7.80925146               67.81927950                0.00010000                3.41909212               -0.81570794               -4.98542101               -8.31781544               18.09445393                0.78561498
              18.16559014                7.24147468               67.60466952                0.00010000                4.26315461               -0.75619201               -6.67028556              -10.47587111               19.52725507                2.14487943
              19.21098988                6.64687492               67.42668278                0.00010000                4.66743495                0.10603100               -8.29662489              -11.78731818               21.92937135                2.59539271
              20.25893884                6.03351687               67.30411599                0.00010000                4.84345122                1.03832939               -9.78743846              -12.77425005               29.39663971                1.72061367
              21.30785890                5.40003997               67.32399344                0.11596979                2.56775991                1.70450645              -10.32627820               -6.68009423               18.23158336                0.00444336
              22.31029404                4.89019634               66.96176521                0.72234272                0.24351346                1.19009461               -6.33091989               -0.40298140                3.58710471               -0.29758906
              12.52212114               11.19816489               69.34846503                0.91191622               -0.00229937               -0.11265511                0.34680087               -0.03394578               -0.01214786                0.58001933
              13.52209815               10.75356503               68.91121039                0.38469543                0.09146014                0.09978389               -0.31976514                0.10724631                0.10722907               -0.25450198
              14.52395035               10.31068071               68.47618962                0.00010000                0.73157392                0.26548698               -0.78986724               -0.49315871                7.12840279               -1.01786273
              15.53672963                9.85338464               68.17934207                0.00010000                1.67356779                0.43882073               -1.19117344               -2.82855221               15.82918059               -4.25006136
              16.55742170                9.34544116               67.92180482                0.00010000                2.92596559               -0.08327607               -2.96658703               -6.43905819               18.43354516               -2.87260689
              17.59524894                8.80455971               67.68957446                0.00010000                4.43140776               -0.47979101               -5.18385999               -8.05771464               19.07842600               -0.69450647
              18.64604986                8.23657728               67.47562201                0.00010000                5.37731601               -0.42394652               -6.95250409               -9.18810388               19.11858866                0.86814476
              19.70279526                7.64742290               67.28456846                0.00010000                5.92072857               -0.04650552               -8.33279037               -9.88101297               20.02834215                1.81623107
              20.76446443                7.04132232               67.13693139                0.00010000                5.71065439                0.41519509               -9.42852838              -10.30638090               25.61180665                2.63517880
              21.81700835                6.41470487               67.10654704                0.15569502                2.77685922                1.01950134               -6.60895342               -5.73946612               15.26658484                0.38132919
              22.82000161                5.89691958               66.74292921                0.76314707                0.29932650                0.33203599               -3.13613179               -0.35894564                1.68931488               -0.09467136
              12.96518293               12.19709134               69.22074810                0.91736850                0.05382862               -0.08648100                0.20396878               -0.05605388               -0.00445376                0.57594108
              13.96572122               11.75492614               68.77955221                0.44432010                0.13610521                0.17300703               -0.53033694                0.05006765                0.23401307               -0.19123907
              14.96790504               11.31382613               68.34303871                0.00010000                1.29569618                0.35276886               -0.97821670               -0.84156167                6.17109148               -0.60232786
              15.99163514               10.85381737               68.02042040                0.00010000                2.46735153               -0.59451318                3.01294832               -2.88894726               16.45822435               -5.12709877
              17.01725207               10.34321649               67.76824397                0.00010000                4.09006117               -0.78007929               -2.55280016               -5.81295445               20.36788303               -3.34559639
              18.07343637                9.79965564               67.54689629                0.00010000                6.08564003               -0.69672451               -5.31228217               -6.73493945               20.08970676               -1.21332930
              19.13896487                9.23299575               67.33205976                0.00010000                6.75941032               -0.39795663               -7.27792613               -7.32654486               18.73835642                0.44947050
              20.20862457                8.64594481               67.13082933                0.00010000                7.32821917               -0.11774012               -8.53094526               -7.96760530               18.88739295                1.81454263
              21.28552925                8.04182077               66.96968056                0.00010000                6.44238745               -0.21471873               -9.07589740               -8.77554203               22.96359571                3.21091301
              22.33747232                7.42043000               66.89235234                0.22794236                2.65782192                0.39314581               -2.39971853               -4.97363158               13.46886141                0.47069296
              23.33868569                6.89683706               66.52558338                0.83710959                0.12133683               -0.03548121               -0.53729047               -0.20922932               -0.00957813                0.00115543
              13.40533045               13.19643527               69.09278300                0.84233596                0.10342582               -0.04075303                0.06884005               -0.07198707                0.10288837                0.48690451
              14.40636471               12.75702517               68.64863743                0.44480650                0.14487162                0.25970283               -0.80901403               -0.01453657                0.62297846               -0.12497567
              15.40822788               12.31773609               68.21471986                0.00010000                2.15978034                0.41446603               -1.15234207               -1.84888806                5.69360688               -0.21777402
              16.44956032               11.84149438               67.87193079                0.00010000                4.35482290               -2.75577278                4.11107348               -2.14658530               16.86552481               -3.45583443
              17.49532434               11.32983957               67.61935914                0.00010000                6.06052893               -1.72159858               -2.21140310               -3.44247528               21.32670301               -2.50168707
              18.57077090               10.79062521               67.39963874                0.00010000                7.89527261               -1.27551061               -5.44892954               -3.86576230               20.01449636               -0.83661807
              19.65322979               10.22861815               67.18057072                0.00010000                8.19236154               -0.57523621               -7.61602466               -4.25843568               17.71076773                0.26137081
              20.73461813                9.64506810               66.96889528                0.00010000                8.06193002               -0.07219905               -8.80936558               -5.15285199               17.33223751                1.43566249
              21.81446840                9.03702795               66.79324564                0.00010000                6.39506528                0.05073444               -8.72317464               -6.36163030               20.37621559                2.66135802
              22.86251943                8.42256778               66.67565036                0.30221872                2.42672547                0.16768343               -0.79761376               -4.43810935               12.04400544                0.43824725
              23.86300290                7.89620996               66.30726962                0.90660528                0.04834723               -0.03501577               -0.05122232               -0.06263249               -0.25142284                0.02366654
              13.84256339               14.19627628               68.96339234                0.90990885                0.15662811               -0.01589941               -0.06738454                0.10768622                0.35786346                0.40021148
              14.84412967               13.76012020               68.51798959                0.73789076                0.19473409                0.30950282               -1.10048274                0.06845479                1.11068190               -0.07598977
              15.84645807               13.32211545               68.08748548                0.51931912                4.62351428                0.43793609               -1.28130425               -4.24789543                6.47771481               -0.01385803
              16.93659996               12.79870192               67.75058048                0.36528015                7.64068268               -4.27924618                3.62988883               -1.96258235               18.63963683               -3.22826487
              17.99927173               12.30878452               67.48133306                0.36082826                8.03712931               -2.10550476               -2.32185170               -0.83308596               19.71215783               -0.79715351
              19.09734254               11.77414543               67.25431794                0.36398319               10.00407752               -1.64797864               -5.64836931               -1.70751014               17.98051241               -0.23564424
              20.19935328               11.22149102               67.02174736                0.37457226                9.99075945               -0.71271246               -7.85959568               -1.86988203               14.70337525                0.34749847
              21.29715773               10.64450082               66.79162050                0.39315733                9.07218425               -0.05672709               -9.11913163               -2.67881740               13.68201447                1.09484152
              22.38079696               10.04283546               66.59509932                0.42043756                4.61851986                0.58075131               -9.19923494               -4.40300128               17.17587175                2.18135148
              23.38952813                9.42378367               66.45639693                0.66194800                0.46758646                0.12158845               -0.76921378               -4.63406626               11.36393929                0.54703929
              24.39014869                8.89613674               66.08757450                0.96019569                0.06205609               -0.00732145               -0.20858415               -0.05011369                0.02533205                0.03701828
               9.78821391                4.34922218               71.25408250                1.00000000               -0.33667803               -0.40045154                1.40069425               -0.11399145               -0.40573890                0.52356710
              10.78484713                3.89040850               70.83969972                1.00000000               -0.25627684               -0.22099936                0.82231885               -0.08551526               -0.48910633                0.06305535
              11.78308838                3.43112448               70.42298621                1.00000000               -0.09496180               -0.04690896                0.25163480               -0.08588038               -0.50104570               -0.06697851
              12.78294790                2.97101729               70.00827794                0.60857705                0.02296223                0.13760470               -0.33016167               -0.15672894               -0.43446676               -0.41813140
              13.78354762                2.50889319               69.59335504                0.46684345                0.13367981                0.35201100               -0.94068200               -0.20478869               -0.31537290               -0.29464397
              14.78562149                2.04464330               69.18183193                0.22184239               -0.37919825                0.53639780               -1.59285719               -0.98581819                0.49294319               -0.58315567
              15.77596366                1.56352055               68.78442148                0.00010000              -10.20381126                1.41898515               -2.10402053              -18.94617767               12.94308547               -1.81397709
              16.58154527                0.71400683               68.62940381                0.00010000              -10.00196019                3.60073253               -3.34782469              -18.65327504               23.51631303                2.93461258
              17.57592445               -0.12185804               68.40231142                0.00010000                7.28673241                0.12971183               -3.30964844              -16.34863505               17.93382574                4.07283971
              18.72727992               -0.94815708               68.11490134                1.00000000                7.80005223                0.81586053               -1.50427049              -14.89809351                6.93294165                0.04334698
              19.73192550               -1.48658509               67.68774953                1.00000000                0.46455808                0.99084107               -1.99801934                0.32303649               -0.05135752               -0.05501255
              10.24588768                5.34521766               71.12461832                1.00000000               -0.28468502               -0.37317345                1.24105189               -0.02242042                0.03396163                0.73864998
              11.24304083                4.88819850               70.71003682                1.00000000               -0.19812535               -0.19954887                0.66280413                0.00367430                0.11033178                0.09036653
              12.24192518                4.43065539               70.29639619                1.00000000               -0.02722905               -0.02529616                0.08757701                0.00299841                0.14369271               -0.26144565
              13.24249625                3.97239334               69.88249544                0.63478880                0.13807771                0.15126689               -0.48715434               -0.04513941                0.31886652               -0.40657446
              14.24468673                3.51241330               69.47295472                0.56855443                0.29766900                0.34472717               -1.13399212               -0.07531002                0.43248796               -0.28207013
              15.24844963                3.05000728               69.06248382                0.33894821                0.35666916                0.53536324               -1.78146225               -0.49301777                0.64356346               -0.49512628
              16.25182011                2.57771040               68.65904156                0.00010000               -0.53739101                1.02506491               -2.46724916              -17.74946186               14.48898443               -0.95998143
              17.23770181                1.75001416               68.52875624                0.00010000               -0.41500263                0.92612557               -4.78739580              -27.23366170               23.00299165                5.79723375
              18.24352006                0.87943908               68.28385835                0.00010000                1.14803475                3.69274435               -7.20188790              -26.22442428               11.65394302               11.40762691
              19.26066251                0.06000152               67.92202723                0.23221157                1.50319036                2.36815082               -3.80590943              -15.48706317                3.33010729               -0.22623420
              20.27358387               -0.47667668               67.49491657                1.00000000                1.29213615                1.62038951               -4.33232907                0.13241381                0.05125689               -2.61293938
              10.70180383                6.34175871               70.99856187                1.00000000               -0.23209317               -0.31247959                1.07154652               -0.02499842                0.18321214                0.86448078
              11.69948290                5.88641752               70.58059584                1.00000000               -0.14251595               -0.15716677                0.50030884               -0.00053817                0.38394859                0.00615591
              12.69895351                5.43061855               70.16614175                0.00010000                0.04021501                0.02509676               -0.07439152               -0.01722519                0.86034244               -0.71674567
              13.70028720                4.97404263               69.75780736                0.00010000                0.27369854               -0.46482917               -0.63582790               -0.87906059                1.38383767                1.11713169
              14.70442748                4.51578773               69.35443033                0.00010000                0.50884198               -1.04486354               -1.30072624               -1.53219049                1.37059662                3.34623722
              15.71046404                4.05535057               68.94730593                0.00010000                0.82700290               -2.21096021               -1.95133096               -2.15143084                1.58020645                6.78171727
              16.72096754                3.58402185               68.55031060                0.00010000                1.23396588               -6.43631983               -2.63768910              -20.03326001               19.37273168               13.36023776
              17.73514335                2.73252935               68.50141373                0.00010000                1.02405324                0.17308207               -6.57546979              -33.77266476               31.05744962               11.09212353
              18.74144860                1.95199685               68.34159891                0.00010000                1.92555280                7.19060662              -12.90157583              -35.66067906                4.30898923               16.67822853
              19.77365441                1.09920593               67.72528439                0.00010000                3.32407851               18.34210887              -26.15418970              -25.52390246               -9.45892281               47.86405065
              20.80793017                0.54582270               67.25285307                0.12673889                3.42757634               22.27433602              -29.42457195               -8.35203521               -3.45860436               55.49104966
              11.15607010                7.33896807               70.87093593                1.00000000               -0.18998712               -0.24533576                0.90446353               -0.02511546                0.29217603                0.70578014
              12.15417023                6.88505517               70.44902618                0.47687582               -0.10572679               -0.11831001                0.34027599                0.01959979                0.49566321               -0.36838171
              13.15395556                6.43115732               70.03074020                0.00010000               -0.72121830                0.08128836               -0.21944533               -0.66748867                3.21823691               -1.19068769
              14.13974586                5.96309675               69.66350851                0.00010000               -1.06102892               -0.71058317               -0.63154994               -2.25968090                6.30002539                2.16391975
              15.13273498                5.49151603               69.30821238                0.00010000               -0.12794804               -2.01181409               -1.69507843               -3.56904907                7.95714338                5.94590004
              16.13718690                5.00578807               68.97578225                0.00010000                2.06205745               -4.65261482               -2.87070683               -7.51112081               12.25745018               11.60850782
              17.17397613                4.44898400               68.71380539                0.00010000                2.85433070               -9.44155536               -4.64576647              -17.35873519               18.49476516               19.08068453
              18.19427351                3.75347580               68.51831012                0.00010000               -0.51731210                1.68684519               -7.91961618              -26.08410855               23.42737391               12.42702568
              19.16362989                3.02325121               68.36976273                0.00010000               -1.89574553                9.03852668              -14.90283827              -22.05568185               49.02356129               15.52696717
              20.15635860                2.42684370               68.74129926                0.05981702                2.48398679               21.76980728              -47.80014466               -8.66647133               44.82105645               52.44395309
              21.21330963                1.96881004               68.45720725                0.65106449                5.69510232               24.26048623              -50.05112075               -2.55906370               22.67387925               56.67531564
              11.60912733                8.33685199               70.74131536                0.91112064               -0.14416868               -0.17912522                0.74980096               -0.01155220                0.04170287                0.58466696
              12.60768564                7.88405132               70.31191915                0.32235913               -0.07825907               -0.08815807                0.18046153                0.08496534                0.50155607               -0.54458817
              13.60756215                7.43224432               69.89139305                0.00010000               -0.64753851                0.08371863               -0.37043035               -0.84902181                5.31863732               -1.63462949
              14.59473487                6.95983097               69.55879728                0.00010000               -0.86034846               -0.15444344               -1.21281471               -2.08856112               10.32439631                0.89620089
              15.59035518                6.47555145               69.24250391                0.00010000                0.40193859               -1.31222744               -2.27003462               -3.69098719               12.26151624                3.65640915
              16.60277364                5.96229827               68.95486298                0.00010000                1.78749644               -3.27190952               -3.65636093               -7.40315724               15.20428393                6.76670173
              17.62610511                5.39519074               68.70848709                0.00010000                1.82101647               -3.54762409               -5.54282337              -14.04746182               19.28264000                8.28880697
              18.63919397                4.76626625               68.51977671                0.00010000                0.04309794                1.54297263               -8.62697218              -17.63768877               25.60357730                9.25920555
              19.62696707                4.13276738               68.42738312                0.00010000                0.77860895                7.99895806              -15.49911578              -14.06269053               46.07182789               11.16214579
              20.65476615                3.53460208               68.69302384                0.01830577                2.29245734                8.82318367              -29.36390185               -5.16831836               36.22140128               -0.85471717
              21.67281621                3.03103243               68.36146626                0.62436970                1.80500607                5.21837656              -26.17210410               -0.89821516               13.90995207               -1.49833254
              12.06144041                9.33538557               70.61111180                0.90360711               -0.09631989               -0.13798245                0.60404399               -0.02318431                0.00776868                0.57478695
              13.06047721                8.88329201               70.17657829                0.30392292               -0.01224642               -0.04521431                0.02603647                0.10712566                0.26850117               -0.40569848
              14.06119548                8.43283169               69.74699564                0.00010000               -0.29048501                0.07475642               -0.50007706               -0.85637317                6.66854922               -1.70107498
              15.05466751                7.96000789               69.44101534                0.00010000               -0.23737714                0.11610341               -1.51111829               -2.37160514               13.22537970               -0.52644358
              16.05644794                7.46527148               69.14897915                0.00010000                0.74084787               -0.66992628               -2.69409222               -4.38638014               14.63072372                1.10674815
              17.06948447                6.94034988               68.88082289                0.00010000                1.63054897               -1.46898043               -4.13748758               -7.56065124               16.69573976                2.75701261
              18.08905892                6.37803152               68.64534913                0.00010000                1.72293149               -0.95925183               -5.97761777              -11.05469426               19.57731519                4.02146332
              19.10394310                5.78433525               68.45751151                0.00010000                1.24906669                1.60089818               -8.68904468              -12.56262121               24.07823089                4.51403012
              20.11404025                5.18323037               68.34217535                0.00010000                2.53920479                3.91374020              -12.92021323              -10.43938883               35.03449581                3.80178940
              21.15472719                4.60330737               68.41540579                0.00010000                4.42221893                4.83867930              -24.45278310               -5.93804222               26.86291457               -7.83952695
              22.20248463                4.07317758               68.11892921                0.57542975                4.77574369                3.78636157              -22.15756539                0.01313569               14.82702086               -5.72309519
              12.51285077               10.33409235               70.48137470                0.91552035               -0.04687383               -0.12559402                0.46559667               -0.03287314               -0.00940198                0.61253019
              13.51238203                9.88314703               70.04199922                0.31676712                0.04340184                0.02235365               -0.14431560                0.09450982                0.16723920               -0.34354502
              14.51371880                9.43373945               69.60596970                0.00010000                0.12404778                0.14514105               -0.66410468               -0.88195245                7.31674319               -1.39957418
              15.51486299                8.96215303               69.30990216                0.00010000                0.42833867                0.24652049               -1.56069745               -2.59052900               14.78101956               -1.79032055
              16.52228558                8.46215292               69.03074904                0.00010000                1.19687959               -0.12680050               -2.80962284               -4.84532114               16.11432438               -0.97390708
              17.53880058                7.93291866               68.77298254                0.00010000                1.93701375               -0.41481354               -4.36707778               -7.16469433               17.49964638                0.30545555
              18.56102585                7.37600570               68.54111035                0.00010000                2.19710601                0.05126613               -6.15520104               -9.07297314               19.10654350                1.35209576
              19.58274270                6.79828421               68.34338044                0.00010000                1.90906582                1.27427030               -8.32692342               -9.79723001               21.78703356                1.76340689
              20.59920717                6.21104219               68.20077868                0.00010000                3.16577051                2.44267945              -11.50452702               -9.04632319               26.76861596                1.40265257
              21.64605811                5.63137567               68.13711563                0.00010000                6.70656778                1.58932828              -22.01532551               -5.49424442               19.52293460               -0.19249740
              22.73333853                5.10675966               67.84336598                0.57212811                8.72804178                1.96614759              -20.42727750               -2.05448759               13.01109013               -0.33665691
              12.96267357               11.33287369               70.35196439                0.92222668                0.00467300               -0.11119775                0.33307846               -0.04496126               -0.01068358                0.65441132
              13.96272030               10.88373908               69.90784939                0.33663133                0.09384282                0.09521476               -0.33545305                0.06389395                0.19598088               -0.31891221
              14.96455043               10.43573452               69.46775492                0.00010000                0.58615748                0.26282248               -0.87941965               -0.97579997                7.49214407               -1.15610133
              15.97444345                9.96493830               69.16966521                0.00010000                1.21127288                0.18739920               -1.10238038               -2.66497511               15.41318219               -2.72273724
              16.98877589                9.46273547               68.89502057                0.00010000                1.89471742               -0.04773201               -2.53957121               -4.75932161               17.10200960               -2.25608821
              18.01233780                8.93205361               68.64264715                0.00010000                2.67290068               -0.06594587               -4.38541752               -6.40805009               18.00023728               -1.08426567
              19.04223390                8.37905684               68.41033583                0.00010000                3.03121056                0.34942932               -6.21928187               -7.39278401               18.50894109                0.04688025
              20.07296201                7.80982066               68.20297058                0.00010000                2.88942163                1.05395973               -8.12213204               -7.64098830               19.59080457                0.86600154
              21.10002233                7.23208396               68.03435741                0.00010000                3.80814094                1.73893945              -10.67883340               -7.74238590               25.23622425                1.16037325
              22.14912483                6.63509394               67.98543969                0.00010000                5.53022787                0.49081137              -18.96710152               -4.16526066               18.73007034                7.54549843
              23.21062689                6.11250053               67.68339285                0.58977383                6.15020595                0.33089431              -17.27894018               -3.80528857               11.30463806                5.84250338
              13.41022076               12.33186839               70.22292542                0.92773301                0.05783207               -0.08014213                0.20194476               -0.06096393               -0.00076059                0.67917835
              14.41079908               11.88505133               69.77390248                0.37059075                0.13914141                0.17266879               -0.56021307                0.03072298                0.36025340               -0.31713990
              15.41300359               11.43899590               69.33205886                0.00010000                1.18817244                0.39668591               -1.17794115               -1.29127000                7.50552916               -0.77855105
              16.43456253               10.96590102               69.02590303                0.00010000                2.34901201               -0.30603441               -0.18793583               -2.73919238               15.46079528               -2.57387970
              17.45998383               10.46119828               68.75036150                0.00010000                2.98778352               -0.53026797               -1.90798658               -4.00564496               17.85297605               -2.50158601
              18.49431820                9.93159974               68.49951751                0.00010000                3.77096491               -0.20734187               -4.31281508               -4.94579195               18.20067984               -1.46776857
              19.53540313                9.38299429               68.26505324                0.00010000                4.12888063                0.32386630               -6.25471865               -5.45383842               17.82953161               -0.32805286
              20.57689581                8.81936341               68.04934597                0.00010000                4.18415225                0.92893468               -8.04096483               -5.61510608               17.89919769                0.84592403
              21.61908617                8.24582098               67.86459679                0.00010000                5.27202591                1.17886211              -10.21627784               -6.50277801               24.93348060                2.18803238
              22.68233633                7.64119189               67.84889370                0.02876105                4.16667038                0.61680735              -15.87661683               -3.07687729               17.65974010                7.14470209
              23.70241958                7.11337755               67.51490180                0.62560561                2.00832488                0.14108614              -13.80281705               -2.05670179                7.37797806                4.90958944
              13.85508842               13.33127084               70.09369829                0.84820755                0.11188337               -0.03896603                0.07348445               -0.06584279                0.07057317                0.61411429
              14.85620725               12.88719245               69.63998913                0.33068867                0.13934588                0.26363252               -0.83855749                0.01489832                0.83609052               -0.31399709
              15.85787534               12.44366823               69.20154324                0.00010000                2.06249816                0.52848387               -1.42973548               -2.09060772                7.79410715               -0.37707825
              16.89745722               11.95881761               68.88699853                0.00010000                4.25444614               -1.45526538                0.30130239               -2.34393090               15.20641695               -1.48814085
              17.94296426               11.45213011               68.60613054                0.00010000                4.70843691               -1.30027719               -1.52821469               -2.31748050               17.72098281               -1.61437809
              18.99162596               10.92790678               68.35246113                0.00010000                5.12146027               -0.64138621               -4.18537594               -2.63012939               17.64077542               -1.04808249
              20.04539347               10.38553417               68.11218517                0.00010000                5.31036238                0.06065510               -6.21216263               -2.91247523               16.50642582               -0.26665332
              21.09783320                9.82839935               67.88659896                0.00010000                5.13724098                0.76965359               -7.91727051               -3.26860835               16.08950862                0.68934784
              22.14813829                9.25566121               67.69129590                0.00010000                6.10987555                1.31186915               -9.87444685               -4.92370132               23.05916128                2.36774919
              23.22003071                8.64743009               67.66200798                0.07050379                3.84916320                0.59242427              -13.15020588               -3.41481908               15.24735617                4.93680767
              24.22512155                8.11532225               67.30603498                0.66608469                0.50908355                0.17130508              -10.39191454               -0.42488740                3.95661977                4.11423134
              14.29706068               14.33108907               69.96307593                0.91164018                0.16389737               -0.01817742               -0.05153362                0.12071710                0.33177125                0.55330513
              15.29869966               13.89032398               69.50630726                0.66509329                0.12527981                0.31315234               -1.11378077                0.17306562                1.51143775               -0.32448131
              16.29956628               13.44956558               69.07312299                0.44511722                4.02611885                0.58973421               -1.57540294               -3.50731918                8.29777126               -0.17651783
              17.37922204               12.93679571               68.75388793                0.36498061                7.24893845               -2.20218977               -0.32787605               -2.54215999               14.58407936                0.16902231
              18.44454505               12.43519274               68.46934001                0.36082025                6.45447579               -1.69373687               -1.45236238               -0.74310569               16.78359232               -0.63558585
              19.50831155               11.91877202               68.20689773                0.36369514                6.60579973               -0.91347570               -4.00854759               -0.88070796               15.70523850               -0.30081533
              20.57666104               11.38420739               67.95424948                0.37377828                6.65425296               -0.13267787               -5.83887329               -1.07401918               13.55730993                0.09922378
              21.64139661               10.83475648               67.71040905                0.39114271                6.24601837                0.63571262               -7.35640661               -1.25111098               12.00124615                0.84226551
              22.70158141               10.27205836               67.49078278                0.41688365                5.64911471                1.63971535               -9.23794026               -3.74149246               18.73261202                2.04352554
              23.75437890                9.65304038               67.44365220                0.54510582                2.82780466                0.56102923              -12.63969909               -4.32791662               13.73047488                6.40262745
              24.75813750                9.11680365               67.08413488                0.84135589                0.37586006                0.14813974              -10.09510332               -0.32207772                2.53141808                6.41217093
              10.20148706                4.48465174               72.26729023                1.00000000               -0.30369919               -0.35600686                1.24247426               -0.09546613               -0.39631375                0.51209647
              11.19845007                4.02148223               71.84761038                1.00000000               -0.23751325               -0.20503549                0.76033876               -0.06907113               -0.47700477                0.06022667
              12.19673680                3.55787677               71.42566243                1.00000000               -0.10400271               -0.05837774                0.28319730               -0.06987689               -0.49009082               -0.06477351
              13.19637002                3.09350392               71.00562460                0.61434816               -0.00830652                0.09491156               -0.20213820               -0.13628450               -0.43883017               -0.39930628
              14.19657067                2.62728428               70.58514338                0.46530029                0.08123622                0.27210495               -0.70549585               -0.18223390               -0.34949061               -0.29889680
              15.19799474                2.15915760               70.16766853                0.20524896               -0.59979212                0.41802513               -1.24675829               -1.09349803                0.52219139               -0.57231534
              16.18457482                1.67186642               69.76587576                0.00010000               -9.20632308                1.44902594               -1.61820706              -17.19452584               12.75838235               -1.95938679
              17.01386828                0.85127728               69.60028603                0.00010000               -8.46865515                2.64821697               -2.68679758              -16.71548826               23.96292226                2.67885698
              18.01520172                0.04739573               69.37229593                0.00010000                7.10865106               -0.93734668               -2.86852324              -13.84240601               19.33209877                3.12864431
              19.15604130               -0.74272155               69.10058462                1.00000000                7.32064395                0.63336061               -1.71721392              -12.92750091                7.90168052               -0.27717806
              20.16161460               -1.28207970               68.66888633                1.00000000                0.55733003                0.77206082               -2.12108969                0.23000897                0.04049352               -0.42266100
              10.66370191                5.48109167               72.13630945                1.00000000               -0.25550710               -0.33373351                1.09833539               -0.01845062                0.03408471                0.72255439
              11.66114684                5.01943187               71.71643205                1.00000000               -0.18373667               -0.18605131                0.61633525                0.00573344                0.11130031                0.08606758
              12.66002718                4.55729299               71.29752112                1.00000000               -0.04217122               -0.03874461                0.13663190                0.00360682                0.14748316               -0.25853824
              13.66030342                4.09445304               70.87836689                0.66281594                0.09471559                0.10487277               -0.34014695               -0.04164876                0.29315823               -0.38235421
              14.66192149                3.63000533               70.46294384                0.58587783                0.22326353                0.26505538               -0.87281534               -0.07316512                0.37584637               -0.27196718
              15.66476869                3.16333785               70.04656576                0.33711727                0.23241170                0.41992741               -1.41017769               -0.52325631                0.56926703               -0.47247168
              16.66656973                2.68635668               69.63677838                0.00010000               -0.29099722                0.97676613               -1.99836996              -16.47834838               13.58389376               -0.99961881
              17.65894874                1.87775945               69.48359638                0.00010000                0.36036749                0.22690093               -4.19259635              -25.19201948               21.93377380                5.59503083
              18.67377708                1.03802226               69.22640745                0.00010000                1.62776316                1.20937144               -4.87734695              -22.03880138               13.29151123                8.26798003
              19.69150401                0.26361206               68.88351033                0.74763117                1.47478845                0.19926884               -3.24664096              -11.72921087                4.66991444               -2.11959203
              20.70327284               -0.27435909               68.45114714                1.00000000                1.17688370                0.28270096               -3.69250123               -0.11878412               -0.17930509               -2.52012183
              11.12443765                6.47797707               72.00865280                1.00000000               -0.20742329               -0.28448974                0.94728822               -0.02187963                0.17981548                0.84696020
              12.12236341                6.01776120               71.58545402                1.00000000               -0.13249406               -0.14735221                0.47060449               -0.00066745                0.37819326                0.00160152
              13.12178777                5.55710188               71.16573452                0.00010000                0.02306467                0.00739245               -0.00873947               -0.02414149                0.86186707               -0.70561809
              14.12282471                5.09560138               70.75229171                0.00010000                0.22173952               -0.52393092               -0.46940732               -0.88787158                1.34627529                1.12233392
              15.12622256                4.63258539               70.34285078                0.00010000                0.41767767               -1.08541744               -1.02034371               -1.51716291                1.29048112                3.24169179
              16.13117826                4.16755615               69.92976779                0.00010000                0.71818507               -2.22653907               -1.56384000               -2.15269470                1.48303596                6.45395332
              17.14058626                3.69140175               69.52630037                0.00010000                1.35920251               -6.23842190               -2.17291061              -19.05613111               17.85125179               12.51614103
              18.15836231                2.85581530               69.44265182                0.00010000                2.39934140               -0.44141616               -5.78598519              -33.00576441               26.87427557               10.89368548
              19.18857308                2.07158316               69.19660809                0.00010000                3.77380647                5.17322367              -12.80864166              -34.72725796                4.25936597               15.20473475
              20.23383844                1.26126383               68.63028476                0.07061944                2.33040684                8.77809497               -4.62789839              -21.75562442               -5.29019753               25.90409989
              21.23518122                0.72357432               68.19304426                0.64707535                0.13427821                7.77668551               -2.89357095                2.31863015               -0.58983349               27.27483327
              11.58369606                7.47540187               71.87945179                1.00000000               -0.16873757               -0.22893952                0.79863313               -0.02650718                0.28838084                0.70097031
              12.58200868                7.01648483               71.45236507                0.45133170               -0.09959431               -0.10855079                0.32614759                0.00688364                0.49363538               -0.37472049
              13.58170417                6.55744084               71.02896586                0.00010000               -0.74731007                0.06880533               -0.13974385               -0.70656823                3.19660365               -1.18144569
              14.56706248                6.08397442               70.65610565                0.00010000               -1.10403514               -0.74705195               -0.70584497               -2.29460427                6.19679801                1.97206509
              15.55962347                5.60829698               70.29247431                0.00010000               -0.20820219               -2.01493400               -1.49531313               -3.57327431                7.73076742                5.68982286
              16.56289843                5.11880707               69.94939424                0.00010000                1.87822422               -4.50947238               -2.53594306               -7.43628603               12.01174636               10.94020252
              17.59718795                4.56158825               69.67007490                0.00010000                2.78768047               -9.01021359               -4.30584459              -17.11444972               17.84427678               17.85739601
              18.61865204                3.86893113               69.44016969                0.00010000               -1.17022830                1.57766041               -7.82627964              -26.14590982               22.88971931               11.57408333
              19.57378339                3.14148674               69.24531254                0.00010000               -0.71258422                8.67889604              -12.85359479              -28.94464835               25.52462301               17.14378185
              20.60440036                2.43917396               69.00744390                0.00010000               12.56205425               20.83404672              -65.97978944              -20.06694632               19.81633301               31.10511281
              21.82502447                1.88117462               68.58799354                0.58243249               22.06241102               22.40109015              -73.70629955               -5.31062827                7.86308157               33.17245111
              12.04174160                8.47339828               71.74838882                0.91710903               -0.12794809               -0.17226469                0.66240466               -0.01867229                0.03075500                0.59879091
              13.04046212                8.01559018               71.31369114                0.29995807               -0.07873958               -0.07760980                0.17557456                0.05867045                0.50060782               -0.55412435
              14.04016681                7.55847799               70.88807456                0.00010000               -0.71928159                0.07990438               -0.29342546               -0.90203103                5.22588280               -1.65362409
              15.02607648                7.08066034               70.54811752                0.00010000               -1.01211915               -0.21082341               -1.01695226               -2.17902087               10.13197045                0.69543409
              16.01992442                6.59228671               70.22145000                0.00010000                0.15423947               -1.30472858               -2.02277101               -3.74528284               12.04613162                3.31353166
              17.02916127                6.07736670               69.92038530                0.00010000                1.41243906               -3.04562562               -3.37280381               -7.41224699               15.08426597                6.15631727
              18.04817320                5.51119747               69.65553425                0.00010000                1.31921744               -3.10405591               -5.36996790              -13.95688666               19.06921714                7.50191857
              19.05554562                4.88736851               69.43300744                0.00010000               -0.43679589                2.15240133               -8.73453918              -18.46831135               25.01792361                8.45946456
              20.03943729                4.24516108               69.27570796                0.00010000                1.86330051                9.08546187              -17.38164919              -13.36485036               33.83811832                9.05778201
              21.09281163                3.67794476               69.18421913                0.00010000               10.27650261               17.02792250              -43.79315562               -5.50855980               26.38192047               12.29199801
              22.24496734                3.17159612               68.86930612                0.51222358               15.21557052               19.77907278              -46.67140893               -6.99271010               17.22853750               16.37294652
              12.49893880                9.47195658               71.61683097                0.91257521               -0.08364169               -0.13279087                0.53341835               -0.02822222                0.00253364                0.60963857
              13.49810238                9.01493263               71.17683166                0.28020323               -0.01727020               -0.04008577                0.02887140                0.07310689                0.28194220               -0.42662363
              14.49859339                8.55903893               70.74218004                0.00010000               -0.42145195                0.06438191               -0.45714872               -0.96608649                6.52364549               -1.77538855
              15.48967334                8.07975795               70.42738585                0.00010000               -0.52909699               -0.00378361               -1.28153755               -2.45526613               12.94926380               -0.58573552
              16.48801145                7.58220241               70.12415003                0.00010000                0.30346934               -0.64621278               -2.39081098               -4.26867084               14.38362262                0.88786908
              17.49574273                7.05789455               69.84167504                0.00010000                1.00184789               -1.19151932               -3.85281866               -7.32490780               16.59239786                2.29078203
              18.50804841                6.49950713               69.58753938                0.00010000                0.97897428               -0.38337921               -5.86750718              -10.83827501               19.58543147                3.28488357
              19.51532221                5.91197915               69.36913166                0.00010000                0.39308552                2.46577405               -9.15978030              -12.23972738               24.32651603                3.66383900
              20.51591012                5.32319597               69.20763537                0.00010000                2.62359549                6.21133896              -15.19767770               -8.55540319               28.70397556                2.64367132
              21.56779412                4.77973241               69.06455045                0.00010000                9.09787165                7.41056800              -32.21497836               -4.17606198               20.84267054               -1.39327754
              22.69786755                4.27675607               68.73927999                0.48763984               13.00734309                7.37017207              -35.50061938               -4.64524260               12.60939104               -0.68189526
              12.95522505               10.47074246               71.48580468                0.92683084               -0.03831486               -0.11270890                0.40886924               -0.03546529               -0.01180660                0.66800575
              13.95484190               10.01478847               71.04055646                0.28952511                0.03973510                0.01754524               -0.13438723                0.05740070                0.19392956               -0.38819111
              14.95601975                9.55976562               70.59926875                0.00010000               -0.05171096                0.12152992               -0.65671514               -1.04098969                7.26561454               -1.54567399
              15.95380768                9.08058467               70.29578039                0.00010000                0.01973249                0.15855366               -1.37116203               -2.61744426               14.51678837               -1.57535208
              16.95641440                8.57936245               70.00479276                0.00010000                0.57753575               -0.07477387               -2.51508713               -4.42899249               15.71363037               -0.91812937
              17.96535840                8.05353631               69.73193795                0.00010000                1.04543513               -0.07775695               -4.03673149               -6.58184315               17.26566642               -0.04024848
              18.97732311                7.50352989               69.48156550                0.00010000                1.08519147                0.70324387               -6.00170118               -8.44977449               19.28594234                0.63707787
              19.98706223                6.93668399               69.26014431                0.00010000                1.16264304                2.33991263               -8.75611559               -8.94372401               22.08110134                0.87427016
              21.00057597                6.36938786               69.07402545                0.00010000                3.43340331                3.87578521              -13.83446339               -6.98590919               23.98229164                0.32235934
              22.05573030                5.82615612               68.88368693                0.00010000                7.87195948                3.70521777              -24.31610945               -3.78040519               16.80211536               -0.26186647
              23.15801516                5.31899956               68.55321966                0.48486162               10.22848619                3.27388763              -28.00033557               -3.09963100                9.02325510                0.84723658
              13.41013747               11.46970240               71.35512660                0.93467642                0.00897553               -0.09007272                0.28344735               -0.04245882               -0.00959700                0.72501177
              14.41022723               11.01528353               70.90450133                0.30253025                0.09199630                0.08275653               -0.31471856                0.03590382                0.22970672               -0.39373458
              15.41197740               10.56146953               70.45860122                0.00010000                0.37502001                0.23505834               -0.90897521               -1.11795961                7.68341964               -1.39545334
              16.41772763               10.08292903               70.15729446                0.00010000                0.72512802                0.22108953               -1.29695600               -2.60109385               15.27598942               -2.05727970
              17.42647996                9.58070693               69.87101339                0.00010000                1.11053984                0.13561726               -2.39079719               -4.11534554               16.41316972               -1.90915078
              18.43993842                9.05633942               69.60186611                0.00010000                1.47126430                0.34749882               -3.99063694               -5.48675481               17.45715693               -1.30091237
              19.45590524                8.51357200               69.35123637                0.00010000                1.53256700                1.05277304               -5.90167917               -6.45790333               18.53001130               -0.68157079
              20.47058976                7.95877740               69.12212582                0.00010000                1.54072776                2.12754599               -8.34627612               -6.64287895               20.25461811               -0.30729000
              21.48671980                7.40071168               68.92335472                0.00010000                3.59922754                2.96275385              -12.43421200               -6.04327411               21.76152208                0.43589031
              22.54257432                6.85383676               68.72720501                0.00010000                8.17341280                3.02998135              -24.02180483               -3.69230173               15.22421559                3.84173233
              23.65018806                6.34223382               68.39735041                0.49045564               10.76137408                2.66935796              -27.19858485               -1.34959849                9.05365393                5.22383563
              13.86321361               12.46894100               71.22478699                0.93928784                0.05792437               -0.05676762                0.15354058               -0.04860313               -0.00178747                0.75935396
              14.86379285               12.01644360               70.76834795                0.32264842                0.14007311                0.15284551               -0.51811735                0.02700619                0.37475977               -0.43438362
              15.86601507               11.56446679               70.31947989                0.00010000                0.93777763                0.38304304               -1.25266718               -1.31569556                8.05168945               -1.07621582
              16.88254841               11.08500646               70.01666168                0.00010000                1.73410159                0.04088137               -1.13887749               -2.55091350               15.61980662               -1.95872468
              17.90069710               10.58207480               69.73008424                0.00010000                2.01049122               -0.10667171               -2.12138933               -3.33593642               16.61888320               -2.02084589
              18.92275823               10.06048629               69.46063999                0.00010000                2.25149740                0.29719651               -3.78467796               -3.99480442               17.25779566               -1.61941038
              19.94572705                9.52458535               69.20696538                0.00010000                2.21533734                1.02584187               -5.69985811               -4.39680732               17.56636005               -1.07031927
              20.96706498                8.97923491               68.97001004                0.00010000                1.94620382                1.95072836               -7.95493701               -4.46173077               18.69951121               -0.43188453
              21.98465113                8.42864294               68.76535501                0.00010000                3.66485685                2.87426338              -11.44949462               -3.94781791               20.16253218                0.85614993
              23.04036211                7.88675575               68.57482000                0.00010000                8.47889681                3.63543392              -24.74010759               -2.30515260               13.45218154                5.68019671
              24.15422906                7.37238672               68.24952704                0.50273186               11.38669497                3.35138409              -26.06115098               -1.24224028                9.17335309                7.83972815
              14.31416022               13.46856705               71.09425268                0.85493595                0.10813430               -0.01769529                0.02105938               -0.04653353                0.05191959                0.70637706
              15.31524157               13.01834045               70.63186628                0.25899917                0.14702027                0.22753596               -0.74371486                0.05409258                0.87690864               -0.46543569
              16.31710063               12.56913039               70.18612515                0.00010000                1.69298938                0.54794033               -1.54059605               -1.78880197                8.62284910               -0.67484061
              17.34910135               12.08374665               69.87795684                0.00010000                3.35903869               -0.83514501               -1.13817622               -2.05203880               15.62314934               -1.21918180
              18.38428140               11.57857350               69.58879484                0.00010000                3.42152145               -0.62104622               -1.87945165               -2.01133187               16.35439066               -1.29934399
              19.41753178               11.06228335               69.31593122                0.00010000                3.24695394               -0.06151868               -3.49706559               -2.03525177               16.50358480               -1.14434512
              20.44922048               10.53408884               69.05632747                0.00010000                2.98828918                0.73807657               -5.33324694               -2.16151312               16.15755849               -0.81787395
              21.47729757                9.99779197               68.81054987                0.00010000                2.55110592                1.72455287               -7.42213131               -2.11537592               16.67034055               -0.30501887
              22.50024260                9.45819695               68.59575671                0.00010000                3.77149562                2.80446443              -10.68437090               -1.68458043               18.50769161                0.92144440
              23.55272748                8.92654544               68.41264624                0.00010000                7.69193553                5.08960171              -23.39419391               -0.92560132               12.29765322                5.12367356
              24.65408131                8.40926151               68.09943133                0.51827667               10.13538312                4.78968215              -23.30150705               -1.44926188                8.81188204                7.30806284
              14.76273615               14.46858710               70.96236167                0.91367383                0.15752176                0.00200494               -0.10777305                0.09831430                0.33492099                0.66073458
              15.76431136               14.02099432               70.49571398                0.62073401                0.10483389                0.26538722               -0.95865019                0.24890482                1.66887518               -0.50179682
              16.76483282               13.57542560               70.05597742                0.39845244                3.38765791                0.62952078               -1.78816677               -2.86131831                9.50210047               -0.57941447
              17.83206452               13.06830356               69.74402296                0.36481966                5.85504743               -1.54430950               -1.11407014               -1.99226934               15.41784840               -0.33444054
              18.88193377               12.56965387               69.45228581                0.36088726                4.72366636               -0.89196248               -1.72535019               -0.68714505               15.67382797               -0.38969488
              19.92653785               12.05925591               69.17414699                0.36355382                4.25271949               -0.30274318               -3.04299528               -0.61474270               15.10936762               -0.41739908
              20.96698816               11.53934688               68.90496990                0.37294560                3.70557527                0.52580409               -4.53127564               -0.49972925               13.79775669               -0.24661828
              22.00064935               11.01372596               68.64449236                0.38922332                2.76089435                1.59339919               -6.11788013               -0.39555400               13.21825015                0.08799118
              23.02220605               10.48473222               68.41034051                0.41323823                3.50680857                2.65352786               -8.67480342                0.93743615               13.89880425                1.01638455
              24.07078553                9.98854778               68.20360295                0.47090803                6.88028226                6.20023434              -20.87133971                0.97821185                8.95627518                4.90951126
              25.15981169                9.46818036               67.88567243                0.76367055                8.90261686                5.89188576              -20.69855262               -1.46370345                5.85125495                7.07588479
              10.61964734                4.62142568               73.27893199                1.00000000               -0.27124979               -0.31194931                1.08780923               -0.07791250               -0.39084907                0.50429254
              11.61693484                4.15396970               72.85490649                1.00000000               -0.21874952               -0.18934841                0.69929163               -0.05366936               -0.47026575                0.05818825
              12.61527235                3.68611163               72.42865015                1.00000000               -0.11222487               -0.06990952                0.31357573               -0.05439026               -0.48436293               -0.06280680
              13.61469034                3.21754659               72.00423518                0.62067655               -0.03792366                0.05325507               -0.07807662               -0.11522965               -0.44188153               -0.38194228
              14.61451387                2.74731433               71.57924512                0.46467973                0.03212999                0.19522211               -0.47993225               -0.15811122               -0.37519789               -0.30132985
              15.61533294                2.27540255               71.15689676                0.18983005               -0.80000317                0.30560394               -0.91590185               -1.17258755                0.57380443               -0.56413911
              16.59851381                1.78252759               70.75205734                0.00010000               -8.04746948                1.47658305               -1.15732402              -14.92660816               12.56222630               -2.11616474
              17.45438355                1.00096327               70.57566785                0.00010000               -6.81229872                1.85857126               -2.41650278              -14.26532355               23.86649255                2.14715424
              18.46226784                0.23249180               70.34494095                0.00010000                6.71697861               -1.20052741               -2.71889105              -11.30891669               20.05121432                2.81219588
              19.58872312               -0.51955206               70.08055706                1.00000000                6.69320575                0.74616065               -2.29694988              -10.54278712                8.46806503               -0.26113078
              20.59613195               -1.05955992               69.64532774                1.00000000                0.74088265                0.83228804               -2.59209496               -0.14156529                0.05768485               -0.38650976
              11.08632418                5.61830618               73.14658503                1.00000000               -0.22690150               -0.29350483                0.95824706               -0.01547774                0.03310271                0.71155495
              12.08405517                5.15207622               72.72236353                1.00000000               -0.16920915               -0.17265872                0.56993349                0.00682791                0.11068411                0.08318960
              13.08294000                4.68541253               72.29912883                1.00000000               -0.05592378               -0.05250889                0.18346837                0.00418674                0.15076338               -0.25616653
              14.08293669                4.21807914               71.87569250                0.69172382                0.05323918                0.06019781               -0.19780534               -0.03699414                0.27576910               -0.35920216
              15.08400478                3.74926656               71.45549841                0.60394622                0.15318730                0.18883837               -0.62332975               -0.06867061                0.33315945               -0.26247476
              16.08600044                3.27845858               71.03428027                0.33563327                0.12312912                0.30993035               -1.05622697               -0.53154540                0.50069447               -0.45434751
              17.08646737                2.79729342               70.61907416                0.00010000                0.03738865                0.92602799               -1.55340187              -14.61574333               12.73171574               -1.06402290
              18.08674821                2.01954898               70.44490431                0.00010000                1.14844841               -0.35667607               -3.49772710              -21.44346486               21.28808064                5.04685746
              19.10943633                1.22048652               70.18631141                0.00010000                2.12864497                0.23473285               -3.66034850              -17.74521442               14.11947357                5.57007115
              20.12932111                0.48790954               69.85709441                1.00000000                1.26439102                0.64532124               -2.06668689               -9.45161991                5.51613386               -0.32469807
              21.13472416               -0.05123704               69.42106654                1.00000000                0.54030438                0.70164431               -2.33866116               -0.19053033               -0.20059470               -0.53960683
              11.55179771                6.61555558               73.01750763                1.00000000               -0.18326619               -0.25273604                0.82417260               -0.01955640                0.17628945                0.83619276
              12.54996505                6.15051653               72.59000793                1.00000000               -0.12222739               -0.13762901                0.43949461               -0.00102177                0.37301834               -0.00136797
              13.54935316                5.68506145               72.16596696                0.00010000                0.00656964               -0.01120816                0.05333150               -0.02794634                0.86732097               -0.69710101
              14.55009644                5.21875055               71.74841922                0.00010000                0.17039294               -0.56834452               -0.30904064               -0.83668364                1.32034946                1.07052409
              15.55276102                4.75109110               71.33402346                0.00010000                0.32893660               -1.12766439               -0.75321284               -1.35462199                1.22560702                3.06619743
              16.55667517                4.28160115               70.91602913                0.00010000                0.61737641               -2.22419822               -1.19268759               -1.81110760                1.38486312                6.02393843
              17.56510855                3.80104815               70.50685239                0.00010000                2.28229904               -6.01976851               -1.72509482              -16.70762765               16.12846587               11.49871175
              18.60232115                2.99382975               70.38569403                0.00010000                3.69472195               -1.24735669               -5.50839048              -28.68898260               23.32653125                9.99947212
              19.63900299                2.23718645               70.08542608                0.00010000                3.45465689                3.32702260               -8.77399581              -25.15317914                7.28699386               13.69757717
              20.67141429                1.49335436               69.63272643                1.00000000                1.58057629                0.35510226                0.04246182              -10.10151659               -0.79476854                0.51189702
              21.67061451                0.95447297               69.19498165                1.00000000               -0.07997772                0.36171227               -0.00878052               -0.15074828               -0.06114553                0.29687428
              12.01601115                7.61325146               72.88690859                1.00000000               -0.14822936               -0.20534769                0.69214524               -0.02577765                0.28507377                0.70244426
              13.01452886                7.14932364               72.45554913                0.43036223               -0.09320488               -0.10071441                0.30992362               -0.00080365                0.49273092               -0.38136641
              14.01414706                6.68518837               72.02794533                0.00010000               -0.71777448                0.04481049               -0.06694798               -0.71555610                3.12559645               -1.18126786
              15.00017337                6.20671225               71.64939161                0.00010000               -1.00426585               -0.81455510               -0.63248505               -2.22863526                6.06445343                1.85607796
              15.99406174                5.72671327               71.27830612                0.00010000               -0.01760649               -2.04723712               -1.36857040               -3.32443109                7.51999666                5.33375817
              16.99982124                5.23397462               70.92506339                0.00010000                2.30122395               -4.42286698               -2.39586594               -6.80578344               11.54227721               10.19171417
              18.04008622                4.67689805               70.62768850                0.00010000                3.85045068               -8.66417618               -4.30800405              -15.48070054               16.57501159               16.40704050
              19.07683025                3.99460185               70.36178452                0.00010000                3.33809599                0.63319103               -7.62635133              -23.64067467               20.56461644               11.00582303
              20.10684814                3.28702697               70.11269084                0.00010000                6.65870067                5.72068698              -14.49799640              -29.30377488                4.71218670               14.53946750
              21.21000427                2.49501159               69.42170347                0.00010000                5.13119221               11.49905668              -29.21630781              -20.68188259               -4.26590644               22.57899396
              22.20947198                1.95599721               68.98308126                0.53375448               -0.05322855               12.63659702              -30.17352354               -5.07151460               -2.71648431               25.94892940
              12.47913780                8.61144862               72.75456345                0.92547396               -0.11257350               -0.15444918                0.57049342               -0.02071023                0.02064474                0.61698084
              13.47801206                8.14850224               72.31543064                0.28261780               -0.07421861               -0.07147164                0.17367638                0.03735832                0.49702758               -0.56663282
              14.47765343                7.68595766               71.88552454                0.00010000               -0.70066132                0.04706778               -0.21623917               -0.95378270                5.09887208               -1.70024595
              15.46399884                7.20245945               71.53845823                0.00010000               -0.93216991               -0.30409747               -0.94211744               -2.21509434                9.88516002                0.55509540
              16.45901003                6.71014636               71.20204849                0.00010000                0.31879420               -1.35135802               -1.92667026               -3.67730879               11.71819910                3.00717128
              17.47037472                6.19314381               70.88740690                0.00010000                1.79286403               -2.96808722               -3.33952187               -7.21299508               14.57306890                5.59446427
              18.49486731                5.62776462               70.60108774                0.00010000                2.45020055               -2.96000567               -5.52990648              -13.67127693               18.21158776                6.80101122
              19.51937873                5.00649357               70.34508593                0.00010000                2.88252196                1.79366567               -9.28354346              -19.13086287               21.06933683                7.74674908
              20.55251775                4.35160019               70.07975014                0.00010000                3.47138373                7.53796696              -17.62257640              -19.86526177               23.82546267                8.05890379
              21.58880641                3.72333550               69.81716073                0.00010000                4.73476195               19.04812182              -31.75167445              -15.72317855               16.40151830               25.01419915
              22.64721299                3.20720491               69.42803808                0.46001878                5.84065804               20.98144622              -37.06338959               -6.82599010                2.85461418               27.98244048
              12.94148972                9.61016248               72.62178017                0.92366412               -0.07227264               -0.11458928                0.45189583               -0.02816325               -0.00125015                0.64264338
              13.94076699                9.14789421               72.17715572                0.26595388               -0.01877590               -0.03943528                0.03969708                0.03758676                0.27568707               -0.44994669
              14.94111420                8.68612973               71.73785267                0.00010000               -0.45421018                0.02235604               -0.39711978               -1.05550803                6.37285186               -1.88273064
              15.93168279                8.20063030               71.41538458                0.00010000               -0.56415011               -0.08610357               -1.18135011               -2.53838528               12.65151191               -0.64340781
              16.92983120                7.69968611               71.10116293                0.00010000                0.31301438               -0.66096888               -2.29853373               -4.23134137               14.00346305                0.72700058
              17.93794307                7.17461288               70.80376651                0.00010000                1.17398641               -1.06105982               -3.84993547               -7.25108678               16.13634618                1.94627893
              18.95331092                6.61769793               70.52799898                0.00010000                1.62171770               -0.13571749               -6.12557132              -11.02333445               18.83886277                2.80511156
              19.97037743                6.03047516               70.27431591                0.00010000                1.96950256                2.81409446               -9.81024573              -13.36927859               21.91394036                3.07096602
              20.99270098                5.43778631               70.03822179                0.00010000                3.47792780                7.50849169              -16.72906565              -12.58542463               22.82051512                3.68376349
              22.03993598                4.87597403               69.77110623                0.00010000                5.62561918               12.00741394              -26.11794876               -7.40301925               15.51913229                1.71153083
              23.10521336                4.37562613               69.40891683                0.45218219                6.52773752               12.92145336              -29.75811504               -3.65853059                6.07711388                2.60790089
              13.40311107               10.60915684               72.48955209                0.93993847               -0.03145257               -0.08854335                0.33446361               -0.03220796               -0.01268460                0.70960153
              14.40279655               10.14771354               72.03931148                0.27519044                0.03480475                0.00893477               -0.10719189                0.01603813                0.18175796               -0.42870171
              15.40380717                9.68640478               71.59283540                0.00010000               -0.15608992                0.07422936               -0.60081111               -1.13323363                7.15665919               -1.71523197
              16.39967475                9.20073737               71.28247892                0.00010000               -0.17032717                0.11405538               -1.32095161               -2.68047571               14.25863952               -1.50279471
              17.40040063                8.69692698               70.98044730                0.00010000                0.38332033               -0.02125670               -2.44998302               -4.30891610               15.30095519               -0.90315010
              18.40734116                8.17192262               70.69224791                0.00010000                0.90688537                0.13602244               -4.03125198               -6.42809104               16.83779964               -0.24555698
              19.41853833                7.62505027               70.42107633                0.00010000                1.22818118                1.11638068               -6.22889532               -8.49418311               18.77839283                0.23443064
              20.43190478                7.06277546               70.16825813                0.00010000                1.83860286                3.16669884               -9.56676299               -9.38608248               20.67945850                0.42211762
              21.45531039                6.50177003               69.92408941                0.00010000                3.55007121                5.58429479              -15.00711449               -8.09095365               20.34037142                0.04111902
              22.50290620                5.96348377               69.65079344                0.00010000                5.97138874                7.24107442              -21.91792830               -4.82292922               13.28372114               -0.44764634
              23.57473817                5.46563397               69.28335926                0.45132853                7.18319607                7.25218653              -25.20852659               -2.47518962                5.86083185               -0.09537011
              13.86373216               11.60839161               72.35763333                0.94796906                0.01076456               -0.06137284                0.21257503               -0.03426941               -0.00720000                0.76734390
              14.86383981               11.14807290               71.90155501                0.28637435                0.08467617                0.06425858               -0.26351601                0.00137679                0.19868096               -0.45162914
              15.86542569               10.68761431               71.44957542                0.00010000                0.18556317                0.17714342               -0.84301394               -1.16225089                7.68638350               -1.65342501
              16.86755107               10.20291141               71.14372609                0.00010000                0.35209721                0.26633882               -1.37236497               -2.58368886               15.15477644               -1.91086054
              17.87246763                9.69926097               70.84720462                0.00010000                0.68534434                0.30364668               -2.42213730               -3.87977637               15.96339503               -1.76404971
              18.88125796                9.17733332               70.56283441                0.00010000                1.00533945                0.66119062               -3.96381463               -5.19918085               16.99999740               -1.42932695
              19.89257442                8.64002555               70.29230224                0.00010000                1.23390328                1.57232647               -6.04186492               -6.23511196               18.23234781               -1.12429428
              20.90593603                8.09380914               70.03604506                0.00010000                1.87995824                2.97631067               -8.99346984               -6.49808531               19.37841391               -0.90124321
              21.93017359                7.54947221               69.78567317                0.00010000                3.68387138                4.43859798              -13.88599246               -5.53985814               18.66319575               -0.48081411
              22.97961345                7.02079551               69.50500360                0.00010000                6.06177915                5.29354111              -20.56532359               -3.22503108               12.07175776                0.29891191
              24.05140917                6.52066986               69.13942116                0.45312471                7.17957154                5.12286076              -23.86555535               -1.92584531                5.09271497                1.48541866
              14.32306310               12.60792938               72.22599623                0.95245149                0.05382781               -0.02839507                0.08517247               -0.03469445               -0.00215743                0.79816917
              15.32360138               12.14899871               71.76354013                0.30255844                0.13302703                0.12224042               -0.43012840                0.00257080                0.28885191               -0.50976136
              16.32572364               11.68994765               71.30700551                0.00010000                0.63764662                0.30297877               -1.15006650               -1.20592420                8.19359806               -1.38319245
              17.33635431               11.20606415               71.00312548                0.00010000                1.13297698                0.20806389               -1.38472583               -2.36241461               15.72414006               -1.85311460
              18.34838318               10.70299991               70.70793371                0.00010000                1.31193254                0.23403425               -2.28349701               -3.06538304               16.20581277               -1.88414924
              19.36259296               10.18514643               70.42382396                0.00010000                1.44885486                0.70897737               -3.73310751               -3.67980232               16.76475936               -1.73431458
              20.37736028                9.65649680               70.15105607                0.00010000                1.49517244                1.55733160               -5.67543266               -4.07465933               17.42831094               -1.54663390
              21.39249641                9.12230167               69.89024723                0.00010000                2.00832859                2.70037544               -8.33345028               -4.00400315               18.11702973               -1.28129966
              22.41752685                8.59054199               69.63560690                0.00010000                3.73557595                3.98161883              -13.06448004               -3.34624574               17.49632086               -0.49251361
              23.46720793                8.06935460               69.35409155                0.00010000                5.94728567                5.01625466              -20.10605379               -1.98775467               11.38706679                0.84737253
              24.53647257                7.56809119               68.99367878                0.45716415                6.92646336                5.23341253              -23.57589162               -1.30734856                4.44552718                2.42807809
              14.78089962               13.60782371               72.09411947                0.86332421                0.09733323                0.00782041               -0.04710006               -0.03103052                0.04692538                0.74504496
              15.78187296               13.15051771               71.62511484                0.23276474                0.16710678                0.17969681               -0.59862418                0.03551053                0.76632579               -0.54636594
              16.78424176               12.69367389               71.17073132                0.00010000                1.26887796                0.41625524               -1.41562194               -1.39346820                8.92895108               -1.04073540
              17.80725052               12.20707269               70.86423501                0.00010000                2.39179659               -0.40447516               -1.39484071               -1.74079647               16.01500136               -1.27527543
              18.83207769               11.70394166               70.56854151                0.00010000                2.34572539               -0.12915007               -2.09146990               -1.80227077               16.12856875               -1.24207195
              19.85416502               11.19151287               70.28251982                0.00010000                2.09241497                0.44230347               -3.37504478               -1.87738132               16.19101376               -1.23080171
              20.87392599               10.67117218               70.00552023                0.00010000                1.88228776                1.27466865               -5.11224085               -1.93928509               16.30093993               -1.17094165
              21.89181078               10.14781665               69.73815633                0.00010000                2.11348765                2.31648168               -7.48455192               -1.70865068               16.57992615               -0.99815557
              22.91619574                9.62910459               69.47760848                0.00010000                3.52491892                3.63382232              -11.87256214               -1.18879904               15.86076196               -0.45408865
              23.96230916                9.12112061               69.19412411                0.00010000                5.57966343                4.99812930              -19.38210959               -0.64009583               10.40287485                0.53372772
              25.02778901                8.62533811               68.84000484                0.46232441                6.54798557                5.88739732              -23.43819603               -0.85069591                4.33374862                2.10088071
              15.23705449               14.60808579               71.96092046                0.91669541                0.14069217                0.02620813               -0.17473777                0.06617187                0.33929490                0.70085934
              16.23846141               14.15259264               71.48713426                0.60429703                0.21224064                0.20749332               -0.75827164                0.16819374                1.52194985               -0.57945403
              17.24129930               13.69827276               71.03735965                0.37866966                2.64046018                0.45988662               -1.73700563               -2.02514556               10.11382084               -1.09161730
              18.29127062               13.19797465               70.73160653                0.36450472                4.32991401               -0.90980404               -1.26915356               -1.49078218               16.14615184               -0.41851630
              19.32789758               12.70041691               70.43483301                0.36096312                3.32721002               -0.35247446               -1.80902166               -0.61711836               15.82904990               -0.48641678
              20.35781482               12.19399250               70.14603783                0.36338626                2.71866104                0.24796258               -2.84718474               -0.55635764               15.39492381               -0.51536147
              21.38227080               11.68199018               69.86362396                0.37209436                2.12880890                1.08179966               -4.19204339               -0.43357845               14.90970919               -0.53423024
              22.40039099               11.16863130               69.58805144                0.38732478                1.90880539                2.08146574               -5.96967944               -0.08056572               14.59359373               -0.50414315
              23.42044691               10.66321843               69.31728671                0.40968879                2.88907484                3.41138471               -9.51609085                0.45941061               13.72727787               -0.17869422
              24.45817249               10.16931718               69.02622540                0.44061032                4.52883640                4.81965757              -15.87737426                0.71736841                8.53261936               -0.73996191
              25.51102364                9.68583913               68.67016383                0.73303316                5.28511488                6.05010240              -19.70104138               -0.02434214                2.97686453                0.95435936
              11.04172108                4.75943150               74.28904642                1.00000000               -0.23944868               -0.26843760                0.93730532               -0.06136808               -0.38835726                0.49914282
              12.03932659                4.28773192               73.86159622                1.00000000               -0.20001139               -0.17376968                0.63897570               -0.03939774               -0.46754912                0.05674181
              13.03772085                3.81566328               73.43193395                1.00000000               -0.11945846               -0.08104272                0.34193569               -0.03981134               -0.48261799               -0.06084499
              14.03693742                3.34295044               73.00406307                0.62771988               -0.06578619                0.01345173                0.04046150               -0.09442912               -0.44474835               -0.36517361
              15.03640513                2.86875110               72.57554474                0.46462896               -0.01394059                0.12263954               -0.26607284               -0.13295374               -0.39551232               -0.30234383
              16.03665861                2.39310780               72.14935050                0.17551399               -0.96784337                0.20107273               -0.60315037               -1.20725916                0.64398648               -0.55949798
              17.01704826                1.89550948               71.74272928                0.00010000               -6.91720470                1.47716941               -0.72421566              -12.51484340               12.16688471               -2.30583563
              17.89831452                1.15574745               71.55195597                0.00010000               -5.28557304                1.29229705               -2.29251124              -11.81467812               23.20277288                1.58244983
              18.91133680                0.42089873               71.31791811                0.00010000                6.33506489               -1.19601734               -2.69779379               -9.57435040               20.00925001                2.11273912
              20.02501581               -0.30101885               71.05464562                1.00000000                6.09450761                0.59675874               -2.56874871               -8.90373823                8.70522113               -0.05478907
              21.03322695               -0.84128750               70.61704443                1.00000000                0.82111363                0.64823605               -2.75157315               -0.21789169                0.00902932               -0.08576932
              11.51280698                5.75674713               74.15547439                1.00000000               -0.19902546               -0.25270703                0.82147051               -0.01320239                0.03138635                0.70389975
              12.51081672                5.28599422               73.72783072                1.00000000               -0.15467519               -0.15918441                0.52348217                0.00717910                0.10900043                0.08122781
              13.50971348                4.81485285               73.30119049                1.00000000               -0.06837515               -0.06599581                0.22696157                0.00463923                0.15372107               -0.25386501
              14.50944922                4.34308496               72.87441078                0.72065600                0.01417167                0.01811526               -0.06258673               -0.03187890                0.26401709               -0.33615635
              15.50999691                3.86997749               72.45047725                0.62180919                0.08788025                0.11752648               -0.38906872               -0.06233877                0.30085286               -0.25371147
              16.51120683                3.39511853               72.02544122                0.33499412                0.02915453                0.20719952               -0.72333037               -0.51541669                0.43545549               -0.44066498
              17.51058000                2.91028118               71.60571034                0.00010000                0.31331413                0.86260777               -1.12873594              -12.50028439               11.98483224               -1.16326229
              18.51747311                2.16867042               71.41364184                0.00010000                1.66982239               -0.84114642               -2.79465979              -17.66689441               20.50491986                3.89892723
              19.54397645                1.40893856               71.15320048                0.00010000                2.47992206               -0.08717316               -2.98432703              -14.38889618               14.94156506                3.71683495
              20.56707155                0.70494874               70.84217659                1.00000000                1.36701187                0.39557811               -1.43605562               -8.01860118                6.36598643               -0.07808257
              21.57131668                0.16519486               70.40437391                1.00000000                0.42451343                0.43922935               -1.57882582               -0.16434229               -0.01955993               -0.15077281
              11.98296284                6.75437736               74.02513626                1.00000000               -0.15983899               -0.21760963                0.70253732               -0.01743953                0.17260747                0.82888699
              12.98136445                6.28454823               73.59424391                1.00000000               -0.11199689               -0.12797186                0.40723102               -0.00120791                0.36809366               -0.00304619
              13.98072290                5.81434336               73.16680115                0.00010000               -0.00946215               -0.02974726                0.11128247               -0.02876691                0.87550422               -0.69089612
              14.98117520                5.34331275               72.74611090                0.00010000                0.12009413               -0.60139995               -0.15769011               -0.73501003                1.30270934                0.97121919
              15.98312478                4.87110163               72.32778653                0.00010000                0.24356954               -1.15151943               -0.50388857               -1.08531217                1.17407199                2.79808683
              16.98604659                4.39725179               71.90591404                0.00010000                0.51829481               -2.19274752               -0.84271931               -1.25926128                1.28805393                5.43582194
              17.99349068                3.91276164               71.49179847                0.00010000                3.01363251               -5.73937364               -1.28964264              -13.84701093               14.30937719               10.16978436
              19.04631924                3.13892453               71.33248401                0.00010000                4.68949435               -1.95073708               -4.76598711              -23.30687193               20.56196477                8.24037565
              20.08728056                2.41915527               71.02112817                0.00010000                3.10341250                1.45067306               -5.11831937              -18.39500440                9.23940161                8.07873802
              21.10838749                1.70689271               70.63113400                1.00000000                1.10836485                0.06853977               -0.25619592               -8.50189649                2.35650175               -0.01074138
              22.10944786                1.16749708               70.19286865                1.00000000                0.10603668                0.09509573               -0.31597214               -0.10843704                0.05767456               -0.09106610
              12.45211645                7.75239493               73.89329469                1.00000000               -0.12898843               -0.17555234                0.58523425               -0.02315058                0.28181528                0.70472786
              13.45082656                7.28343479               73.45856354                0.41685645               -0.08714133               -0.09486446                0.29243763               -0.00299455                0.49024867               -0.38591796
              14.45037362                6.81425791               73.02762690                0.00010000               -0.64179035                0.01111794                0.00092422               -0.69920349                3.01147412               -1.18631615
              15.43799076                6.33105696               72.64345594                0.00010000               -0.80110006               -0.87717378               -0.56108942               -2.06151365                5.81989564                1.66741935
              16.43435162                5.84694711               72.26510290                0.00010000                0.31854173               -2.07641534               -1.27681481               -2.87892119                7.10096667                4.86349614
              17.44436159                5.35126358               71.90147692                0.00010000                2.88077141               -4.33494676               -2.31537027               -5.79582931               10.53242282                9.20787537
              18.49196705                4.79549370               71.58391482                0.00010000                5.02902232               -8.29272090               -4.22711148              -13.01863224               14.44897602               14.67701981
              19.54494204                4.12965568               71.28764266                0.00010000                5.80705633               -0.45762121               -7.10819227              -20.27954855               14.73590411                9.44333828
              20.60810818                3.43795202               70.95535261                0.00010000                5.18748851                3.08264638              -11.61953698              -23.33724887                3.86139215               10.92420437
              21.64869181                2.70631953               70.42311774                0.00010000                1.99155110                6.09666378                0.28560902              -15.33443443               -4.64783555               16.74737927
              22.64793920                2.16709677               69.98452307                0.47816345               -0.07526111                6.89561400                0.26620380               -5.37942307               -0.01146190               17.57828561
              12.92042012                8.75086632               73.75979869                0.93606730               -0.09785386               -0.12870607                0.47596067               -0.01922469                0.01202219                0.62997029
              13.91944158                8.28265094               73.31716466                0.27461785               -0.06517328               -0.06909646                0.17386500                0.02082322                0.48754141               -0.57651301
              14.91911665                7.81456572               72.88374977                0.00010000               -0.60929242               -0.00922232               -0.13889249               -0.97168660                4.90702233               -1.76252822
              15.90725573                7.32576927               72.52927517                0.00010000               -0.68884579               -0.40939236               -0.90557685               -2.17949186                9.46375989                0.42587723
              16.90533974                6.82957332               72.18291660                0.00010000                0.71638386               -1.43017451               -1.91527277               -3.49346253               11.04615632                2.68726600
              17.92158341                6.31055286               71.85359486                0.00010000                2.46930956               -2.96422275               -3.38202665               -6.76970490               13.39506154                5.01497350
              18.95472593                5.74690722               71.54493612                0.00010000                3.83432729               -2.99364705               -5.59710836              -12.92357673               15.70143057                6.13608655
              19.99826996                5.12977210               71.24733657                0.00010000                4.45729049                1.02852945               -9.17504759              -18.38314263               16.13220378                7.03207245
              21.04387174                4.48080820               70.92325643                0.00010000                3.71420502                5.72899768              -13.59027419              -21.67620935               12.95988546                9.63443545
              22.07255406                3.82882599               70.54918564                0.00010000                1.82165894               13.70053896              -20.11137822              -15.83044539                7.25279810               20.02558041
              23.08030492                3.30540936               70.12803832                0.44490871                0.77508619               15.32480686              -22.02654715               -7.54919047                1.56537546               21.95894412
              13.38816270                9.74982081               73.62586889                0.93720397               -0.06190784               -0.08924951                0.36450268               -0.02517263               -0.00322441                0.66178793
              14.38754362                9.28205286               73.17762560                0.26190336               -0.01705692               -0.04179040                0.05618474                0.00024111                0.24960897               -0.46733608
              15.38782156                8.81407346               72.73423764                0.00010000               -0.40751494               -0.04137451               -0.31578223               -1.11574483                6.13566697               -1.99560591
              16.37939332                8.32286911               72.40375884                0.00010000               -0.40613880               -0.17910040               -1.15750614               -2.58085024               12.15794047               -0.68941294
              17.37969878                7.81834362               72.07817936                0.00010000                0.61201369               -0.71577856               -2.32150490               -4.17826062               13.26165950                0.59603402
              18.39163360                7.29197913               71.76467633                0.00010000                1.72887432               -1.04977911               -3.94833020               -7.14104520               14.95626089                1.71208812
              19.41427627                6.73562076               71.46502796                0.00010000                2.58723061               -0.14959902               -6.30458824              -10.97990207               16.66573269                2.54212314
              20.44337821                6.15022627               71.17292675                0.00010000                3.06269167                2.68125434               -9.83094504              -14.18602105               17.53586958                3.31169797
              21.47553010                5.55253198               70.87305406                0.00010000                3.20517641                7.09753298              -15.00555542              -14.44598097               16.10378939                4.80557573
              22.50748174                4.98033031               70.54219147                0.00010000                3.41292641               12.72399200              -20.27466077               -9.46791306               10.02940520                6.66365707
              23.54378863                4.47359291               70.14411769                0.44362906                3.63068967               14.05892333              -23.03937538               -4.18397824                4.36331591                7.61893352
              13.85545258               10.74908133               73.49249395                0.95501996               -0.02588239               -0.06078378                0.25305633               -0.02724844               -0.01228012                0.72915226
              14.85519375               10.28181514               73.03841262                0.27770945                0.02664614               -0.00152775               -0.06955930               -0.03139766                0.13902106               -0.45532967
              15.85598550                9.81373823               72.58725253                0.00010000               -0.19125901                0.00787258               -0.48672806               -1.19577210                6.92276756               -1.84229063
              16.85136857                9.32218726               72.26936136                0.00010000               -0.16604930                0.05980696               -1.31073713               -2.73399253               13.79591658               -1.47342539
              17.85266451                8.81525775               71.95579310                0.00010000                0.50583923               -0.02020478               -2.50340159               -4.28446144               14.58666679               -0.88083324
              18.86148536                8.28955728               71.65131291                0.00010000                1.21081131                0.20988522               -4.15471807               -6.40676769               15.79209635               -0.29533368
              19.87688074                7.74391524               71.35698760                0.00010000                1.80764817                1.27428065               -6.46614793               -8.65474035               17.03015568                0.18369925
              20.89763832                7.18339719               71.06880905                0.00010000                2.39836704                3.42685862               -9.79999041               -9.98737379               17.57597016                0.58012882
              21.92484808                6.62275886               70.77388316                0.00010000                3.22482697                6.35229659              -14.26583143               -9.22981451               15.76084371                0.84998125
              22.96213486                6.08330583               70.44532836                0.00010000                4.26260369                8.80932908              -18.81782981               -5.66956375                9.77372204                0.88040315
              24.01010016                5.58658783               70.04904913                0.44376011                4.79652940                9.40148859              -21.20977401               -2.70086921                4.38262454                1.03862787
              14.32215011               11.74860514               73.35937810                0.96336968                0.01086493               -0.03315390                0.13751158               -0.02677924               -0.00491034                0.78083868
              15.32225876               11.28202230               72.89923101                0.29381381                0.06919395                0.04367074               -0.19790616               -0.05036841                0.12769549               -0.48381958
              16.32353399               10.81423091               72.44174094                0.00010000                0.04675970                0.09544045               -0.66423314               -1.18204330                7.50056908               -1.80484925
              17.32319395               10.32406525               72.12984717                0.00010000                0.15527775                0.26239935               -1.38601867               -2.57784815               14.81874485               -1.84181105
              18.32663954                9.81793952               71.82257064                0.00010000                0.58233996                0.38985865               -2.51439912               -3.82190293               15.34844835               -1.66637829
              19.33484075                9.29617683               71.52258982                0.00010000                1.03510037                0.82786553               -4.10106885               -5.16937229               16.13809203               -1.40399213
              20.34734155                8.76110638               71.23039907                0.00010000                1.49731805                1.82597246               -6.28073751               -6.32120635               16.91841446               -1.16881330
              21.36478711                8.21876344               70.94225642                0.00010000                2.18418127                3.40502244               -9.34391442               -6.71560208               17.03915530               -0.98832971
              22.39102518                7.67957791               70.64563487                0.00010000                3.27371878                5.20492477              -13.42423814               -5.81807086               15.03019562               -0.85079599
              23.43026149                7.15651689               70.31589854                0.00010000                4.60910313                6.56384335              -17.57951377               -3.50292620                9.20100509               -0.63184020
              24.48320724                6.66162268               69.92003930                0.44470113                5.29457504                6.68883851              -20.08812421               -1.79617125                4.24560685               -0.24379647
              14.78808266               12.74841825               73.22649044                0.96763475                0.04779464               -0.00307116                0.01730003               -0.02507492               -0.00190969                0.80272574
              15.78856061               12.28268855               72.75974538                0.31418324                0.11095104                0.08983482               -0.32756381               -0.05368652                0.16568196               -0.54272758
              16.79030168               11.81564704               72.29647856                0.00010000                0.37711974                0.18653131               -0.86333511               -1.11139057                8.07564915               -1.53690379
              17.79610300               11.32743525               71.98896716                0.00010000                0.69065981                0.28474184               -1.41081251               -2.20974416               15.59805173               -1.80774593
              18.80411488               10.82305492               71.68441430                0.00010000                0.94140264                0.44466218               -2.41255706               -2.96961215               15.75266710               -1.78605040
              19.81493106               10.30611459               71.38597784                0.00010000                1.18775595                0.96383046               -3.87212237               -3.65438236               16.14422681               -1.70774308
              20.82787000                9.78043469               71.09345673                0.00010000                1.49618460                1.84978716               -5.87200398               -4.11778696               16.51179910               -1.64593539
              21.84485475                9.25149764               70.80334103                0.00010000                2.14316092                3.06305989               -8.69878375               -4.07783076               16.34269269               -1.57207373
              22.87073322                8.72685735               70.50406541                0.00010000                3.25884075                4.39287259              -12.59430686               -3.32250271               14.28005182               -1.42423885
              23.91003156                8.21458269               70.17269892                0.00010000                4.66159676                5.42846259              -16.74975689               -1.91828113                8.69030521               -1.08342535
              24.96396515                7.72036460               69.77800920                0.44639989                5.39335883                5.65856973              -19.58071840               -1.13243041                4.12932698               -0.61824857
              15.25310801               13.74854371               73.09331068                0.87292774                0.08482280                0.02920276               -0.10768883               -0.02188170                0.04819592                0.74556012
              16.25395623               13.28381900               72.61989379                0.24231358                0.17257351                0.13389218               -0.45200201               -0.04158060                0.60245447               -0.57307785
              17.25655948               12.81796154               72.15781272                0.00010000                0.88174773                0.23447713               -1.06129671               -1.08618133                8.86543382               -1.22536898
              18.27159119               12.32976009               71.85006002                0.00010000                1.60042450               -0.11225331               -1.40579035               -1.48587878               16.11899262               -1.23245650
              19.28856797               11.82683276               71.54696544                0.00010000                1.63910759                0.21438105               -2.23215360               -1.71690291               15.94674277               -1.19678175
              20.30437334               11.31545344               71.24843032                0.00010000                1.55173979                0.78990387               -3.51959395               -1.90081659               15.92775611               -1.21582666
              21.31960276               10.79810212               70.95408265                0.00010000                1.62172468                1.60100601               -5.28931893               -2.00650322               15.92810417               -1.24793045
              22.33680783               10.28002464               70.66085883                0.00010000                2.09436527                2.61776227               -7.81295209               -1.83315126               15.51419898               -1.26180687
              23.36149007                9.76743536               70.35830546                0.00010000                3.07903931                3.74722680              -11.45268801               -1.35470352               13.48690420               -1.23893747
              24.39838862                9.26508614               70.02500405                0.00010000                4.37523744                4.74816272              -15.55110460               -0.70560261                8.21397852               -1.10010895
              25.44899482                8.77479408               69.63066741                0.44889856                5.06061961                5.32924880              -18.80062486               -0.65385724                3.92406174               -0.89672023
              15.71709446               14.74900230               72.95886691                0.92052280                0.12167117                0.04585883               -0.22650343                0.03505458                0.33509746                0.69929287
              16.71831117               14.28536639               72.48054854                0.60406845                0.27712528                0.15473950               -0.57360341                0.00220794                1.26696191               -0.59681447
              17.72263697               13.82033659               72.02123731                0.37396106                1.96015164                0.23750451               -1.33276555               -1.40106142               10.08323174               -1.29323026
              18.75751420               13.32519019               71.71863989                0.36427680                3.07232537               -0.45699047               -1.32255265               -1.05740035               16.64127657               -0.48147978
              19.78408347               12.82734255               71.41610537                0.36096008                2.40655827                0.05097811               -1.99429180               -0.61232531               16.00544780               -0.52737239
              20.80564537               12.32191266               71.11720330                0.36321871                1.95426287                0.64592255               -3.07075276               -0.61718377               15.70668968               -0.57356291
              21.82316873               11.81245481               70.82112903                0.37134454                1.66065570                1.43526901               -4.53192209               -0.54639217               15.41748315               -0.65140564
              22.83885848               11.30385288               70.52509878                0.38545984                1.77044576                2.38282402               -6.61795069               -0.32758094               14.86016455               -0.73068936
              23.85857765               10.80180189               70.22001870                0.40623885                2.48511559                3.43665305               -9.69753371               -0.00658888               12.94672832               -0.91055070
              24.88856080               10.30954595               69.88605546                0.43139089                3.64472490                4.44598037              -13.31698527                0.27460193                7.97395883               -1.06400181
              25.93147214                9.82694958               69.49165160                0.72518649                4.29113482                5.21555009              -16.46668073               -0.01190428                4.15246343               -1.30665944
              11.46678059                4.89855259               75.29767810                1.00000000               -0.20842665               -0.22582446                0.79157304               -0.04583792               -0.38771744                0.49543843
              12.46469633                4.42263554               74.86768601                1.00000000               -0.18137283               -0.15824581                0.57928480               -0.02627158               -0.46740306                0.05569385
              13.46315314                3.94638165               74.43548887                1.00000000               -0.12558728               -0.09136166                0.36738148               -0.02627013               -0.48350820               -0.05874463
              14.46218458                3.46954769               74.00504441                0.63531307               -0.09184713               -0.02395099                0.15186516               -0.07439133               -0.44732104               -0.34831146
              15.46131620                2.99140244               73.57392366                0.46510200               -0.05782280                0.05480990               -0.06494913               -0.10830701               -0.41227137               -0.30296202
              16.46102813                2.51203114               73.14483376                0.16229544               -1.10350829                0.10505975               -0.31000043               -1.20285052                0.72754257               -0.55804020
              17.43924603                2.01044876               72.73757302                0.00010000               -5.88889689                1.45102185               -0.32811709              -10.26779415               11.61320868               -2.52912672
              18.34325019                1.30924053               72.52981763                0.00010000               -3.97414222                0.77589521               -2.06820137               -9.70271914               22.16124863                1.06103744
              19.35976319                0.60418183               72.29098508                0.00010000                6.02255167               -1.25686674               -2.60500460               -8.25054619               19.78555698                1.49320265
              20.46370122               -0.09570978               72.02918209                1.00000000                5.58758689                0.55693023               -2.49985332               -7.82918611                8.87884919               -0.07113276
              21.47151492               -0.63593427               71.59029628                1.00000000                0.78137010                0.58575601               -2.59547812               -0.18010952               -0.00797724               -0.05756657
              11.94223926                5.89629434               75.16301444                1.00000000               -0.17201792               -0.21197829                0.68881188               -0.01142827                0.02922407                0.69777222
              12.94051908                5.42105308               74.73283317                1.00000000               -0.14024499               -0.14563783                0.47705102                0.00696934                0.10656665                0.07980389
              13.93943436                4.94546803               74.30366806                1.00000000               -0.07944035               -0.07872656                0.26632326                0.00491101                0.15638325               -0.25121282
              14.93893027                4.46930818               73.87444076                0.74933181               -0.02214797               -0.02089639                0.06377125               -0.02684145                0.25556384               -0.31283746
              15.93899140                3.99195054               73.44771704                0.63943296                0.02730923                0.05123729               -0.17119849               -0.05516632                0.27486615               -0.24625396
              16.93947646                3.51308174               73.01981366                0.33497226               -0.05140042                0.11253743               -0.41337360               -0.47976892                0.37565856               -0.43074678
              17.93796339                3.02495898               72.59649944                0.00010000                0.49400043                0.78952971               -0.72586032              -10.53010815               11.31743052               -1.29023642
              18.94935647                2.31699949               72.38901111                0.00010000                2.08847448               -1.23020480               -2.18157504              -14.61826313               19.74716665                2.68459142
              19.97973288                1.59161316               72.12662487                0.00010000                2.80554713               -0.37863719               -2.41715783              -12.08810590               15.56961601                2.45739875
              21.00546741                0.90985952               71.82837330                1.00000000                1.51027173                0.39540829               -1.40278335               -6.92936226                7.02963006               -0.08498247
              22.00993832                0.36992329               71.38949002                1.00000000                0.44709070                0.42183804               -1.48551847               -0.15443405                0.00608642               -0.09352529
              12.41703455                6.89431302               75.03155838                1.00000000               -0.13725216               -0.18053776                0.58356364               -0.01549840                0.16872757                0.82231648
              13.41566202                6.41972278               74.59815255                1.00000000               -0.10191441               -0.11842775                0.37423830               -0.00116797                0.36317915               -0.00365923
              14.41499626                5.94480712               74.16819261                0.00010000               -0.02483883               -0.04773034                0.16457504               -0.02716227                0.88489763               -0.68610667
              15.41516525                5.46912977               73.74526541                0.00010000                0.07215277               -0.62059069               -0.01732441               -0.61074625                1.28910565                0.82396909
              16.41643931                4.99242718               73.32394569                0.00010000                0.16295277               -1.15487084               -0.27340540               -0.78895888                1.13178653                2.44311552
              17.41842430                4.51428189               72.89917474                0.00010000                0.41434039               -2.13152155               -0.51736359               -0.70032500                1.20174525                4.70941741
              18.42472612                4.02623936               72.48105953                0.00010000                3.29032244               -5.38290904               -0.86765674              -11.23544244               12.78651439                8.75131304
              19.48423075                3.28463644               72.29037429                0.00010000                5.02074570               -2.41917161               -3.63080040              -18.94381034               18.73812539                6.02856419
              20.52514103                2.59660908               71.98305969                0.00010000                3.12865477                0.58848201               -3.19854379              -15.17850199               10.55841652                5.06504431
              21.54680385                1.91219838               71.62760251                1.00000000                1.15788347                0.10240063               -0.40079528               -7.08484493                4.16206049               -0.02078093
              22.54829870                1.37250249               71.18866221                1.00000000                0.14948570                0.12349752               -0.45766793               -0.14490031                0.01267961               -0.04420325
              12.89110976                7.89268359               74.89861328                1.00000000               -0.11081394               -0.14195945                0.47965408               -0.01931850                0.27811039                0.70425383
              13.89000162                7.41868453               74.46139789                0.41597514               -0.08128150               -0.09064309                0.27392980               -0.00101890                0.48495593               -0.38675006
              14.88948413                6.94451342               74.02796381                0.00010000               -0.54531713               -0.03553804                0.06395645               -0.65505226                2.84996974               -1.19338479
              15.87909528                6.45689637               73.63816982                0.00010000               -0.57120178               -0.92278380               -0.49126905               -1.83591702                5.44454869                1.40427562
              16.87806010                5.96885312               73.25276982                0.00010000                0.62812513               -2.08059817               -1.17218836               -2.36354576                6.46219246                4.25275672
              17.89165778                5.47045131               72.87875598                0.00010000                3.24199495               -4.20190096               -2.14760541               -4.68600946                9.22086318                8.02814528
              18.94290000                4.91730080               72.54314627                0.00010000                5.42263768               -7.84330726               -3.80777135              -10.57035834               11.88986401               12.69617120
              20.00011054                4.26861605               72.21962068                0.00010000                5.28504505               -1.13927525               -5.81586424              -16.72231325               11.71419725                7.54891267
              21.04860090                3.60338280               71.88030010                0.00010000                4.38832831                1.49891882               -6.14335238              -18.59915830                4.39155532                7.71729035
              22.08787710                2.91190753               71.42741565                0.00010000                1.89156000                4.62874979                0.46100207              -12.43564653               -0.66917021                9.41689728
              23.08643210                2.37239324               70.98840534                0.44397326               -0.14450059                5.71433390                0.42010563               -5.32560830               -0.01061424                9.97257734
              13.36464629                8.89147383               74.76408267                0.94922129               -0.08344849               -0.09903070                0.38161939               -0.01628830                0.00502473                0.63341601
              14.36381181                8.41790992               74.31890794                0.28213139               -0.04814607               -0.06925014                0.17452396                0.00056604                0.46997749               -0.58022746
              15.36368337                7.94409636               73.88274669                0.00010000               -0.48522979               -0.08992870               -0.05917426               -0.95128374                4.62612180               -1.81042668
              16.35410721                7.45067409               73.52034670                0.00010000               -0.40349558               -0.50702581               -0.87034607               -2.07382698                8.82267330                0.27271648
              17.35561346                6.95081522               73.16374304                0.00010000                1.10746108               -1.50614158               -1.88308494               -3.21717073               10.04861790                2.31267093
              18.37625643                6.43024387               72.81976637                0.00010000                2.97703753               -2.96573585               -3.29280894               -6.14400484               11.68330256                4.38462632
              19.41515421                5.86937321               72.48914557                0.00010000                4.37230293               -3.04059430               -5.27380139              -11.64588867               12.83757978                5.35403501
              20.46370249                5.26185093               72.16158498                0.00010000                4.73560909                0.33102927               -7.73805572              -16.49137878               11.87897560                6.33557619
              21.50986639                4.62658746               71.80794466                0.00010000                3.26889925                3.99441526               -9.74390001              -18.00832069                8.41340468                7.91512603
              22.52908048                4.00477338               71.41493317                0.00010000                0.54743667               10.05984570              -10.82647977              -12.91074689                4.08036602               14.41526401
              23.52081512                3.48678917               70.98750714                0.44095944               -0.82653518               11.73003807              -11.03768809               -6.68866414                1.41838856               16.02938436
              13.83791181                9.89070297               74.62907022                0.95243255               -0.05213951               -0.06215759                0.27710949               -0.02125268               -0.00341938                0.66446436
              14.83739042                9.41729952               74.17827941                0.27574682               -0.01087616               -0.04541959                0.07456850               -0.04907670                0.20859667               -0.47537187
              15.83769429                8.94271485               73.73153702                0.00010000               -0.32452712               -0.10203448               -0.20497582               -1.14566259                5.77617942               -2.03000539
              16.83089988                8.44675585               73.39223446                0.00010000               -0.17736951               -0.27467719               -1.13767480               -2.55196270               11.40383528               -0.73206456
              17.83414690                7.93873029               73.05473283                0.00010000                0.96599089               -0.79480946               -2.33169722               -4.05251549               12.14364546                0.46928572
              18.85021969                7.41113659               72.72479991                0.00010000                2.21141309               -1.10707101               -3.92445594               -6.82546116               13.20918141                1.50771983
              19.87837516                6.85648892               72.40190722                0.00010000                3.14245116               -0.30100343               -6.07510118              -10.47044301               13.87279079                2.38629672
              20.91306872                6.27523664               72.07769701                0.00010000                3.35684381                2.15987123               -8.83380603              -13.51958398               13.33748522                3.32950449
              21.94551204                5.68327110               71.73811069                0.00010000                2.81958698                5.98006920              -12.01634240              -13.89953123               10.83316792                5.11436395
              22.96946046                5.11310445               71.36561301                0.00010000                2.15575998               10.13056968              -15.00733190               -9.10714505                6.25311684                7.16522975
              23.98862724                4.60699400               70.94812932                0.44148893                1.91667810               11.18478766              -16.34022288               -3.90434444                2.68390506                7.93232624
              14.31102813               10.89023068               74.49461322                0.97158326               -0.02097380               -0.03455380                0.17316181               -0.02209901               -0.01085845                0.72924528
              15.31081839               10.41700153               74.03792029                0.29513283                0.01428292               -0.01178844               -0.02922207               -0.07672797                0.08768179               -0.46623766
              16.31131379                9.94205567               73.58310084                0.00010000               -0.18829374               -0.02117744               -0.31697118               -1.23471805                6.54980117               -1.83620633
              17.30705252                9.44518055               73.25626417                0.00010000               -0.05656897               -0.01432360               -1.29689439               -2.74701208               13.04503673               -1.42772825
              18.31018241                8.93491903               72.93037927                0.00010000                0.74680319               -0.07090412               -2.54625872               -4.22655260               13.50517322               -0.83233168
              19.32198858                8.40810245               72.60915355                0.00010000                1.57314456                0.17259799               -4.18843704               -6.27971038               14.18996125               -0.24547132
              20.34164530                7.86335315               72.29175337                0.00010000                2.22700210                1.18456162               -6.36180280               -8.50765738               14.59760097                0.30553245
              21.36652862                7.30504836               71.97225832                0.00010000                2.61813292                3.21369645               -9.16207869               -9.93748434               14.05237191                0.92113006
              22.39400796                6.74618884               71.63877278                0.00010000                2.83430271                5.95014687              -12.41989294               -9.30201201               11.73264281                1.61191507
              23.42321468                6.20738477               71.27443685                0.00010000                3.04705836                8.38418507              -15.36513709               -5.79676279                6.93940987                2.24103478
              24.45494913                5.71048492               70.85916378                0.44248610                3.17344485                8.99199262              -16.81810279               -2.71935829                3.09614546                2.30111789
              14.78392813               11.89001190               74.36038356                0.98038779                0.01027412               -0.00896835                0.06769582               -0.02046860               -0.00261717                0.77388713
              15.78403087               11.41706376               73.89759689                0.31398180                0.04463918                0.02399207               -0.13067389               -0.08060401                0.07078282               -0.49277811
              16.78482091               10.94229130               73.43629076                0.00010000               -0.04673011                0.05410687               -0.41783234               -1.19466604                7.15054091               -1.77530255
              17.78309627               10.44646938               73.11600572                0.00010000                0.09365142                0.22579136               -1.36734275               -2.58260013               14.15605966               -1.74661981
              18.78669394                9.93731221               72.79691664                0.00010000                0.65475520                0.39825376               -2.58743644               -3.78186946               14.40040569               -1.52519978
              19.79619137                9.41458855               72.48081303                0.00010000                1.22910832                0.85243059               -4.18678146               -5.13427871               14.78067164               -1.24099557
              20.81127611                8.88018015               72.16668749                0.00010000                1.76459802                1.82706845               -6.28363723               -6.32451065               14.92287231               -0.96172535
              21.83148333                8.33951057               71.84916677                0.00010000                2.29296376                3.36047171               -8.95865320               -6.78465700               14.21552073               -0.70159946
              22.85713538                7.80227404               71.51718841                0.00010000                2.88728948                5.15988868              -12.03416210               -5.94801921               11.79832885               -0.47810762
              23.88922912                7.28078815               71.15341332                0.00010000                3.54521960                6.55979035              -14.86614089               -3.57923136                6.97337333               -0.37722864
              24.92803978                6.78683385               70.73765867                0.44296476                3.88106526                6.73065955              -16.43219246               -1.72095863                3.19018069               -0.48522905
              15.25651504               12.89005131               74.22634223                0.98422123                0.04118684                0.01732723               -0.04055362               -0.01853452               -0.00034087                0.78658461
              16.25692691               12.41748137               73.75698885                0.33675971                0.07499028                0.05946162               -0.22881321               -0.07621828                0.09821246               -0.54607124
              17.25801484               11.94313780               73.28973881                0.00010000                0.17263525                0.10582290               -0.51521189               -1.06108525                7.76623247               -1.50492431
              18.26037961               11.44969637               72.97490923                0.00010000                0.42055037                0.31407234               -1.38478853               -2.14361632               15.07869253               -1.69680792
              19.26642585               10.94288411               72.65968257                0.00010000                0.80277275                0.55013688               -2.51407675               -2.92985025               15.00569779               -1.62540859
              20.27643507               10.42515106               72.34638151                0.00010000                1.19036107                1.06911654               -4.00884149               -3.67890144               15.09202314               -1.52691982
              21.29023307                9.89989451               72.03361599                0.00010000                1.61532631                1.91805631               -5.96628424               -4.20549037               14.97652463               -1.45046496
              22.30874159                9.37225779               71.71627155                0.00010000                2.17684624                3.06560981               -8.46682410               -4.20596415               14.09632169               -1.40587026
              23.33377000                8.84938662               71.38372076                0.00010000                2.91643238                4.30492524              -11.37268870               -3.45119943               11.62875853               -1.39403570
              24.36707024                8.33858058               71.01909642                0.00010000                3.73342736                5.24868697              -14.14647409               -1.96454219                6.86484921               -1.44739657
              25.40843854                7.84509811               70.60206441                0.44392738                4.13683042                5.34637269              -15.89630574               -1.00305917                3.19582331               -1.69196745
              15.72869732               13.89035844               74.09196570                0.88440545                0.07226939                0.04539366               -0.15255002               -0.01663800                0.05118946                0.72526256
              16.72942001               13.41825299               73.61607479                0.26181564                0.13434438                0.09327418               -0.32260548               -0.07236640                0.50508519               -0.56975064
              17.73138421               12.94440776               73.14950539                0.00010000                0.55288130                0.12105816               -0.65077786               -0.93222067                8.56642989               -1.20778798
              18.74047764               12.45275083               72.83611920                0.00010000                1.06290197                0.07444704               -1.37680196               -1.36221732               15.77256026               -1.13401553
              19.75264225               11.94831494               72.52389844                0.00010000                1.25626489                0.43527498               -2.37891724               -1.68813295               15.46024078               -1.08742897
              20.76560294               11.43597088               72.21212794                0.00010000                1.37086632                0.99121177               -3.73521997               -1.96418892               15.24869168               -1.08611837
              21.78005957               10.91854127               71.89973385                0.00010000                1.61345059                1.74874013               -5.51058637               -2.13281013               14.91216215               -1.10836732
              22.79787195               10.40082276               71.58189729                0.00010000                2.08645176                2.66399141               -7.79588819               -2.01028531               13.91723817               -1.16052157
              23.82178861                9.88837255               71.24855472                0.00010000                2.81774176                3.60971676              -10.49978986               -1.52030425               11.46351222               -1.23715137
              24.85422678                9.38576189               70.88310201                0.00010000                3.65774599                4.36768666              -13.18401412               -0.78313589                6.77851938               -1.32815383
              25.89494353                8.89376131               70.46399234                0.44542723                4.07167438                4.63197205              -15.09661036               -0.47795377                3.26219325               -1.71889614
              16.20039318               14.89095918               73.95639040                0.92474481                0.10370773                0.06007449               -0.26005142                0.00835304                0.32365953                0.67711833
              17.20143026               14.41934685               73.47566219                0.60921888                0.22397047                0.10938667               -0.41893419               -0.06898653                1.09531382               -0.58610488
              18.20487259               13.94555897               73.01070434                0.37304005                1.38989112                0.11512069               -0.83517664               -1.05923886                9.76054368               -1.23518252
              19.22922808               13.45118531               72.70515548                0.36398672                2.22852737               -0.15655143               -1.36510463               -0.82342401               16.58815016               -0.48922863
              20.24944314               12.95158961               72.39494717                0.36085617                1.88484384                0.32746622               -2.24790870               -0.63041176               15.81905045               -0.51838107
              21.26692496               12.44497530               72.08462277                0.36310705                1.66409251                0.90044165               -3.46191796               -0.70381258               15.44712473               -0.55080818
              22.28272499               11.93486932               71.77298552                0.37064287                1.58898292                1.63280418               -5.04845188               -0.70534260               15.00190865               -0.61998384
              23.29870461               11.42553762               71.45569243                0.38360367                1.78499012                2.47148553               -7.09255699               -0.58115172               14.01476174               -0.73411358
              24.31842479               10.92158095               71.12333603                0.40288414                2.36570730                3.32084054               -9.55378083               -0.31654731               11.71598642               -0.90779527
              25.34601876               10.42593431               70.75988570                0.42733428                3.22279197                4.01724254              -12.06615558               -0.01297231                7.17033258               -1.11504132
              26.38288063                9.93773755               70.34083021                0.72315003                3.68618678                4.39762457              -13.97571414               -0.02596596                3.86616465               -1.72166012
              11.89395091                5.03866758               76.30487788                1.00000000               -0.17831527               -0.18452882                0.65117914               -0.03130138               -0.38797250                0.49227628
              12.89216776                4.55855147               75.87318191                1.00000000               -0.16293147               -0.14277125                0.52021562               -0.01421111               -0.46858425                0.05494100
              13.89069228                4.07813000               75.43928158                1.00000000               -0.13057749               -0.10051466                0.38915660               -0.01387146               -0.48584288               -0.05644460
              14.88955621                3.59719151               75.00710037                0.64383530               -0.11609638               -0.05843007                0.25479477               -0.05571253               -0.44932917               -0.33112025
              15.88837035                3.11510511               74.57424576                0.46668097               -0.09980546               -0.00747199                0.12173443               -0.08511805               -0.42563904               -0.30290725
              16.88756010                2.63198719               74.14315049                0.15051941               -1.20208976                0.01754186               -0.03598377               -1.16380061                0.81663798               -0.55756796
              17.86432856                2.12707411               73.73616694                0.00010000               -4.97163308                1.39158265                0.00535005               -8.33003767               11.01220736               -2.75390648
              18.78812744                1.45858124               73.51059195                0.00010000               -2.83225405                0.32243617               -1.75578271               -7.96318753               20.94625115                0.65384336
              19.80768348                0.77948320               73.26581801                0.00010000                5.75770803               -1.34712816               -2.40070845               -7.13794698               19.45298341                1.03769684
              20.90328160                0.09917608               73.00464856                1.00000000                5.15777789                0.56525881               -2.45296244               -6.86373732                8.93871280               -0.04705810
              21.91083904               -0.44082633               72.56513487                1.00000000                0.75574374                0.57847526               -2.48758961               -0.16364947                0.00266025               -0.01827470
              12.37375401                6.03682229               76.16925063                1.00000000               -0.14595692               -0.17213607                0.56103114               -0.00994689                0.02686211                0.69195450
              13.37229444                5.55712376               75.73737174                1.00000000               -0.12602296               -0.13205688                0.43077252                0.00642976                0.10364756                0.07874144
              14.37123355                5.07712485               75.30651695                1.00000000               -0.08914553               -0.09022573                0.30105048                0.00495785                0.15866563               -0.24786151
              15.37051153                4.59660721               74.87568620                0.77664143               -0.05561067               -0.05642186                0.17996289               -0.02232122                0.24906252               -0.28940247
              16.37012133                4.11503039               74.44705328                0.65641073               -0.02869674               -0.00969783                0.03000341               -0.04818873                0.25338839               -0.23967344
              17.36993759                3.63216261               74.01717375                0.33640997               -0.11950879                0.02553158               -0.12528520               -0.43164491                0.32186593               -0.42285819
              18.36773116                3.14098994               73.59119313                0.00010000                0.61767125                0.70334767               -0.34426720               -8.83320718               10.69587375               -1.42733613
              19.38229102                2.46180560               73.37001034                0.00010000                2.41377137               -1.48474953               -1.67812174              -12.20119296               19.02297287                1.75531801
              20.41600659                1.76601192               73.10485733                0.00010000                3.12539885               -0.63511392               -2.01432752              -10.17198665               15.85464863                1.61548656
              21.44479899                1.10482867               72.81412093                1.00000000                1.65991853                0.41293295               -1.43393076               -5.91544585                7.43985637               -0.05469018
              22.44920496                0.56495842               72.37466354                1.00000000                0.44059618                0.42620203               -1.46786162               -0.14987423                0.00032430               -0.04178407
              12.85314904                7.03522486               76.03680753                1.00000000               -0.11552483               -0.14332856                0.46856129               -0.01368097                0.16478211                0.81495588
              13.85199379                6.55591033               75.60172868                1.00000000               -0.09205266               -0.10896811                0.34091269               -0.00093311                0.35825823               -0.00335468
              14.85130799                6.07632548               75.17009265                0.00010000               -0.03947739               -0.06443586                0.21279090               -0.02398637                0.89398646               -0.68188377
              15.85120424                5.59606307               74.74576441                0.00010000                0.02715967               -0.62730090                0.11081809               -0.49250673                1.27704136                0.63993926
              16.85185118                5.11491115               74.32231842                0.00010000                0.08817038               -1.14127518               -0.06086071               -0.53386394                1.09626985                2.02960872
              17.85296765                4.63249782               73.89556677                0.00010000                0.30851215               -2.04638720               -0.21585216               -0.26526389                1.12960580                3.94024593
              18.85802142                4.14114107               73.47444534                0.00010000                3.30569719               -4.98294241               -0.46488480               -9.12215485               11.61019159                7.37699911
              19.91908160                3.42888625               73.25986800                0.00010000                5.15996246               -2.61911771               -2.66714096              -15.72894998               17.56962125                4.34435202
              20.96122067                2.76678093               72.95715729                0.00010000                3.34722946                0.07004694               -2.30896386              -12.46568892               11.76269714                3.05723139
              21.98602619                2.10743474               72.62311809                1.00000000                1.31806895                0.12490738               -0.45072396               -5.83395236                5.27433040               -0.05669628
              22.98758205                1.56769771               72.18371529                1.00000000                0.15558670                0.13724838               -0.48188174               -0.14657438               -0.00277283               -0.05656977
              13.33210944                8.03395572               75.90288777                1.00000000               -0.09342897               -0.10735840                0.37726288               -0.01508109                0.27379852                0.69952734
              14.33117515                7.55494440               75.46404213                0.42793125               -0.07541790               -0.08727316                0.25452996                0.00318650                0.47634583               -0.38334559
              15.33060108                7.07583614               75.02890603                0.00010000               -0.45497136               -0.07707542                0.12226080               -0.59954294                2.64940125               -1.19598716
              16.32207572                6.58406119               74.63363056                0.00010000               -0.37958866               -0.94520550               -0.40647413               -1.60613199                4.97108621                1.07793419
              17.32300931                6.09220489               74.24165914                0.00010000                0.81633400               -2.05237112               -1.01993300               -1.88925414                5.73105033                3.54057005
              18.33840240                5.59123486               73.85852481                0.00010000                3.29451639               -4.01481804               -1.85313837               -3.69972586                7.88539554                6.74906899
              19.38889963                5.04133109               73.50775939                0.00010000                5.18348785               -7.29570448               -3.15432418               -8.50870644               10.00397170               10.71119324
              20.44207216                4.40942324               73.17132538                0.00010000                4.96223385               -1.52394748               -4.29008635              -13.79747231               10.16375212                5.68689987
              21.48814431                3.76741286               72.83248557                0.00010000                4.25655038                0.72596030               -4.19310768              -15.22627273                6.85822533                4.74645090
              22.52720317                3.10732682               72.43233779                0.00010000                1.88016114                3.57495808                0.45108111              -10.55683836                1.95317623                4.51597641
              23.52574753                2.56770339               71.99292518                0.43446373               -0.14556312                4.92876808                0.42392059               -5.16520852                0.01984774                5.20715648
              13.81087007                9.03307769               75.76743108                0.96506726               -0.06929612               -0.06880836                0.29014597               -0.01295730               -0.00042048                0.62707698
              14.81017711                8.55416487               75.32065514                0.29741192               -0.03348674               -0.07056638                0.17369388               -0.01100557                0.44794477               -0.57663523
              15.81020033                8.07478398               74.88256629                0.00010000               -0.37321277               -0.13584625                0.02096928               -0.91084451                4.25584518               -1.80435982
              16.80271285                7.57715896               74.51186824                0.00010000               -0.16539540               -0.58754217               -0.80548928               -1.93608706                8.01528677                0.08454807
              17.80689243                7.07386373               74.14525490                0.00010000                1.35670394               -1.55558924               -1.76786707               -2.89802824                8.88106869                1.87844805
              18.82984693                6.55220146               73.78773868                0.00010000                3.13832443               -2.92442601               -3.01761333               -5.41981607                9.91694482                3.67388156
              19.86965891                5.99522698               73.43946009                0.00010000                4.36017248               -3.02960989               -4.57484955              -10.19294046               10.38675144                4.47834110
              20.91705038                5.39840730               73.09257546                0.00010000                4.45663654               -0.16401124               -6.16906578              -14.10372806                9.33602926                5.00523291
              21.95879165                4.78130013               72.72837843                0.00010000                2.87742563                2.82891353               -6.96392863              -15.16701237                6.45444318                5.49824769
              22.97459889                4.17893390               72.33265604                0.00010000                0.23665487                7.84022033               -7.05917523              -10.98523952                3.19882032                7.71632526
              23.96352474                3.66627307               71.90728456                0.43576160               -1.10741503                9.64397019               -6.70207203               -5.93175408                1.65323047                8.96856078
              14.28967593               10.03257955               75.63141108                0.97036906               -0.04271828               -0.03624005                0.19377583               -0.01708931               -0.00251470                0.65338870
              15.28924875                9.55353307               75.17911697                0.29450741               -0.01429184               -0.04959834                0.09170448               -0.05888402                0.17289257               -0.47406588
              16.28939010                9.07311921               74.73013813                0.00010000               -0.24872639               -0.12618011               -0.07517219               -1.13927051                5.31435329               -1.97525393
              17.28427422                8.57231035               74.38100535                0.00010000                0.03080740               -0.36487600               -1.08337121               -2.48740401               10.43236440               -0.78690230
              18.29000625                8.06109310               74.03154542                0.00010000                1.21843056               -0.87182143               -2.25071423               -3.82889122               10.81122700                0.31312901
              19.30864283                7.53274634               73.68618721                0.00010000                2.44143716               -1.17833655               -3.69836912               -6.31453312               11.30853920                1.26715601
              20.33883499                6.98073889               73.34352593                0.00010000                3.26408040               -0.49906830               -5.46975428               -9.52671262               11.27527749                2.08455122
              21.37392444                6.40614302               72.99625063                0.00010000                3.27212350                1.59713657               -7.43537793              -12.10658944               10.13203088                2.92682280
              22.40427746                5.82399113               72.63272721                0.00010000                2.43004981                4.73096511               -9.34091139              -12.17405140                7.68503240                4.15709491
              23.42252544                5.26413122               72.24204483                0.00010000                1.40783306                8.06961547              -10.73101687               -7.87375900                4.15129106                5.57682595
              24.43243412                4.76058279               71.81731323                0.43702497                0.99086805                8.84038835              -11.18845914               -3.40262073                1.79347612                5.79241990
              14.76862125               11.03235289               75.49595719                0.99059749               -0.01614832               -0.01128443                0.09887707               -0.01823971               -0.00888262                0.71465826
              15.76845977               10.55317290               75.03782818                0.31653394                0.00081957               -0.02174433                0.00895164               -0.07870223                0.05687264               -0.46362002
              16.76863764               10.07226037               74.58091311                0.00010000               -0.17344454               -0.05161606               -0.13473084               -1.22827901                6.06017043               -1.75501165
              17.76499088                9.56986144               74.24342347                0.00010000                0.06204807               -0.09112717               -1.24434875               -2.72090155               12.03005455               -1.36926274
              18.76987861                9.05642730               73.90486792                0.00010000                0.94597992               -0.14804426               -2.50224553               -4.06963068               12.17223208               -0.78314028
              19.78391048                8.52863473               73.56754417                0.00010000                1.79246900                0.06913075               -4.03539805               -5.95705972               12.35988345               -0.19460449
              20.80572799                7.98524561               73.22975154                0.00010000                2.38779383                0.96351768               -5.89943397               -7.98372150               12.12784827                0.39352980
              21.83166635                7.43035003               72.88556748                0.00010000                2.57972134                2.72876040               -8.05357538               -9.23270047               11.01062007                1.05963470
              22.85732241                6.87591943               72.52548530                0.00010000                2.44328505                5.05383220              -10.27127650               -8.57780362                8.62311822                1.83070655
              23.88053205                6.34032621               72.13802562                0.00010000                2.26233911                7.00907642              -12.08850562               -5.30526714                4.84518115                2.42382062
              24.90256919                5.84308084               71.71268707                0.43817934                2.20371398                7.42173402              -12.81698731               -2.42023585                2.18098179                2.23625870
              15.24767111               12.03235386               75.36073201                0.99939485                0.00961086                0.01074594                0.00701359               -0.01750084               -0.00060645                0.75266385
              16.24776722               11.55309818               74.89661753                0.33708158                0.02324321                0.00581597               -0.06916511               -0.07992321                0.04315987               -0.48424261
              17.24813598               11.07208689               74.43338430                0.00010000               -0.10389799                0.00367773               -0.19001569               -1.17710312                6.66787413               -1.69691541
              18.24568926               10.57048780               74.10250031                0.00010000                0.08521840                0.17620854               -1.31250524               -2.56062290               13.18450776               -1.61734896
              19.24984035               10.05813222               73.77082192                0.00010000                0.74970350                0.35688252               -2.58371430               -3.67404483               13.16857492               -1.35719601
              20.26068333                9.53412896               73.43885419                0.00010000                1.38024567                0.78132779               -4.11795183               -4.95976741               13.13863416               -1.02932008
              21.27744526                9.00000925               73.10472633                0.00010000                1.89566391                1.65667115               -5.97531340               -6.08141338               12.75459873               -0.68458176
              22.29859661                8.46071823               72.76308336                0.00010000                2.26499715                3.01498412               -8.12467091               -6.49657035               11.57643389               -0.32765586
              23.32274520                7.92506778               72.40495163                0.00010000                2.53310422                4.58454470              -10.35855807               -5.66221815                9.15963874               -0.01416423
              24.34925870                7.40431275               72.01857572                0.00010000                2.78874761                5.78099295              -12.21700181               -3.37987328                5.21688536                0.08929522
              25.37852015                6.90901747               71.59139545                0.43936867                2.92614591                5.85553734              -13.07748722               -1.56070662                2.38778503               -0.31634876
              15.72678260               13.03256781               75.22567937                1.00000000                0.03456782                0.03234682               -0.08536067               -0.01573439                0.00152452                0.75873848
              16.72712828               12.55328922               74.75516911                0.36171181                0.04616783                0.03262348               -0.14261961               -0.07414270                0.07148376               -0.53109620
              17.72770596               12.07233393               74.28617432                0.00010000                0.03024056                0.03766792               -0.24247524               -1.00979598                7.30821632               -1.44708817
              18.72773309               11.57338561               73.96127139                0.00010000                0.25252980                0.31728626               -1.33034865               -2.09044484               14.19995183               -1.54594886
              19.73275656               11.06356495               73.63413276                0.00010000                0.75525036                0.58436839               -2.55768972               -2.86003157               13.93687669               -1.42060878
              20.74283810               10.54426128               73.30580101                0.00010000                1.23769468                1.06804244               -4.03537366               -3.61787445               13.70664616               -1.26732258
              21.75751045               10.01837903               72.97413105                0.00010000                1.69191598                1.82779990               -5.81714224               -4.14900912               13.16886346               -1.12139536
              22.77667642                9.49064971               72.63400455                0.00010000                2.14865377                2.83375528               -7.87647697               -4.15167966               11.90226296               -1.00147848
              23.80048352                8.96761033               72.27661163                0.00010000                2.61542378                3.90046401              -10.02955655               -3.39466253                9.42284176               -0.95492348
              24.82898489                8.45594607               71.88976944                0.00010000                3.07310504                4.67105154              -11.86941872               -1.90780258                5.37915807               -1.10043973
              25.86194562                7.96019158               71.46008309                0.44038217                3.29607304                4.63164418              -12.82579434               -0.87855519                2.51710945               -1.65241054
              16.20591360               14.03300080               75.09025968                0.89695269                0.06046498                0.05637313               -0.18112627               -0.01294185                0.05218705                0.69520520
              17.20651825               13.55375065               74.61344168                0.28381280                0.09650345                0.05901437               -0.21595883               -0.06926659                0.45003257               -0.55134716
              18.20784367               13.07284025               74.14479716                0.00010000                0.30655458                0.04505470               -0.34263085               -0.81342656                8.12120236               -1.16831578
              19.21264934               12.57683353               73.82252398                0.00010000                0.69601880                0.19737231               -1.33726434               -1.28596873               15.02375509               -1.01670097
              20.22176404               12.06981959               73.49938710                0.00010000                1.04312119                0.56562531               -2.49209305               -1.65515449               14.58891499               -0.94039274
              21.23351176               11.55548981               73.17372593                0.00010000                1.31563037                1.08227746               -3.88539610               -1.97714620               14.14747792               -0.89350974
              22.24807665               11.03656525               72.84387093                0.00010000                1.64099802                1.75863780               -5.56044462               -2.17348378               13.48440806               -0.86215348
              23.26633172               10.51739333               72.50494106                0.00010000                2.07394702                2.54653139               -7.49732698               -2.06807011               12.16236431               -0.85871778
              24.28955559               10.00307706               72.14830967                0.00010000                2.60948330                3.32365174               -9.54180583               -1.57194842                9.66847440               -0.90545895
              25.31852139                9.49773378               71.76132376                0.00010000                3.14512177                3.88658394              -11.33706604               -0.79691628                5.54633191               -1.06700757
              26.35245803                9.00165035               71.32873520                0.44152596                3.39366367                3.93245259              -12.34174221               -0.36030335                2.67040576               -1.64212365
              16.68502407               15.03369527               74.95366589                0.93066521                0.08794361                0.06944698               -0.27990896               -0.01152938                0.30983583                0.64656468
              17.68590350               14.55446951               74.47216986                0.61540497                0.16652419                0.07188586               -0.29282091               -0.08448703                0.98786805               -0.56375739
              18.68835455               14.07323502               74.00453377                0.37200412                0.95654384                0.03947747               -0.46443326               -0.80573428                9.31471707               -1.17986363
              19.70503438               13.57733306               73.69133780                0.36381856                1.63213189                0.04995301               -1.38156901               -0.67937416               16.00717799               -0.46190183
              20.72099719               13.07487746               73.37114720                0.36102709                1.57575681                0.50578748               -2.47286051               -0.64799688               15.13392558               -0.47121099
              21.73654952               12.56590683               73.04796494                0.36302994                1.55700297                1.04170266               -3.79632749               -0.76250834               14.58772384               -0.47673972
              22.75213725               12.05355179               72.72015999                0.36968249                1.61268455                1.69865448               -5.38651857               -0.81026515               13.88109387               -0.51367288
              23.76880321               11.54158034               72.38324764                0.38191354                1.82834290                2.41870051               -7.23072164               -0.72627316               12.60208668               -0.58689687
              24.78870411               11.03408336               72.02894308                0.39957311                2.28350323                3.10063068               -9.19686947               -0.48027803               10.22752293               -0.71075834
              25.81447327               10.53367775               71.64473235                0.42340227                2.91011547                3.59439663              -10.95966849               -0.16694836                6.12521281               -0.90437780
              26.84690641               10.03884063               71.21213732                0.72116575                3.24331438                3.71902797              -11.97129077               -0.03887270                3.29063335               -1.53452076
              12.32241308                5.17965261               77.31070168                1.00000000               -0.14921311               -0.14488288                0.51651564               -0.01766890               -0.38848287                0.48916224
              13.32092095                4.69535471               76.87809032                1.00000000               -0.14476259               -0.12735643                0.46180349               -0.00305406               -0.47025927                0.05446229
              14.31951782                4.21078200               76.44327200                1.00000000               -0.13435632               -0.10822761                0.40667242               -0.00251643               -0.48886723               -0.05384869
              15.31823382                3.72575362               76.01014031                0.65215189               -0.13822649               -0.08975252                0.34835748               -0.03849978               -0.45092324               -0.31394867
              16.31675329                3.23972925               75.57635835                0.46924529               -0.13970592               -0.06448429                0.29300550               -0.06418458               -0.43517495               -0.30227972
              17.31543970                2.75283327               75.14411408                0.14195062               -1.23522870               -0.06249729                0.21860796               -1.08712755                0.88307667               -0.55834856
              18.29204872                2.24531825               74.73768003                0.00010000               -4.14577797                1.28156106                0.24498369               -6.76807691               10.41772164               -2.89657028
              19.23252414                1.60348062               74.49470198                0.00010000               -1.86412395               -0.06508298               -1.42863387               -6.56029668               19.66108188                0.36191516
              20.25476624                0.94685714               74.24297091                0.00010000                5.53172413               -1.42735282               -2.17659282               -6.15891252               18.90978481                0.70098416
              21.34315862                0.28440432               73.98012284                1.00000000                4.79146321                0.58918647               -2.45711999               -5.98074316                8.85341653               -0.01631068
              22.35059551               -0.25535712               73.54054448                1.00000000                0.74368824                0.58643042               -2.43233901               -0.14973720                0.00513502                0.00492752
              12.80653429                6.17820378               77.17423507                1.00000000               -0.12085778               -0.13388083                0.43863348               -0.00852274                0.02444246                0.68593029
              13.80532571                5.69408115               76.74144862                1.00000000               -0.11205397               -0.11847096                0.38477374                0.00585329                0.10043465                0.07802111
              14.80429321                5.20969973               76.30968907                1.00000000               -0.09752550               -0.10008191                0.33088490                0.00486879                0.16040892               -0.24365154
              15.80337520                4.72485609               75.87804002                0.80158926               -0.08607908               -0.08847141                0.28538077               -0.01844172                0.24378796               -0.26651166
              16.80257163                4.23908441               75.44831710                0.67276795               -0.08006377               -0.06578733                0.21460377               -0.04193736                0.23645523               -0.23379897
              17.80177392                3.75220829               75.01730796                0.34075383               -0.17636741               -0.05487606                0.14188542               -0.37503718                0.27899119               -0.41671508
              18.79904428                3.25813386               74.58961410                0.00010000                0.71889047                0.59474160                0.02117212               -7.43992550               10.07536061               -1.53576952
              19.81615173                2.60282979               74.35544868                0.00010000                2.68354947               -1.66360884               -1.28477506              -10.25815867               18.24399699                1.04433544
              20.85271527                1.93258361               74.08633832                0.00010000                3.41532936               -0.83658349               -1.74114608               -8.50774779               15.89415880                0.98507789
              21.88445832                1.29029618               73.79969468                1.00000000                1.80721506                0.42216401               -1.47317942               -4.97512927                7.65140781               -0.02898534
              22.88885957                0.75050719               73.36013279                1.00000000                0.44012483                0.42332866               -1.45443533               -0.15623200               -0.00002080               -0.02620684
              13.29048789                7.17697499               77.04092960                1.00000000               -0.09458244               -0.10765990                0.35848965               -0.01183401                0.16084455                0.80650806
              14.28954207                6.69298529               76.60497080                1.00000000               -0.08238179               -0.09949990                0.30756052               -0.00050267                0.35324680               -0.00226289
              15.28884025                6.20878037               76.17244843                0.00010000               -0.05308800               -0.07898415                0.25568562               -0.02052893                0.90155880               -0.67755310
              16.28848031                5.72398419               75.74748178                0.00010000               -0.01389533               -0.62524380                0.22666458               -0.39890806                1.26571339                0.43529263
              17.28856235                5.23841350               75.32272847                0.00010000                0.02045970               -1.11781816                0.13487336               -0.35166069                1.06734767                1.59722647
              18.28888950                4.75173575               74.89485770                0.00010000                0.20331855               -1.94737586                0.06388442                0.01455505                1.07490792                3.18719726
              19.29262872                4.25721309               74.47176184                0.00010000                3.20108615               -4.58119732               -0.07947799               -7.51963591               10.59855660                6.17778618
              20.35291122                3.57020844               74.23703147                0.00010000                5.22580863               -2.65915944               -2.01529556              -13.22899742               16.56619062                2.87787288
              21.39714489                2.93012547               73.93688041                0.00010000                3.64106190               -0.27464663               -1.94590064              -10.26615570               12.55506468                1.51411001
              22.42573246                2.29284760               73.61858803                1.00000000                1.49519815                0.11964629               -0.42385592               -4.74866578                6.08314278               -0.06210105
              23.42704885                1.75310946               73.17902457                1.00000000                0.13163937                0.12299526               -0.42123379               -0.13407922               -0.01030431               -0.06960104
              13.77427701                8.17605058               76.90615853                1.00000000               -0.07667251               -0.07414663                0.27956319               -0.01085050                0.26913000                0.69110210
              14.77351028                7.69209115               76.46648848                0.44269706               -0.06966394               -0.08414542                0.23464127                0.00814425                0.46519261               -0.37643207
              15.77288373                7.20812004               76.03040903                0.00010000               -0.38731920               -0.10016506                0.17631361               -0.54965071                2.42536911               -1.19380782
              16.76576390                6.71235122               75.63004034                0.00010000               -0.25484367               -0.94969627               -0.30100335               -1.40739853                4.46097636                0.71054022
              17.76778686                6.21672804               75.23237116                0.00010000                0.87507708               -1.99578006               -0.82038386               -1.51441976                5.01485864                2.78066250
              18.78326544                5.71326078               74.84169322                0.00010000                3.11960043               -3.78383215               -1.48390776               -2.93587432                6.76580820                5.47341009
              19.83017887                5.16650992               74.48005979                0.00010000                4.76969803               -6.70197974               -2.45847642               -6.90952178                8.57492031                8.83140068
              20.87865940                4.54964660               74.13381895                0.00010000                4.72870649               -1.65890483               -3.28685167              -11.54128657                9.25047695                3.98174385
              21.92475299                3.92709068               73.79643794                0.00010000                4.39208068                0.30926500               -3.66115842              -12.76138565                8.18634738                2.38711281
              22.96650102                3.29268911               73.43643727                0.00010000                2.04506346                2.82726202                0.31152296               -9.28526467                3.97214340                0.92632773
              23.96565426                2.75296709               72.99688375                0.42830063               -0.08467511                4.43314371                0.29881934               -5.09350942                0.01515957                1.88754530
              14.25818975                9.17549206               76.76988559                0.98477063               -0.05542584               -0.04029761                0.20299166               -0.01033086               -0.00477988                0.61245850
              15.25763549                8.69130238               76.32238182                0.31518239               -0.03012884               -0.07229914                0.17052479               -0.00520274                0.42333808               -0.56599533
              16.25758717                8.20677706               75.88316608                0.00010000               -0.29555771               -0.16285457                0.09576374               -0.85514364                3.84358230               -1.77395450
              17.25172434                7.70499027               75.50423691                0.00010000               -0.01113890               -0.64443170               -0.70166277               -1.79515942                7.13851531               -0.13567320
              18.25736439                7.19849790               75.12838570                0.00010000                1.43329013               -1.56740982               -1.56972357               -2.57642206                7.72332941                1.39335352
              19.28039014                6.67605910               74.75941410                0.00010000                3.03440342               -2.82932745               -2.61080973               -4.70899457                8.35636724                2.90792622
              20.31805246                6.12317349               74.39764858                0.00010000                4.05572968               -2.93107151               -3.79206313               -8.76951634                8.53122326                3.46626896
              21.36150473                5.53703034               74.03820366                0.00010000                4.04111034               -0.44327623               -4.89848083              -11.95070333                7.64323915                3.63923462
              22.39887467                4.93631077               73.66866608                0.00010000                2.63230097                2.11077292               -5.34149554              -12.94860107                5.37772936                3.18278564
              23.41415075                4.34939284               73.27374966                0.00010000                0.28740129                6.32911415               -5.58349091               -9.65695975                2.63293737                2.97444435
              24.40462269                3.84177233               72.85346570                0.42967208               -0.95280567                8.22363995               -4.95722412               -5.34676582                1.67286001                4.02446183
              14.74244975               10.17524463               76.63294574                0.99068000               -0.03285196               -0.01445751                0.11650716               -0.01400927               -0.00079510                0.63077304
              15.74212123                9.69064517               76.18011350                0.31446876               -0.01783850               -0.05369095                0.10556585               -0.05086203                0.14639305               -0.46322892
              16.74209298                9.20486295               75.73003358                0.00010000               -0.19906762               -0.15339018                0.04696340               -1.09239211                4.79905077               -1.91692943
              17.73813987                8.69946258               75.37056704                0.00010000                0.15483011               -0.43449680               -0.97991278               -2.37543231                9.34397250               -0.85972697
              18.74518958                8.18537985               75.00971854                0.00010000                1.31350434               -0.92590878               -2.07131979               -3.53231989                9.44449854                0.10794957
              19.76440996                7.65667423               74.65083253                0.00010000                2.43138603               -1.22578607               -3.31952201               -5.67894337                9.54901162                0.93523209
              20.79381730                7.10788849               74.29251213                0.00010000                3.10490487               -0.65750715               -4.71370190               -8.38833317                9.14523594                1.61709175
              21.82650806                6.54078107               73.92898945                0.00010000                2.98005904                1.11889879               -6.10059584              -10.45399081                7.85812719                2.20304166
              22.85341848                5.96930614               73.55129246                0.00010000                2.06960998                3.71338945               -7.28168773              -10.31860828                5.63042273                2.86535773
              23.86790026                5.41927139               73.15099267                0.00010000                1.02707408                6.49687306               -7.96959555               -6.65502322                2.90077380                3.52421352
              24.87395996                4.91743989               72.72436014                0.43075768                0.60597035                6.96777721               -8.08267391               -2.95199155                1.36492049                3.15915137
              15.22710849               11.17520291               76.49659076                1.00000000               -0.01085642                0.00491801                0.03360262               -0.01267370               -0.00515548                0.69210158
              16.22699993               10.69022857               76.03809933                0.33873941               -0.00932899               -0.03035976                0.04214799               -0.06865460                0.03956278               -0.45038894
              17.22692191               10.20370926               75.58040622                0.00010000               -0.16505662               -0.08855859                0.01860664               -1.18627964                5.49074819               -1.68741709
              18.22369880                9.69630033               75.23137720                0.00010000                0.12922199               -0.15940530               -1.14248851               -2.62603009               10.84382685               -1.31778182
              19.22950635                9.17997973               74.88033435                0.00010000                1.03019173               -0.22382001               -2.35879651               -3.81174833               10.74394373               -0.77225257
              20.24430263                8.65154338               74.52844559                0.00010000                1.83363006               -0.04644594               -3.72504386               -5.46533465               10.56968723               -0.21807690
              21.26617895                8.11002335               74.17376469                0.00010000                2.33523190                0.71102606               -5.24918208               -7.19067221                9.96310920                0.33358803
              22.29100727                7.55940832               73.81118681                0.00010000                2.39166165                2.18696554               -6.84595564               -8.15830685                8.62808438                0.92642443
              23.31401219                7.01057856               73.43334725                0.00010000                2.09546312                4.07791436               -8.31634133               -7.43303503                6.44840760                1.54099507
              24.33291653                6.47933030               73.03266674                0.00010000                1.76168370                5.57794195               -9.36866378               -4.51139664                3.48312473                1.91873318
              25.34924586                5.98112787               72.60282404                0.43215601                1.63293298                5.78354829               -9.66700525               -2.01043987                1.59358161                1.46393453
              15.71214496               12.17534299               76.36052384                1.00000000                0.00968214                0.02477505               -0.04366579               -0.00762467                0.00158410                0.73114651
              16.71224178               11.69003797               75.89621359                0.36145556                0.00753277               -0.00966351               -0.01745169               -0.06947537                0.03098285               -0.46626104
              17.71229562               11.20309178               75.43249044                0.00010000               -0.14464892               -0.04630403               -0.00994757               -1.13042575                6.08254625               -1.62763771
              18.70934881               10.69627448               75.08975562                0.00010000                0.07079703                0.12266959               -1.21942630               -2.47334616               11.98591271               -1.49035066
              19.71371156               10.18090345               74.74524236                0.00010000                0.78554197                0.29635107               -2.48887846               -3.47008767               11.77353319               -1.20991774
              20.72505965                9.65574531               74.39845400                0.00010000                1.42136790                0.66947486               -3.90099424               -4.62636824               11.43620232               -0.86017620
              21.74213892                9.12210901               74.04718123                0.00010000                1.88635330                1.41493301               -5.47399370               -5.59985383               10.72215165               -0.48419945
              22.76278671                8.58452038               73.68667335                0.00010000                2.13484408                2.54810994               -7.13885994               -5.89727950                9.35339401               -0.09833587
              23.78483580                8.05086442               73.31001725                0.00010000                2.21681476                3.81757752               -8.71144031               -5.06202012                7.11178150                0.22048807
              24.80712301                7.53083023               72.90907329                0.00010000                2.26601059                4.72467197               -9.88810519               -2.97440757                3.92685421                0.25140033
              25.83015601                7.03311086               72.47610893                0.43334914                2.30330038                4.67911384              -10.30017499               -1.32655835                1.81314083               -0.33198010
              16.19756604               13.17569841               76.22463502                1.00000000                0.02955925                0.04665182               -0.12227387               -0.00470708                0.00259732                0.73482320
              17.19786163               12.69003529               75.75413646                0.38791269                0.02554263                0.00936639               -0.07281448               -0.06369139                0.06087657               -0.50964783
              18.19807689               12.20278318               75.28488930                0.00010000               -0.07207122               -0.02048956               -0.04009693               -0.94256188                6.72387523               -1.39391993
              19.19642021               11.69875372               74.94830225                0.00010000                0.12784383                0.30379618               -1.25246971               -1.99312193               13.03861954               -1.39690256
              20.20063377               11.18590675               74.60852878                0.00010000                0.70747483                0.57946016               -2.52297204               -2.71568978               12.63342220               -1.22369970
              21.21056970               10.66493288               74.26567403                0.00010000                1.23865170                1.00957260               -3.92962737               -3.42878578               12.15759349               -1.02110645
              22.22540680               10.13832201               73.91727315                0.00010000                1.68682808                1.65801265               -5.48968123               -3.90843409               11.34799750               -0.81252649
              23.24430626                9.61037052               73.55874201                0.00010000                2.05275685                2.49424689               -7.14210796               -3.87490582                9.92101645               -0.62490854
              24.26646194                9.08693011               73.18312963                0.00010000                2.34378397                3.35337478               -8.71513743               -3.13035918                7.59872428               -0.53364600
              25.29118194                8.57382374               72.78170804                0.00010000                2.58457489                3.93142972               -9.91489858               -1.73075366                4.22828975               -0.69722719
              26.31815344                8.07471015               72.34554853                0.43476143                2.69714922                3.78768718              -10.37545420               -0.74272048                1.97974472               -1.35564299
              16.68337706               14.17627603               76.08834317                0.91141644                0.05061333                0.06898294               -0.20155918               -0.00427738                0.04801664                0.66432427
              17.68388319               13.69022530               75.61175562                0.30758016                0.06744495                0.02900306               -0.13059575               -0.05679696                0.41333959               -0.52748598
              18.68472595               13.20268199               75.14265277                0.00010000                0.12398054               -0.01473588               -0.11494198               -0.69763991                7.53367532               -1.13088567
              19.68636280               12.70235040               74.80937391                0.00010000                0.42463256                0.27829626               -1.28336927               -1.19256664               13.93273744               -0.90832132
              20.69321861               12.19249265               74.47405658                0.00010000                0.88529348                0.63692195               -2.53187212               -1.57764479               13.39676336               -0.79453101
              21.70406867               11.67593676               74.13442002                0.00010000                1.26569954                1.10148023               -3.90908538               -1.90632237               12.76398979               -0.70313912
              22.71853260               11.15526926               73.78852496                0.00010000                1.63059131                1.68478623               -5.43035344               -2.09370382               11.87734922               -0.61594746
              23.73668050               10.63440532               73.43195075                0.00010000                2.01213989                2.34080099               -7.04103724               -1.98401755               10.41543585               -0.55058649
              24.75877539               10.11793192               73.05771861                0.00010000                2.40236967                2.95844237               -8.58427358               -1.49589530                8.04333332               -0.55202620
              25.78472789                9.60945882               72.65636069                0.00010000                2.73766891                3.36029210               -9.77820386               -0.74602423                4.50651834               -0.71468185
              26.81352877                9.10886460               72.21715750                0.43576187                2.88008840                3.27663710              -10.24034509               -0.27292613                2.15710002               -1.30461263
              17.16958195               15.17707807               75.95079222                0.93645833                0.07377820                0.08020428               -0.29133864               -0.02578226                0.29939845                0.60951573
              18.17031973               14.69061536               75.46980577                0.62364191                0.12085215                0.03900566               -0.18798422               -0.08582636                0.91567364               -0.53523475
              19.17199899               14.20248846               75.00141568                0.37104404                0.62192419               -0.01935278               -0.19688620               -0.58748186                8.69914640               -1.13359546
              20.18275821               13.70431965               74.67752410                0.36364203                1.17477607                0.19692451               -1.36532773               -0.55262240               14.96792961               -0.42478129
              21.19549451               13.19864519               74.34548996                0.36092049                1.34542151                0.61525364               -2.60064637               -0.64026752               14.01492262               -0.41030330
              22.20966664               12.68696248               74.00869622                0.36273937                1.47848261                1.10257225               -3.96386670               -0.77157525               13.29747932               -0.38907885
              23.22506416               12.17201773               73.66525515                0.36901700                1.61483067                1.67484706               -5.47002599               -0.83564054               12.38194459               -0.38929416
              24.24196326               11.65718654               73.31107800                0.38020590                1.82131831                2.27812156               -7.07013619               -0.76766271               10.95720697               -0.41488305
              25.26149053               11.14609895               72.93939864                0.39662120                2.16827597                2.81670365               -8.61622699               -0.53633425                8.66474032               -0.49045736
              26.28532878               10.64102958               72.54069233                0.41875155                2.61964139                3.15707565               -9.83890639               -0.23271427                5.08371370               -0.65665131
              27.31388336               10.14024289               72.10140440                0.71830513                2.85545819                3.13782928              -10.30859934               -0.04321005                2.68787259               -1.20749017
              12.75140398                5.32138405               78.31520819                1.00000000               -0.12117240               -0.10710780                0.38779250               -0.00481695               -0.38899802                0.48594161
              13.75019225                4.83292411               77.88241798                1.00000000               -0.12695135               -0.11204180                0.40409516                0.00742853               -0.47216033                0.05428999
              14.74886495                4.34421888               77.44741503                1.00000000               -0.13704291               -0.11434903                0.41954497                0.00798727               -0.49235131               -0.05089430
              15.74745139                3.85511311               77.01406752                0.66067948               -0.15859344               -0.11776000                0.43193983               -0.02305736               -0.45232846               -0.29741249
              16.74569308                3.36514201               76.58010587                0.47345786               -0.17757182               -0.11577192                0.44781737               -0.04508999               -0.44077175               -0.30125697
              17.74389996                2.87443246               76.14752265                0.13763476               -1.17989920               -0.13477784                0.45190546               -0.96132590                0.88815313               -0.55958899
              18.72209510                2.36527456               75.74106662                0.00010000               -3.39208817                1.09181750                0.39056811               -5.60506120                9.80052884               -2.88008623
              19.67605819                1.74432613               75.48201927                0.00010000               -1.08183939               -0.39633174               -1.11980538               -5.48647045               18.33813331                0.13717900
              20.70045831                1.10676807               75.22228616                0.00010000                5.33590791               -1.49640919               -1.96984219               -5.31245214               18.13860812                0.41920359
              21.78277635                0.45970619               74.95550616                1.00000000                4.48200721                0.60775875               -2.45653219               -5.20799124                8.62548596               -0.04311764
              22.79009845               -0.07990440               74.51648809                1.00000000                0.73221004                0.58585941               -2.36137312               -0.13807263                0.00036554               -0.03906271
              13.23981575                6.32031297               78.17802330                1.00000000               -0.09666234               -0.09762508                0.32185288               -0.00695039                0.02200719                0.67963746
              14.23884912                5.83180369               77.74506721                1.00000000               -0.09827109               -0.10494509                0.33915438                0.00550316                0.09697886                0.07769539
              15.23785032                5.34307539               77.31313465                1.00000000               -0.10449339               -0.10822059                0.35576749                0.00475274                0.16145828               -0.23857205
              16.23675926                4.85393551               76.88139382                0.82382813               -0.11339115               -0.11722496                0.38009335               -0.01520100                0.23951240               -0.24488531
              17.23558250                4.36398429               76.45134535                0.68810380               -0.12694168               -0.11701912                0.38334456               -0.03608465                0.22461283               -0.22849106
              18.23422042                3.87308468               76.02001146                0.34902576               -0.22424264               -0.12879785                0.38927359               -0.31295322                0.25340174               -0.41170927
              19.23109765                3.37619274               75.59161658                0.00010000                0.81131580                0.44882673                0.37039583               -6.34990870                9.42026207               -1.57089811
              20.25044674                2.74036282               75.34431484                0.00010000                2.92730551               -1.81263513               -0.97443283               -8.75800620               17.33522149                0.48006936
              21.28964376                2.09180398               75.07003440                0.00010000                3.67929684               -0.99022846               -1.54735278               -7.21359715               15.67806890                0.37368310
              22.32403267                1.46578378               74.78465734                1.00000000                1.93422788                0.48719708               -1.51058390               -4.15406281                7.68939789               -0.00114469
              23.32832832                0.92595419               74.34557484                1.00000000                0.42956424                0.47295661               -1.42696285               -0.16273723               -0.00042752               -0.03390658
              13.72828353                7.31943155               78.04397732                1.00000000               -0.07436295               -0.07455984                0.25376389               -0.00981447                0.15690379                0.79742948
              14.72753990                6.83082521               77.60787989                1.00000000               -0.07276684               -0.08994772                0.27436254                0.00011520                0.34802650               -0.00035156
              15.72682819                6.34205447               77.17520636                0.00010000               -0.06507131               -0.09165283                0.29338322               -0.01751600                0.90698770               -0.67253779
              16.72623847                5.85276861               76.75029770                0.00010000               -0.05029917               -0.62093236                0.33112928               -0.33394903                1.25541137                0.22621955
              17.72582221                5.36280163               76.32501589                0.00010000               -0.04030138               -1.09116894                0.31586048               -0.24205000                1.04599975                1.17155116
              18.72543245                4.87185651               75.89684446                0.00010000                0.09982910               -1.84690099                0.32508265                0.16294921                1.04288936                2.49028332
              19.72781879                4.37425110               75.47285578                0.00010000                2.99271940               -4.20601871                0.29158444               -6.33042088                9.65241404                5.08908457
              20.78528683                3.70807343               75.21956209                0.00010000                5.14733072               -2.62384460               -1.51226106              -11.35153977               15.44276857                1.69719596
              21.83076541                3.08696350               74.91823928                0.00010000                4.01290230               -0.42172648               -1.84474432               -8.95070593               13.01569312               -0.24990354
              22.86554488                2.46945013               74.61464097                0.00010000                1.78687353                0.24539808               -0.52967894               -3.76206058                6.77889068               -0.22551236
              23.86650288                1.92955473               74.17529061                1.00000000                0.09579966                0.25294870               -0.45624364               -0.14806738                0.02154279               -0.30085033
              14.21683214                8.31882178               77.90847904                1.00000000               -0.06036289               -0.04459477                0.18744865               -0.00677979                0.26415703                0.68007193
              15.21622851                7.83000474               77.46873496                0.45835858               -0.06377647               -0.08026317                0.21454483                0.01220181                0.45237161               -0.36678671
              16.21555661                7.34124233               77.03243230                0.00010000               -0.34476968               -0.11870687                0.22595757               -0.50495932                2.19438627               -1.18789143
              17.20933312                6.84151686               76.62761050                0.00010000               -0.19515030               -0.94249038               -0.17979048               -1.25281779                3.95961635                0.32704185
              18.21165360                6.34216091               76.22525146                0.00010000                0.83484100               -1.92091044               -0.59683785               -1.25052893                4.38289556                2.01852257
              19.22602994                5.83614666               75.82884666                0.00010000                2.83093521               -3.53179169               -1.09926317               -2.39047992                5.84969759                4.24998007
              20.26827231                5.29207236               75.45858986                0.00010000                4.23368036               -6.10755414               -1.85870822               -5.72928569                7.53511312                7.08430861
              21.31070354                4.68788592               75.10558834                0.00010000                4.04903171               -1.60259704               -2.54762397               -9.75460473                8.12343201                2.47753495
              22.34925294                4.08336945               74.75926240                0.00010000                4.77483439                0.15689168               -2.91042443              -10.85796788                8.74232755                0.36331713
              23.40620023                3.47069174               74.43856825                0.00010000                2.79524142                2.72086268               -3.14946534               -8.77215671                2.69509783               -0.99297655
              24.40515777                2.93101317               73.99890157                0.42261163               -0.10424612                4.48655935               -0.77841531               -5.41550754               -2.86614429                1.64503210
              14.70578201                9.31853965               77.77149091                1.00000000               -0.04186297               -0.01659664                0.12115080               -0.00735225               -0.00728436                0.59226666
              15.70536338                8.82921995               77.32406564                0.33450845               -0.02825612               -0.07268790                0.16664543                0.00004688                0.39764168               -0.54951707
              16.70521689                8.33968033               76.88448156                0.00010000               -0.25499204               -0.18509269                0.16472553               -0.79700904                3.42686296               -1.73917125
              17.70026354                7.83391880               76.49783499                0.00010000                0.04824689               -0.67706690               -0.56741789               -1.65806581                6.26687478               -0.37543088
              18.70618182                7.32438342               76.11386043                0.00010000                1.37239282               -1.54287379               -1.32259968               -2.28605013                6.66774575                0.87651494
              19.72771139                6.80122067               75.73552249                0.00010000                2.76559968               -2.68635826               -2.16955552               -4.07419294                7.07908148                2.10036388
              20.76149382                6.25210002               75.36361883                0.00010000                3.55931313               -2.75538752               -3.07159303               -7.49443514                7.12661874                2.43216224
              21.79889766                5.67602149               74.99460584                0.00010000                3.46532080               -0.53326117               -3.87749517              -10.01977833                6.43389216                2.24247506
              22.83080023                5.09010133               74.62154852                0.00010000                2.17801836                1.66238378               -4.37107940              -10.32621793                4.09411763                1.76253664
              23.84245802                4.52386738               74.22098623                0.00010000                0.33748172                5.25033412               -4.30814113               -8.47712039                1.94742239               -0.33882709
              24.83754987                4.01928592               73.80814008                0.42380289               -0.49081566                7.16971568               -4.18754455               -5.06615480                1.89022265                0.28417178
              15.19532451               10.31848984               77.63374122                1.00000000               -0.02357390                0.00385842                0.04847752               -0.00793654                0.00194910                0.60451185
              16.19508877                9.82855098               77.18122829                0.33641768               -0.02034670               -0.05774558                0.11634893               -0.04385906                0.12849198               -0.44536129
              17.19491758                9.33754048               76.73107739                0.00010000               -0.18100297               -0.18125811                0.15258278               -1.03088060                4.25719684               -1.85052119
              18.19146871                8.82797552               76.36140709                0.00010000                0.18565756               -0.48007855               -0.83920640               -2.22806509                8.21978372               -0.95757137
              19.19863073                8.31130344               75.99011902                0.00010000                1.26803843               -0.94624893               -1.82957386               -3.20243765                8.15281190               -0.15422312
              20.21682948                7.78241950               75.61979677                0.00010000                2.24760295               -1.22844751               -2.88190070               -5.00881666                8.03799846                0.51037823
              21.24358279                7.23696461               75.24925190                0.00010000                2.77385900               -0.74258693               -3.96980575               -7.22218377                7.49491244                1.00222732
              22.27230666                6.67722070               74.87423871                0.00010000                2.56499512                0.75865614               -4.97318746               -8.72998323                6.22584174                1.35546203
              23.29488269                6.11661712               74.48709346                0.00010000                1.75832886                2.89566059               -5.72527132               -8.37559353                4.34776747                1.55612765
              24.30747324                5.57569842               74.08265292                0.00010000                0.90574593                4.83764398               -6.11258913               -5.19749524                2.18475347                1.97245110
              25.31299761                5.07440748               73.65565975                0.42494733                0.55243696                5.06624089               -6.03895248               -2.30027622                1.07926197                1.03199521
              15.68550100               11.31861682               77.49662924                1.00000000               -0.00654412                0.02213443               -0.02082207               -0.00523977               -0.00186889                0.67071071
              16.68543556               10.82806504               77.03867114                0.36336098               -0.01631343               -0.04075780                0.06963681               -0.06150768                0.03073568               -0.43134331
              17.68517474               10.33605517               76.58128524                0.00010000               -0.17481415               -0.12447152                0.14576317               -1.12102534                4.87666050               -1.61394758
              18.68193928                9.82431723               76.22057370                0.00010000                0.12571785               -0.21098929               -1.00626514               -2.47049172                9.57528450               -1.29714388
              19.68768909                9.30545844               75.85769199                0.00010000                0.99673021               -0.27819983               -2.14698137               -3.48418014                9.33116593               -0.82610409
              20.70187388                8.77665172               75.49304329                0.00010000                1.72799244               -0.13612572               -3.33853018               -4.87855674                8.95146839               -0.35335591
              21.72224894                8.23724828               75.12476790                0.00010000                2.13858007                0.49260944               -4.56698147               -6.26854798                8.18102919                0.10150892
              22.74464549                7.69119461               74.74864837                0.00010000                2.12808511                1.69878060               -5.74489466               -6.93559629                6.85321842                0.54032599
              23.76481064                7.14801454               74.35915847                0.00010000                1.80361378                3.15390190               -6.72370222               -6.14380692                4.95326382                0.94488266
              24.78071776                6.62062026               73.95065234                0.00010000                1.46577903                4.23005168               -7.33105506               -3.65864717                2.61270190                1.00981444
              25.79412622                6.12061073               73.51934696                0.42614198                1.34084628                4.26229504               -7.42235444               -1.61524875                1.25165903                0.37653113
              16.17632329               12.31893253               77.35985870                1.00000000                0.00969809                0.04140568               -0.08662362               -0.00313779                0.00193901                0.71164388
              17.17642027               11.82773583               76.89626850                0.38736098               -0.00392073               -0.02553997                0.02497026               -0.06127607                0.02740211               -0.44412132
              18.17624488               11.33505105               76.43318535                0.00010000               -0.18823332               -0.08809820                0.13377662               -1.05685780                5.43195037               -1.55222267
              19.17265561               10.82375573               76.07811178                0.00010000                0.01838768                0.07560174               -1.09858858               -2.31924399               10.65272905               -1.39391590
              20.17661263               10.30573944               75.72104435                0.00010000                0.74064517                0.24091484               -2.32538019               -3.18473119               10.32278516               -1.12378456
              21.18746851                9.77969698               75.36083431                0.00010000                1.35281528                0.56107056               -3.59769458               -4.17754614                9.80543849               -0.79231593
              22.20366894                9.24681680               74.99524645                0.00010000                1.76799795                1.17682484               -4.91007630               -4.96735958                8.93969436               -0.44214317
              23.22282847                8.71119631               74.62030616                0.00010000                1.94559818                2.08397626               -6.18791267               -5.12634298                7.56318003               -0.10095472
              24.24258090                8.17969516               74.23072282                0.00010000                1.94378173                3.06107541               -7.28826105               -4.31077608                5.58742937                0.13534574
              25.26170410                7.66029945               73.82081361                0.00010000                1.90653950                3.70469280               -8.01558576               -2.48138743                3.01823239                0.06640935
              26.28071169                7.15965338               73.38539195                0.42737179                1.90075865                3.57097090               -8.16588963               -1.07794101                1.41266505               -0.61516890
              16.66783166               13.31944494               77.22323389                1.00000000                0.02598621                0.05987770               -0.15544167               -0.00278280                0.00417480                0.71365031
              17.66809153               12.82755424               76.75371283                0.41572833                0.00930035               -0.01021022               -0.01544979               -0.05482809                0.05969072               -0.48425259
              18.66801767               12.33429320               76.28537238                0.00010000               -0.16127581               -0.06774437                0.12051876               -0.85354859                6.05119608               -1.33451739
              19.66486601               11.82582926               75.93622200                0.00010000                0.00177741                0.28447618               -1.15346907               -1.83858969               11.68640192               -1.27442170
              20.66805322               11.31027674               75.58367332                0.00010000                0.61897946                0.56141713               -2.41944934               -2.49577759               11.19693248               -1.07682951
              21.67724560               10.78787313               75.22720846                0.00010000                1.16746018                0.93539251               -3.72884082               -3.13186458               10.57372426               -0.85454501
              22.69140242               10.26078477               74.86433742                0.00010000                1.59973356                1.47237466               -5.07640140               -3.52875157                9.63376450               -0.62443731
              23.70924027                9.73287414               74.49116239                0.00010000                1.90447793                2.14246523               -6.39429194               -3.44651988                8.20101170               -0.42027825
              24.72949198                9.20923605               74.10230888                0.00010000                2.09457608                2.80361778               -7.54188997               -2.73642994                6.12275259               -0.32823273
              25.75113179                8.69471412               73.69147147                0.00010000                2.21837847                3.20782016               -8.31370261               -1.48485673                3.34158240               -0.51185702
              26.77385955                8.19203015               73.25257400                0.42826960                2.27277588                3.00244256               -8.48133198               -0.60366014                1.57340112               -1.18110073
              17.16004904               14.32013009               77.08622850                0.92869870                0.04264048                0.07712783               -0.22061355               -0.00218335                0.04088421                0.63498814
              18.16047544               13.82753162               76.61082977                0.33248175                0.04249201                0.00551370               -0.05773253               -0.04659681                0.38661008               -0.49726388
              19.16089888               13.33369616               76.14249832                0.00010000               -0.02875816               -0.06279539                0.06580344               -0.57424416                6.83585244               -1.08537847
              20.15990028               12.82944526               75.79685660                0.00010000                0.18771651                0.33539014               -1.20784117               -1.06378506               12.58891780               -0.82008019
              21.16465321               12.31696778               75.44874966                0.00010000                0.72114509                0.67639463               -2.49316519               -1.44850633               11.98913138               -0.67910854
              22.17432318               11.79840484               75.09554422                0.00010000                1.17198456                1.08498554               -3.81659243               -1.76075858               11.23719752               -0.56106175
              23.18809290               11.27626430               74.73526386                0.00010000                1.55618057                1.57603748               -5.17561595               -1.91836375               10.23857008               -0.44280749
              24.20544679               10.75404562               74.36412032                0.00010000                1.89597098                2.10770255               -6.50655121               -1.79666000                8.76962786               -0.34515813
              25.22601232               10.23576751               73.97662419                0.00010000                2.18830373                2.58390440               -7.67297165               -1.33485808                6.61806439               -0.32313265
              26.24921287                9.72445586               73.56575969                0.00010000                2.39970504                2.85836647               -8.46212781               -0.65276401                3.64058411               -0.47638736
              27.27400642                9.21970223               73.12392830                0.42953819                2.47935527                2.70834401               -8.61330794               -0.20635324                1.73461003               -1.01925987
              17.65298493               15.32098749               76.94783911                0.94473098                0.06085866                0.08574067               -0.29756313               -0.03870934                0.29133631                0.57067230
              18.65359351               14.82766451               76.46841018                0.63298737                0.08171110                0.01328886               -0.09739511               -0.08570260                0.86005855               -0.49811424
              19.65461915               14.33303730               76.00059605                0.37026971                0.33625863               -0.06588648                0.01038132               -0.38434497                7.94656568               -1.08154320
              20.66031869               13.83253707               75.66403125                0.36348937                0.77521824                0.30918071               -1.31452702               -0.41979254               13.59500827               -0.38680974
              21.67012351               13.32380463               75.31913427                0.36084486                1.12076130                0.68368473               -2.61875844               -0.60118038               12.60039916               -0.35380541
              22.68273391               12.80957284               74.96868760                0.36270289                1.36354252                1.11680084               -3.96204082               -0.73388208               11.76949286               -0.31467492
              23.69739436               12.29230552               74.61075947                0.36831692                1.55349687                1.60412273               -5.34255012               -0.79708611               10.73941333               -0.29021043
              24.71380385               11.77502819               74.24184491                0.37846372                1.74951070                2.09825720               -6.70080643               -0.73386333                9.29317918               -0.28509868
              25.73238458               11.26091414               73.85661854                0.39342522                2.01689717                2.51466249               -7.90356546               -0.52011094                7.19120993               -0.32857142
              26.75414179               10.75188145               73.44795422                0.41394913                2.34275780                2.74255921               -8.73960718               -0.24296260                4.14675902               -0.46759748
              27.77923974               10.24619703               73.00596533                0.71521380                2.50979413                2.64948013               -8.89723036               -0.04510999                2.15888411               -0.92485048
              13.18021353                5.46374123               79.31845753                1.00000000               -0.09426286               -0.07138266                0.26519118                0.00738933               -0.38968078                0.48271714
              14.17927091                4.97114205               78.88617222                1.00000000               -0.10961356               -0.09689018                0.34721235                0.01748466               -0.47461931                0.05447768
              15.17802126                4.47832487               78.45166290                1.00000000               -0.13872486               -0.11879175                0.42755161                0.01798605               -0.49685615               -0.04755383
              16.17649641                3.98515277               78.01877910                0.66870664               -0.17692663               -0.14245627                0.50511382               -0.00915313               -0.45498055               -0.28198228
              17.17448273                3.49122513               77.58531470                0.47883542               -0.21271973               -0.16205691                0.58574770               -0.02809326               -0.44363708               -0.29862560
              18.17224201                2.99666387               77.15315219                0.13881901               -1.04600260               -0.20115755                0.66398811               -0.79755388                0.80320654               -0.56006625
              19.15356268                2.48661661               76.74549139                0.00010000               -2.70873733                0.83101284                0.48351889               -4.79319474                9.12087679               -2.66752963
              20.11806727                1.88163306               76.47230587                0.00010000               -0.47555816               -0.67447114               -0.83415289               -4.70648810               16.98698739               -0.05225572
              21.14405151                1.25974472               76.20357406                0.00010000                5.16995727               -1.56405672               -1.77763536               -4.63140998               17.15242435                0.18079572
              22.22146641                0.62523960               75.93099220                1.00000000                4.22937204                0.58988690               -2.43370405               -4.57888603                8.27421653               -0.04894733
              23.22863896                0.08568813               75.49331702                1.00000000                0.71725435                0.53384015               -2.24842393               -0.11744101               -0.01009441               -0.06836423
              13.67288660                6.46302740               79.18067212                1.00000000               -0.07326698               -0.06366912                0.21080133               -0.00506015                0.01948484                0.67320708
              14.67215393                5.97017315               78.74823171                1.00000000               -0.08454188               -0.09157697                0.29401350                0.00560970                0.09317897                0.07784398
              15.67119577                5.47713695               78.31680442                1.00000000               -0.10995953               -0.11464534                0.37571676                0.00479932                0.16156735               -0.23257748
              16.66995474                4.98372821               77.88564189                0.84284196               -0.13747601               -0.14304319                0.46450125               -0.01248910                0.23631978               -0.22499401
              17.66844625                4.48960457               77.45598399                0.70282699               -0.16920029               -0.16433559                0.53746365               -0.03115275                0.21912365               -0.22283584
              18.66657074                3.99465230               77.02509343                0.36247397               -0.26500538               -0.19788304                0.61828745               -0.25062230                0.24970504               -0.40692758
              19.66314614                3.49492674               76.59702201                0.00010000                0.89337985                0.27024408                0.69913779               -5.51836313                8.71337398               -1.50265219
              20.68443833                2.87488835               76.33596002                0.00010000                3.13940028               -1.93771037               -0.71387837               -7.62533825               16.27174782                0.06170344
              21.72593414                2.24410415               76.05539126                0.00010000                3.91337554               -1.19226564               -1.42240753               -6.27107579               15.22511949               -0.23056284
              22.76270584                1.63113847               75.76948300                1.00000000                2.05409376                0.45934194               -1.54001141               -3.51425429                7.58857029               -0.04394878
              23.76701602                1.09102653               75.33159354                1.00000000                0.43101739                0.40387946               -1.37334973               -0.13412023                0.00523522               -0.09911709
              14.16582083                7.46246785               79.04600488                1.00000000               -0.05472798               -0.04444842                0.15452259               -0.00764840                0.15297805                0.78822901
              15.16527355                6.96931051               78.61045805                1.00000000               -0.06293191               -0.08017437                0.24138689                0.00073148                0.34269201                0.00236283
              16.16456219                6.47603196               78.17831610                0.00010000               -0.07472720               -0.10249662                0.32603434               -0.01592276                0.91028467               -0.66657309
              17.16377901                5.98229190               77.75410436                0.00010000               -0.08133056               -0.61867197                0.42556311               -0.29556045                1.24792341                0.02285923
              18.16293558                5.48793842               77.32904568                0.00010000               -0.09358075               -1.06753053                0.48440533               -0.19116649                1.03566954                0.76605143
              19.16190739                4.99270621               76.90135935                0.00010000                0.00118909               -1.75349740                0.57081787                0.22166617                1.04027273                1.84345366
              20.16295937                4.49202149               76.47759353                0.00010000                2.72378494               -3.87468478                0.64739067               -5.44170289                8.75472878                4.09264084
              21.21638309                3.84287885               76.20678625                0.00010000                4.97102548               -2.53673996               -1.10688609              -10.00524600               14.23613778                0.72005498
              22.26237987                3.23589940               75.89998553                0.00010000                4.39379250               -0.65281849               -1.77528110               -8.38834546               13.21488899               -1.15730986
              23.30425894                2.63442644               75.60799445                0.00010000                2.19002785                1.76729255               -0.73744382               -6.20378621                7.29501161               -3.67212316
              24.30618043                2.09376572               75.16989970                0.95436674                0.19214890                3.09958669               -0.58153639               -3.03363644                0.06955538               -1.45677255
              14.65904830                8.46213843               78.90990751                1.00000000               -0.04438505               -0.01963199                0.10090885               -0.00318850                0.25796147                0.66776880
              15.65860445                7.96856966               78.47077938                0.47503665               -0.05761908               -0.07458976                0.19418044                0.01363497                0.43772103               -0.35405547
              16.65789592                7.47508702               78.03492818                0.00010000               -0.32336901               -0.13417056                0.27048688               -0.47110061                1.96686192               -1.17771056
              17.65213707                6.97135477               77.62644453                0.00010000               -0.18436555               -0.93034266               -0.05425928               -1.14645515                3.48945305               -0.05183562
              18.65420861                6.46825395               77.22043440                0.00010000                0.73919602               -1.83888921               -0.37391733               -1.08380955                3.83818562                1.27613263
              19.66692099                5.95958235               76.81970795                0.00010000                2.49654160               -3.27949734               -0.74651000               -2.02574684                5.12318430                3.08950059
              20.70413944                5.41743304               76.44288563                0.00010000                3.67672565               -5.54333961               -1.35642260               -4.84433413                6.68165634                5.44749153
              21.74045550                4.82415355               76.08286647                0.00010000                3.12401019               -1.48246864               -1.97417718               -8.52577393                7.73418345                1.17712015
              22.76661964                4.23104778               75.73822946                0.00010000                2.01541499                0.39155201               -2.10315488               -8.28362312                6.80384520               -1.28766675
              23.78076380                3.66648432               75.37344796                0.00010000                1.05225452                3.20525888               -4.74122865               -5.78904077                2.23295894               -3.68539682
              24.78766473                3.15301827               74.98131544                0.41718676                0.69009311                4.84659300               -2.81528926               -3.24965549                0.85649136               -1.18885509
              15.15289460                9.46207521               78.77230860                1.00000000               -0.02969324                0.00290511                0.04625490               -0.00233360               -0.00696076                0.57363943
              16.15259767                8.96781872               78.32571473                0.35539366               -0.02697612               -0.07186134                0.16402658                0.00118938                0.37174242               -0.53004816
              17.15235508                8.47334855               77.88646059                0.00010000               -0.24573513               -0.20190822                0.22784817               -0.74857408                3.01418601               -1.69235624
              18.14768297                7.96368505               77.49288855                0.00010000                0.03383648               -0.68911593               -0.42171843               -1.54155294                5.43313268               -0.62551608
              19.15303181                7.45116064               77.10193370                0.00010000                1.22652006               -1.48950671               -1.06864138               -2.04606282                5.73444277                0.34053857
              20.17221337                6.92711627               76.71602299                0.00010000                2.42348370               -2.51106795               -1.76054856               -3.54449374                6.04353925                1.27833219
              21.20150148                6.38115470               76.33621672                0.00010000                3.00197554               -2.53245418               -2.47308732               -6.43763080                6.12511027                1.38663486
              22.23225288                5.81322948               75.96065376                0.00010000                2.64375772               -0.51528805               -3.07276839               -8.23482147                5.56205926                0.93904238
              23.25437664                5.24373044               75.58124450                0.00010000                1.71273803                1.58854798               -3.59959733               -7.46789439                3.92262355               -0.18444894
              24.26650764                4.69853162               75.18758684                0.00010000                0.68713997                3.12849859               -3.31325081               -4.53838185                1.80895202               -0.98155581
              25.26811944                4.19069758               74.76971481                0.41810887                0.16117971                3.69273234               -3.51264428               -2.69006397                0.97066655               -2.65223939
              15.64751461               10.46219654               78.63391529                1.00000000               -0.01597090                0.02122225               -0.01032817               -0.00177434                0.00277980                0.58297525
              16.64735490                9.96713244               78.18244048                0.35993696               -0.02282506               -0.06286164                0.12661594               -0.03933553                0.11623702               -0.42599388
              17.64705810                9.47104885               77.73308524                0.00010000               -0.19304879               -0.20130962                0.24187439               -0.96812511                3.71233081               -1.77006329
              18.64349392                8.95757245               77.35378291                0.00010000                0.13990167               -0.50161453               -0.68508832               -2.07351317                7.11052712               -1.08083262
              19.64985614                8.43846382               76.97312707                0.00010000                1.12715666               -0.93141606               -1.57264105               -2.87915943                6.96957873               -0.46880990
              20.66603705                7.90936099               76.59319451                0.00010000                1.97087363               -1.18387689               -2.46365768               -4.38185705                6.77421823                0.00672837
              21.68927361                7.36678396               76.21311602                0.00010000                2.35731389               -0.75478658               -3.32854025               -6.14101133                6.23859331                0.28720843
              22.71318333                6.81384779               75.82952570                0.00010000                2.13430027                0.54589542               -4.08890554               -7.12685185                5.16277231                0.34748555
              23.73195962                6.26281874               75.43678703                0.00010000                1.49228489                2.10582016               -4.58031418               -6.40483213                3.58326683                0.24582063
              24.74302903                5.72905429               75.02874089                0.00010000                0.87859595                3.14171374               -4.82008325               -3.87356946                1.82220710               -0.09882535
              25.74953153                5.22687291               74.60358109                0.41935258                0.65025052                3.41143602               -4.74567760               -1.77962023                1.03006691               -0.97048844
              16.14298731               11.46249965               78.49617431                1.00000000               -0.00286696                0.03873414               -0.06788074               -0.00133985               -0.00002615                0.64891307
              17.14295864               10.96656149               78.03949206                0.38824052               -0.02173731               -0.05092872                0.09292376               -0.05345075                0.02938460               -0.40857486
              18.14255257               10.46932236               77.58332148                0.00010000               -0.20804542               -0.15443325                0.25220886               -1.04377443                4.24606526               -1.53267804
              19.13879773                9.95365276               77.21125190                0.00010000                0.05537556               -0.24122942               -0.85690655               -2.28697860                8.28653546               -1.31286178
              20.14366008                9.43253232               76.83739473                0.00010000                0.87291767               -0.30086972               -1.91173601               -3.13127158                7.98464894               -0.95270439
              21.15625609                8.90343873               76.46167498                0.00010000                1.52671907               -0.18135857               -2.95165826               -4.27720468                7.52776349               -0.60123362
              22.17419446                8.36605897               76.08242506                0.00010000                1.87124881                0.34563319               -3.95631487               -5.35519991                6.74773879               -0.29451209
              23.19368106                7.82414739               75.69628892                0.00010000                1.84395142                1.30697403               -4.84727261               -5.74107551                5.54822204               -0.05208054
              24.21107349                7.28584685               75.29887320                0.00010000                1.56505059                2.38010938               -5.52455912               -4.93320889                3.95299401                0.07688147
              25.22498208                6.76136589               74.88604563                0.00010000                1.29081548                3.11424972               -5.88663187               -2.85655257                2.06609397               -0.06470120
              26.23688980                6.25892630               74.45437695                0.42008064                1.19077213                3.03537631               -5.87993180               -1.25790430                1.00873974               -0.86293997
              16.63936414               12.46297122               78.35879136                1.00000000                0.00990366                0.05509827               -0.12487409               -0.00051776                0.00216519                0.68644391
              17.63946318               11.96611386               77.89671299                0.41478645               -0.01364004               -0.03862566                0.06146184               -0.05263593                0.02915137               -0.41613373
              18.63909134               11.46796019               77.43516598                0.00010000               -0.24593955               -0.12712478                0.25215684               -0.96634654                4.74555912               -1.46963264
              19.63454439               10.95274786               77.06778384                0.00010000               -0.08233005                0.04338557               -0.96444797               -2.12320945                9.25575140               -1.33749765
              20.63744474               10.43244643               76.69873475                0.00010000                0.62109611                0.20662646               -2.13001850               -2.85440823                8.87952676               -1.11554279
              21.64696631                9.90573382               76.32650010                0.00010000                1.20081064                0.48466704               -3.27377023               -3.68129023                8.29230146               -0.84536191
              22.66146095                9.37369662               75.94897970                0.00010000                1.58038177                0.98784443               -4.37904719               -4.29064231                7.40580774               -0.57334393
              23.67857394                8.83998727               75.56291510                0.00010000                1.73079894                1.70017032               -5.37926653               -4.33008632                6.13357626               -0.33772876
              24.69607693                8.31042093               75.16425203                0.00010000                1.71222898                2.43086168               -6.16796931               -3.55567783                4.44609054               -0.22631368
              25.71281852                7.79133929               74.74876157                0.00010000                1.65878530                2.86373152               -6.62267048               -2.00370461                2.37205072               -0.41525363
              26.72925264                7.28758044               74.31279113                0.42124529                1.64341132                2.68127455               -6.63074024               -0.84955559                1.13372851               -1.11576821
              17.13669167               13.46360162               78.22152618                1.00000000                0.02252871                0.06996760               -0.18379856                0.00013835                0.00624574                0.68650509
              18.13691696               12.96578897               77.75382746                0.44591755               -0.00500152               -0.02655957                0.03489977               -0.04696822                0.06167284               -0.45179333
              19.13659164               12.46677986               77.28729968                0.00010000               -0.25348253               -0.11047176                0.25239480               -0.74718332                5.31987264               -1.26523610
              20.13184731               11.95452047               76.92523287                0.00010000               -0.15028426                0.26958455               -1.03913314               -1.63847915               10.21972741               -1.18714297
              21.13358595               11.43666485               76.56013979                0.00010000                0.47663900                0.55015499               -2.27347663               -2.22597641                9.70262794               -0.99890067
              22.14138009               10.91313207               76.19109722                0.00010000                1.02711050                0.87512834               -3.48413860               -2.77584391                9.02074122               -0.79456791
              23.15412816               10.38581586               75.81574512                0.00010000                1.44874751                1.31472200               -4.65493524               -3.08571642                8.06060455               -0.58969540
              24.17035504                9.85815079               75.43085617                0.00010000                1.72398730                1.84161840               -5.72234083               -2.96065032                6.72274622               -0.42036039
              25.18860791                9.33446408               75.03229183                0.00010000                1.86967173                2.33693413               -6.57624491               -2.30449436                4.92698637               -0.37037378
              26.20774847                8.81864052               74.61543399                0.00010000                1.94042386                2.60545157               -7.07415086               -1.22476723                2.65460519               -0.57949428
              27.22741639                8.31255179               74.17592189                0.42238107                1.96679164                2.37538179               -7.07536280               -0.47731759                1.25956953               -1.21717273
              17.63499220               14.46437057               78.08393090                0.94658492                0.03533727                0.08343355               -0.23776982               -0.00004597                0.03328240                0.60262660
              18.63534557               13.96558267               77.61060097                0.36040115                0.02119880               -0.01483564                0.00778106               -0.03864061                0.36140960               -0.46153126
              19.63541617               13.46575075               77.14396884                0.00010000               -0.17278769               -0.10588625                0.21416374               -0.43627627                6.05724409               -1.02777603
              20.63188982               12.95813955               76.78521709                0.00010000               -0.05512793                0.38568437               -1.11107572               -0.90141876               11.07903736               -0.75404348
              21.63431362               12.44344953               76.42419328                0.00010000                0.52043013                0.70675005               -2.39465794               -1.28214899               10.45939806               -0.60677220
              22.64229842               11.92323639               76.05808817                0.00010000                1.02071415                1.06250742               -3.64860793               -1.57036223                9.66113578               -0.48682105
              23.65472790               11.39999106               75.68501264                0.00010000                1.42071481                1.47032208               -4.86164352               -1.69248961                8.64486211               -0.36838541
              24.67071272               10.87681964               75.30181973                0.00010000                1.73847074                1.89422912               -5.97206953               -1.56093612                7.26377086               -0.27267618
              25.68949731               10.35715961               74.90425917                0.00010000                1.97613759                2.25373769               -6.86753022               -1.13869048                5.38479537               -0.25437017
              26.71023547                9.84344832               74.48711814                0.00010000                2.11932197                2.43240155               -7.39124711               -0.54514205                2.92340238               -0.40395104
              27.73188375                9.33508807               74.04489134                0.42337077                2.16482847                2.25600102               -7.36937691               -0.15490292                1.39172646               -0.88436365
              18.13426655               15.46527029               77.94484095                0.95322270                0.04974149                0.08997174               -0.30233612               -0.05036780                0.28154486                0.53166566
              19.13476396               14.96549226               77.46785787                0.64299617                0.05213430               -0.00904121               -0.01848376               -0.08856836                0.80860501               -0.45806074
              20.13530923               14.46466213               77.00162330                0.36927458                0.06780964               -0.10886167                0.17829887               -0.17359890                7.09171929               -1.01612069
              21.13612016               13.96223416               76.65123356                0.36323917                0.37684522                0.40946090               -1.22992620               -0.27008042               12.00773642               -0.35154080
              22.14284614               13.45079985               76.29311479                0.36084094                0.86555737                0.73503214               -2.54952216               -0.53934476               11.01987117               -0.31097827
              23.15343130               12.93438222               75.92945541                0.36253102                1.19244911                1.11458309               -3.83908305               -0.66558900               10.14450396               -0.26674458
              24.16669512               12.41522230               75.55840415                0.36773613                1.42682330                1.52312352               -5.08817917               -0.72061971                9.09149462               -0.23433053
              25.18196777               11.89603538               75.17706187                0.37685662                1.62551474                1.92157398               -6.23829346               -0.65866788                7.72023984               -0.21823570
              26.19920542               11.37953883               74.78132734                0.39044885                1.84746969                2.23792252               -7.17784248               -0.46653072                5.87291772               -0.24806831
              27.21891716               10.86728856               74.36590019                0.40914714                2.09167027                2.38402347               -7.74686153               -0.22518151                3.34444382               -0.36792852
              28.24103882               10.35767181               73.92345979                0.71203390                2.21216580                2.25837370               -7.72923358               -0.04616749                1.72590044               -0.74554574
              13.60818098                5.60660921               80.32051202                1.00000000               -0.06864809               -0.03794423                0.14908674                0.01907838               -0.39104642                0.47977202
              14.60749450                5.10989469               79.88936223                1.00000000               -0.09300158               -0.08199527                0.29144593                0.02736835               -0.47854291                0.05509433
              15.60632094                4.61298476               79.45596606                1.00000000               -0.13972551               -0.12141142                0.43061682                0.02771448               -0.50361630               -0.04380182
              16.60469999                4.11574789               79.02416980                0.67616322               -0.19368466               -0.16375222                0.56759934                0.00291660               -0.46037479               -0.26807312
              17.60244725                3.61783090               78.59182082                0.48610531               -0.24562934               -0.20343127                0.70690595               -0.01334337               -0.44478716               -0.29459650
              18.59978740                3.11934866               78.16080241                0.14794086               -0.85441490               -0.26096899                0.85431485               -0.60949883                0.62956741               -0.56184593
              19.58535895                2.60886272               77.75073699                0.00010000               -2.10360659                0.51748393                0.60435826               -4.25483915                8.32232585               -2.27341795
              20.55771527                2.01597271               77.46533621                0.00010000               -0.02692437               -0.88562031               -0.56962635               -4.12593860               15.60618761               -0.22531940
              21.58482047                1.40674958               77.18673345                0.00010000                5.04012289               -1.59683288               -1.59941127               -4.13108375               15.98119528               -0.04471174
              22.65851772                0.78174563               76.90683208                1.00000000                4.02132260                0.61569178               -2.35697437               -4.12030690                7.80269832                0.02750489
              23.66524692                0.24217528               76.47151961                1.00000000                0.67291935                0.52138869               -2.06185625               -0.06053086               -0.02067082               -0.02070309
              14.10508627                6.60622976               80.18223933                1.00000000               -0.05058711               -0.03242304                0.10568466               -0.00271426                0.01667903                0.66694536
              15.10458040                6.10907474               79.75094748                1.00000000               -0.07073915               -0.07849500                0.24951349                0.00644537                0.08869612                0.07854963
              16.10367149                5.61177064               79.32064899                1.00000000               -0.11371624               -0.11927536                0.39070142                0.00511305                0.16044519               -0.22564999
              17.10230608                5.11411037               78.89068384                0.85950534               -0.15790290               -0.16623697                0.53859855               -0.01033412                0.23482606               -0.20693894
              18.10051343                4.61579659               78.46209463                0.71758568               -0.20647878               -0.20793277                0.67703284               -0.02690219                0.22151494               -0.21631593
              19.09817650                4.11673897               78.03237720                0.38185063               -0.30074487               -0.26188013                0.82948004               -0.19281884                0.26909665               -0.40285862
              20.09449854                3.61403756               77.60559933                0.00010000                0.96679720                0.06887930                1.00169751               -4.87474695                7.95183334               -1.33466524
              21.11751245                3.00711651               77.33003727                0.00010000                3.30623162               -2.02023149               -0.48685155               -6.66769893               15.01986248               -0.27861961
              22.16062317                2.39078126               77.04158625                0.00010000                4.10446793               -1.28852396               -1.35240325               -5.50897218               14.53382415               -0.75993740
              23.19960181                1.78790255               76.75385711                0.91955433                2.17943941                0.51485380               -1.71456771               -3.01894365                7.36390515                0.00475102
              24.20421196                1.24738917               76.31810784                1.00000000                0.46101507                0.42610442               -1.42930249               -0.10950963                0.01770101               -0.08695655
              14.60243674                7.60596075               80.04706777                1.00000000               -0.03542171               -0.01781673                0.06093644               -0.00552810                0.14894553                0.77923489
              15.60208252                7.10832479               79.61270763                1.00000000               -0.05245808               -0.07038912                0.20863653                0.00101805                0.33723733                0.00579601
              16.60138758                6.61059925               79.18172705                0.00010000               -0.08075836               -0.11135068                0.35355690               -0.01722179                0.91211956               -0.65972385
              17.60046736                6.11242315               78.75880896                0.00010000               -0.10534863               -0.62072066                0.51047237               -0.28085652                1.24589258               -0.17105357
              18.59928061                5.61367225               78.33470399                0.00010000               -0.13886504               -1.05005242                0.64104938               -0.18358182                1.04034057                0.37892517
              19.59769006                5.11411106               77.90826082                0.00010000               -0.08970656               -1.67329643                0.80345311                0.22169754                1.07141990                1.23433775
              20.59748648                4.61024030               77.48580359                0.00010000                2.49637668               -3.58192768                0.98489213               -4.71472980                7.85680885                3.11836662
              21.64761759                3.97556808               77.19742437                0.00010000                4.81842529               -2.47778476               -0.83119499               -8.83651320               12.92758721               -0.02593003
              22.69385498                3.38097911               76.88273366                0.00010000                4.69566737               -0.72120578               -1.63811666               -7.47000941               13.20056856               -1.94816489
              23.74153094                2.79204271               76.59989210                0.00010000                2.51142501                1.47444312               -1.09673934               -6.10550577                7.61675935               -5.03299135
              24.74408348                2.25069737               76.16365988                0.51908696                0.25525448                3.00158926               -0.83170162               -4.01749938                0.07748110               -3.39321266
              15.10024762                8.60587343               79.91049721                1.00000000               -0.02853599                0.00219576                0.01975831               -0.00095695                0.25036849                0.65566942
              16.09996226                8.10766696               79.47261857                0.49349664               -0.05094603               -0.06834536                0.17369996                0.01169600                0.42133735               -0.33755250
              17.09922870                7.60954363               79.03784204                0.00010000               -0.31731540               -0.14615521                0.30925587               -0.45159018                1.74732438               -1.16330771
              18.09361595                7.10169595               78.62652531                0.00010000               -0.20374038               -0.91765266                0.06420711               -1.08811841                3.05253731               -0.41843309
              19.09515389                6.59479554               78.21777311                0.00010000                0.62132236               -1.75853607               -0.17070050               -0.99836391                3.36692563                0.55577139
              20.10604240                6.08327304               77.81391646                0.00010000                2.17965117               -3.04051502               -0.44288960               -1.78937144                4.50372745                1.97276477
              21.13874691                5.54239900               77.43146141                0.00010000                3.20004913               -5.03189906               -0.97403351               -4.19167242                6.00491985                3.88101588
              22.17004338                4.95756081               77.06610480                0.00010000                2.80007196               -1.37124858               -1.55111724               -7.42741941                7.27542313                0.02780325
              23.19474835                4.37635714               76.71719930                0.00010000                1.88650211                0.34378360               -2.06871467               -7.58523784                6.74912845               -2.43268622
              24.20777342                3.81739141               76.34374367                0.00010000                0.59021422                2.84503158               -2.65695289               -6.01501841                4.10958026               -7.37329551
              25.20655264                3.30742096               75.94259578                0.41178396               -0.12207852                4.66390563               -3.25476539               -3.56585654                2.40621134               -6.07914976
              15.59883055                9.60600466               79.77241601                1.00000000               -0.01843033                0.02051037               -0.02184637               -0.00057222               -0.00360028                0.55733834
              16.59864624                9.10695789               79.32734617                0.37796303               -0.02518833               -0.07065948                0.16054826               -0.00236049                0.34567409               -0.50717416
              17.59832678                8.60767615               78.88903853                0.00010000               -0.25965834               -0.21326557                0.28361482               -0.71473635                2.60953534               -1.63457789
              18.59345308                8.09407010               78.48940062                0.00010000               -0.02952687               -0.68502137               -0.28342163               -1.45765739                4.64271386               -0.88112222
              19.59773624                7.57850153               78.09248760                0.00010000                1.04230449               -1.41646642               -0.83871468               -1.86562675                4.89674023               -0.20635958
              20.61429917                7.05330075               77.70031152                0.00010000                2.08145059               -2.31854824               -1.42142814               -3.13083541                5.17369460                0.44740489
              21.63936525                6.50960232               77.31415708                0.00010000                2.54059489               -2.29492835               -2.02059768               -5.59405477                5.33966356                0.36406590
              22.66511106                5.94814311               76.93315047                0.00010000                2.14771855               -0.45127813               -2.55880565               -6.99499176                5.04266866               -0.31836337
              23.68231963                5.38785478               76.54955657                0.00010000                1.25278442                1.37738423               -2.96583394               -6.33076456                3.99520556               -1.97419387
              24.69016675                4.84894334               76.15472121                0.00010000                0.51938177                2.89358532               -3.16881251               -3.72646957                2.08144721               -3.26145951
              25.69270726                4.34397549               75.73788720                0.41273027                0.25405083                3.14573074               -3.22053745               -1.62848947                1.04976258               -4.36371485
              16.09832973               10.60628364               79.63353466                1.00000000               -0.00861628                0.03571744               -0.06430973               -0.00126493                0.00339111                0.56260211
              17.09824356               10.10625377               79.18376060                0.38525475               -0.02539829               -0.06684313                0.13590480               -0.03877371                0.10729208               -0.40605319
              18.09782176                9.60527832               78.73591488                0.00010000               -0.23030699               -0.21776395                0.31881206               -0.91244073                3.17386157               -1.68097795
              19.09363742                9.08799553               78.34770533                0.00010000                0.03944685               -0.50055193               -0.53875413               -1.93342189                6.03246715               -1.22577373
              20.09861070                8.56646621               77.95866620                0.00010000                0.93437354               -0.88524300               -1.33758272               -2.59353547                5.87917158               -0.82556862
              21.11232489                8.03690207               77.57052362                0.00010000                1.67063837               -1.09896481               -2.11228481               -3.84330629                5.68544293               -0.55095965
              22.13202347                7.49650044               77.18268109                0.00010000                1.97830979               -0.70539857               -2.84086954               -5.25711506                5.24322000               -0.48239700
              23.15189109                6.94853525               76.79246060                0.00010000                1.76546838                0.43102470               -3.45945343               -5.92724450                4.42703090               -0.71140816
              24.16733283                6.40390482               76.39548717                0.00010000                1.26161168                1.71161992               -3.86852847               -5.07389734                3.19229423               -1.17012541
              25.17712332                5.87526312               75.98625126                0.00010000                0.82928617                2.51811110               -4.01562611               -2.86000547                1.64638377               -1.85445055
              26.18391856                5.37033557               75.56074620                0.41356833                0.67952319                2.50832012               -4.02565661               -1.24619814                0.85138859               -2.78867228
              16.59886499               11.60671901               79.49527163                1.00000000                0.00111010                0.05129521               -0.11119657               -0.00011835                0.00072481                0.62343825
              17.59887609               11.10562102               79.04052962                0.41585550               -0.02643895               -0.05880100                0.11303563               -0.05065097                0.03193162               -0.38403702
              18.59833621               10.60332087               78.58632942                0.00010000               -0.26396719               -0.17990602                0.33973088               -0.96492585                3.61176962               -1.44804118
              19.59359674               10.08405906               78.20343557                0.00010000               -0.06886116               -0.24853608               -0.71316157               -2.09798838                7.00481463               -1.36286228
              20.59695898                9.56079667               77.81945727                0.00010000                0.69010372               -0.28913468               -1.68999738               -2.79306960                6.70572554               -1.14306140
              21.60739882                9.03132146               77.43401013                0.00010000                1.28153970               -0.17672819               -2.61652823               -3.72788106                6.25530647               -0.93857876
              22.62258978                8.49549435               77.04564160                0.00010000                1.58814836                0.27647153               -3.47234994               -4.56056130                5.55489783               -0.80402819
              23.63916178                7.95676360               76.65170292                0.00010000                1.57620162                1.06696181               -4.19437638               -4.75353007                4.54440970               -0.77321191
              24.65411381                7.42208718               76.24866729                0.00010000                1.36870558                1.89227188               -4.70435503               -3.95673184                3.23271081               -0.89715106
              25.66653590                6.89930556               75.83291971                0.00010000                1.17622903                2.36714547               -4.95095926               -2.22313009                1.69551969               -1.25974051
              26.67763839                6.39414189               75.40174833                0.41463310                1.11024944                2.27287539               -4.89988783               -0.94593859                0.85738843               -2.03375845
              17.10052333               12.60730954               79.35736122                1.00000000                0.01053522                0.06582462               -0.15914335                0.00127220                0.00251283                0.65714949
              18.10062869               12.10507775               78.89749774                0.44394369               -0.02190629               -0.04953137                0.09277623               -0.04769719                0.03309115               -0.38566380
              19.10008521               11.60168020               78.43822848                0.00010000               -0.32134144               -0.15676234                0.34939529               -0.86897179                4.04022673               -1.38452874
              20.09420186               11.08302480               78.05882282                0.00010000               -0.22991518                0.02970490               -0.83200050               -1.90864881                7.83298574               -1.32045161
              21.09548690               10.56068352               77.67844398                0.00010000                0.44338659                0.20217669               -1.93575116               -2.51874231                7.46416042               -1.18017690
              22.10306959               10.03336751               77.29535890                0.00010000                0.99415951                0.45361257               -2.97815250               -3.19986892                6.88316895               -1.00432326
              23.11537009                9.50202987               76.90766551                0.00010000                1.35790373                0.87317882               -3.93928760               -3.66136224                6.05781627               -0.84388132
              24.13022766                8.96987449               76.51272083                0.00010000                1.51430716                1.43993484               -4.76154391               -3.61464510                4.94886259               -0.74209535
              25.14565624                8.44175026               76.10736343                0.00010000                1.51891733                1.98671279               -5.36423859               -2.89641887                3.55100383               -0.76989931
              26.16060601                7.92260603               75.68836020                0.00010000                1.48354465                2.27310536               -5.66311836               -1.59496218                1.88448526               -1.04518761
              27.17532713                7.41579308               75.25277715                0.41569649                1.47211202                2.07223040               -5.59412532               -0.65945706                0.91559272               -1.72493968
              17.60335402               13.60803550               79.21955792                1.00000000                0.01974694                0.07791537               -0.20795057                0.00205010                0.00799292                0.65674713
              18.60355149               13.10463040               78.75441082                0.47823979               -0.01721510               -0.04035778                0.07778609               -0.04064358                0.06344024               -0.41631409
              19.60300972               12.60018562               78.29042028                0.00010000               -0.35655204               -0.14315906                0.36045354               -0.63174061                4.55200920               -1.18998688
              20.59642045               12.08465316               77.91543934                0.00010000               -0.33841418                0.26694495               -0.92061885               -1.41453447                8.68987007               -1.13470362
              21.59624143               11.56484020               77.53820379                0.00010000                0.28173237                0.55869086               -2.11292961               -1.93881298                8.19009972               -0.98776680
              22.60205509               11.04039371               77.15752569                0.00010000                0.83070634                0.84713574               -3.23992367               -2.41126651                7.51480557               -0.83356966
              23.61285556               10.51295793               76.77123872                0.00010000                1.25466970                1.21038474               -4.28112896               -2.64714626                6.60854735               -0.68895077
              24.62714849                9.98556230               76.37671557                0.00010000                1.52991668                1.62559558               -5.17948751               -2.49442428                5.42516391               -0.58778987
              25.64345389                9.46182143               75.97078399                0.00010000                1.67226747                1.99471706               -5.84671256               -1.90205257                3.92469776               -0.60074512
              26.66059384                8.94476767               75.54998845                0.00010000                1.73106270                2.16523058               -6.17976218               -0.98960986                2.09888676               -0.83776886
              27.67807515                8.43558650               75.11106675                0.41646877                1.74813094                1.93419888               -6.08670200               -0.36974651                1.00898344               -1.41892756
              18.10737455               14.60886785               79.08147310                0.96659579                0.02911459                0.08825981               -0.25162167                0.00167335                0.02655442                0.56835135
              19.10766570               14.10427059               78.61098539                0.39042549                0.00265428               -0.03204509                0.06363887               -0.03095264                0.33501878               -0.42286563
              20.10742764               13.59881702               78.14678159                0.00010000               -0.32045537               -0.13898347                0.33475589               -0.29193791                5.22412735               -0.96053132
              21.10125659               13.08836370               77.77463508                0.00010000               -0.32287723                0.44100799               -1.00246063               -0.71990995                9.46931474               -0.70891901
              22.10097009               12.57185734               77.40085650                0.00010000                0.27349719                0.74509146               -2.26283371               -1.09979104                8.86921817               -0.57652398
              23.10672653               12.05031023               77.02257206                0.00010000                0.81442445                1.05548827               -3.44972837               -1.36701159                8.08250049               -0.47678779
              24.11725858               11.52623756               76.63803099                0.00010000                1.23745709                1.39389841               -4.54852257               -1.45807955                7.11689384               -0.38284449
              25.13147567               11.00238640               76.24467893                0.00010000                1.55756191                1.73084484               -5.50218054               -1.32279929                5.88478414               -0.31374852
              26.14840982               10.48164460               75.83927359                0.00010000                1.77865376                1.99975089               -6.21731769               -0.94625174                4.30428415               -0.31739189
              27.16704875                9.96591064               75.41793475                0.00010000                1.89423639                2.10955558               -6.57492244               -0.44315831                2.31680178               -0.46744481
              28.18629455                9.45447706               74.97654076                0.41751948                1.92457965                1.92813610               -6.45616954               -0.11518851                1.10900391               -0.88725435
              18.61258200               15.60980070               78.94179239                0.96290643                0.04012683                0.09328498               -0.30547733               -0.06037584                0.27103960                0.49065158
              19.61298327               15.10398949               78.46804050                0.65561665                0.02479245               -0.02810989                0.04891847               -0.08798044                0.75555000               -0.41563406
              20.61307785               14.59740595               78.00416203                0.36856485               -0.20006694               -0.14110656                0.31442223                0.03921212                6.16769762               -0.93869549
              21.60898193               14.09347332               77.63943272                0.36304211               -0.03893787                0.51096122               -1.12301295               -0.11066233               10.29628028               -0.32085952
              22.61229909               13.57974203               77.26814383                0.36095644                0.56763554                0.78846923               -2.42663447               -0.46559227                9.36019158               -0.28394797
              23.62033464               13.06150348               76.89190594                0.36244445                0.96593535                1.11932497               -3.65432525               -0.58449626                8.49910847               -0.24630591
              24.63161780               12.54083590               76.50899589                0.36720780                1.24754109                1.45983339               -4.79232932               -0.63029239                7.49327471               -0.21970139
              25.64528546               12.02017920               76.11707904                0.37527241                1.46934102                1.77927991               -5.78636373               -0.56999383                6.26231616               -0.20764855
              26.66100462               11.50181645               75.71306169                0.38779964                1.68063792                2.01718457               -6.54293865               -0.40154109                4.70418902               -0.23684373
              27.67889822               10.98695878               75.29301699                0.40453478                1.88169618                2.10481411               -6.93854727               -0.19841481                2.66020146               -0.34488402
              28.69863854               10.47414922               74.85138066                0.70905968                1.97403222                1.96721609               -6.82183012               -0.04655688                1.37669595               -0.66122657
              14.03469218                5.74988205               81.32143926                1.00000000               -0.04461716               -0.00714969                0.04028334                0.03030789               -0.39386657                0.47750216
              15.03424601                5.24907343               80.89200114                1.00000000               -0.07754025               -0.06746860                0.23728526                0.03726513               -0.48521685                0.05626126
              16.03314137                4.74808297               80.46027524                1.00000000               -0.14059281               -0.12200158                0.42877392                0.03718225               -0.51418475               -0.03959108
              17.03143415                4.24676321               80.03013109                0.68339153               -0.20935002               -0.18129485                0.61888513                0.01227833               -0.47005452               -0.25605939
              18.02895437                3.74478559               79.59945282                0.49605597               -0.27584802               -0.23905169                0.80874434               -0.00141086               -0.44589485               -0.28920421
              19.02591719                3.24227737               79.17023849                0.16392358               -0.67394877               -0.31406476                1.01908806               -0.41502297                0.41939501               -0.56441996
              20.01547540                2.73142358               78.75757855                0.00010000               -1.58613125                0.17432582                0.83045374               -3.82290625                7.39719639               -1.84950499
              20.99419456                2.14772455               78.46091334                0.00010000                0.33520792               -1.04967594               -0.32709770               -3.64852547               14.17709364               -0.38616762
              22.02217955                1.54914487               78.17158584                0.00010000                4.92698279               -1.62396813               -1.42078088               -3.73812279               14.69009462               -0.21400434
              23.09273422                0.93173963               77.88385271                1.00000000                3.83354595                0.64338382               -2.24530618               -3.77954964                7.22792787                0.00394519
              24.09885047                0.39209760               77.45207990                1.00000000                0.61162541                0.50495243               -1.83454213                0.03760666               -0.02054153               -0.04694064
              14.53580387                6.74981055               81.18278582                1.00000000               -0.02856750               -0.00436963                0.00702849                0.00021276                0.01320610                0.66127828
              15.53551819                6.24839875               80.75322198                1.00000000               -0.05677811               -0.06590439                0.20586690                0.00827106                0.08292320                0.07990968
              16.53466831                5.74686296               80.32461845                1.00000000               -0.11562863               -0.12192715                0.40051122                0.00566934                0.15755690               -0.21774133
              17.53320562                5.24495026               79.89641386                0.87364341               -0.17425621               -0.18669206                0.60156645               -0.00910567                0.23521921               -0.19078606
              18.53118318                4.74239507               79.46952465                0.73295254               -0.23788283               -0.24735746                0.80056251               -0.02386856                0.23365236               -0.20875188
              19.52844797                4.23913672               79.04168303                0.40781319               -0.33302217               -0.32118251                1.02190198               -0.14546174                0.31080215               -0.39963857
              20.52452274                3.73316684               78.61705596                0.00010000                1.02003476               -0.14484149                1.27485621               -4.32261668                7.13722498               -1.12647487
              21.54884866                3.13722779               78.32622299                0.00010000                3.41340229               -2.07159162               -0.30113073               -5.82257180               13.57269641               -0.60973731
              22.59279079                2.53290519               78.02834320                0.00010000                4.23068488               -1.39109079               -1.28500856               -4.86551768               13.52227646               -1.13614421
              23.63346236                1.93817347               77.73519165                0.87061190                2.30388934                0.60702089               -1.98361940               -2.64121904                6.92700937               -0.00565208
              24.63886857                1.39714713               77.30300749                1.00000000                0.54062139                0.46579625               -1.55041979               -0.03543440                0.01657605               -0.10844212
              15.03752004                7.74979466               81.04722361                1.00000000               -0.01610164                0.00465175               -0.02667486               -0.00347651                0.14446157                0.77106400
              16.03735902                7.24775535               80.61463079                1.00000000               -0.04083953               -0.06093401                0.17612257                0.00089743                0.33138114                0.01018768
              17.03670325                6.74564443               80.18538723                0.00010000               -0.08195525               -0.11767852                0.37557536               -0.02293115                0.91302847               -0.65219966
              18.03571992                6.24302937               79.76431381                0.00010000               -0.12063537               -0.62779062                0.58481732               -0.28774326                1.25190805               -0.35701393
              19.03429054                5.73983844               79.34186667                0.00010000               -0.17418623               -1.04046487                0.78504203               -0.21014293                1.06645468                0.00285782
              20.03223619                5.23585372               78.91742842                0.00010000               -0.16792767               -1.60748870                1.02409829                0.17737910                1.14298404                0.63474729
              21.03093199                4.72852675               78.49729137                0.00010000                2.28842894               -3.32334807                1.30152901               -4.10171212                6.91174753                2.12540893
              22.07800477                4.10629272               78.19016235                0.00010000                4.64957672               -2.41221411               -0.65604938               -7.79131390               11.44670433               -0.70964399
              23.12392352                3.52132306               77.86722319                0.00010000                4.88315664               -0.86670273               -1.47116510               -6.56200570               12.71114737               -2.66941395
              24.17566790                2.94388005               77.58605966                0.00010000                2.81354783                1.30079137               -1.68370159               -5.79064808                7.54138929               -5.76392698
              25.18019448                2.40141353               77.15326567                0.40621908                0.45265741                3.00304164               -1.22496119               -4.28584408                0.07743961               -4.46633986
              15.53981296                8.74990359               80.91030267                1.00000000               -0.01265877                0.01949348               -0.05578256               -0.00024025                0.24183316                0.64480235
              16.53968637                8.24718007               80.47425338                0.51279782               -0.04386468               -0.06110733                0.15305537                0.00677046                0.40320501               -0.31844749
              17.53893567                7.74450939               80.04111329                0.00010000               -0.32148134               -0.15301403                0.34175782               -0.44987669                1.53503926               -1.14569733
              18.53325674                7.23239445               79.62772867                0.00010000               -0.23898448               -0.90733878                0.16749861               -1.07776772                2.64370841               -0.77409524
              19.53415598                6.72158578               79.21702039                0.00010000                0.50252492               -1.68490415                0.00324587               -0.98211628                2.94074969               -0.15344723
              20.54330724                6.20698694               78.81085016                0.00010000                1.89467588               -2.81982573               -0.19601008               -1.65521576                3.93668583                0.86914920
              21.57204949                5.66669987               78.42340496                0.00010000                2.84594155               -4.56552059               -0.69147555               -3.67398114                5.28529303                2.32574269
              22.60022607                5.08898351               78.05184413                0.00010000                2.59569236               -1.28931533               -1.33891283               -6.57133757                6.61698785               -0.96911090
              23.62396334                4.51557114               77.69685516                0.00010000                1.86664272                0.23178180               -1.96223026               -6.80038598                6.27622325               -3.47666033
              24.63755893                3.96418930               77.32030891                0.00010000                0.70607007                2.34573966               -2.22055003               -5.71125592                3.89354731               -8.64480467
              25.63808474                3.45720796               76.91622013                0.40658053                0.05258140                4.19296679               -2.36710650               -3.56872217                2.68828858               -7.72472727
              16.04296227                9.75018453               80.77187168                1.00000000               -0.00736381                0.03446853               -0.08449230                0.00074652                0.00033051                0.54155706
              17.04288863                9.24653320               80.32892569                0.40300016               -0.02354674               -0.06760716                0.15448354               -0.00831153                0.31878166               -0.48076297
              18.04249134                8.74258415               79.89213288                0.00010000               -0.29002307               -0.21854923                0.33161213               -0.69978308                2.21297516               -1.56804656
              19.03708817                8.22488259               79.48722012                0.00010000               -0.12178094               -0.66862100               -0.16483373               -1.41542941                3.88456493               -1.14117612
              20.04005572                7.70614036               79.08515941                0.00010000                0.84648043               -1.33015001               -0.64950470               -1.74800434                4.11380778               -0.76360056
              21.05401778                7.17945720               78.68759443                0.00010000                1.77000402               -2.11718777               -1.16221210               -2.82501224                4.36967284               -0.38883865
              22.07545580                6.63721634               78.29580476                0.00010000                2.18444885               -2.05241888               -1.71408080               -4.93996251                4.58834051               -0.62946026
              23.09770676                6.08050641               77.90947765                0.00010000                1.86271080               -0.39581643               -2.25599929               -6.12829244                4.48537895               -1.42437109
              24.11271001                5.52595869               77.52192782                0.00010000                1.10496035                1.23671888               -2.66149815               -5.58300338                3.73965948               -3.22081641
              25.11980596                4.99079485               77.12421059                0.00010000                0.50363517                2.47887441               -2.92875703               -3.37735411                2.14036842               -4.60898178
              26.12278272                4.48527286               76.70530406                0.40748529                0.29767528                2.50151874               -3.04091669               -1.57796460                1.13810801               -5.69389615
              16.54713054               10.75059296               80.63262909                1.00000000               -0.00100230                0.04786676               -0.11464642               -0.00032539                0.00392713                0.54085534
              17.54712052               10.24582793               80.18515858                0.41224096               -0.02699640               -0.06947935                0.14207957               -0.04018518                0.10010365               -0.38417442
              18.54659061                9.74013840               79.73946148                0.00010000               -0.28642863               -0.22681096                0.38237972               -0.87076123                2.64073566               -1.58693122
              19.54139195                9.21902203               79.34300783                0.00010000               -0.09846672               -0.48022869               -0.41322423               -1.82388107                4.97792026               -1.38812865
              20.54462128                8.69498278               78.94637541                0.00010000                0.71695378               -0.81235238               -1.14444508               -2.36172621                4.84230614               -1.21204854
              21.55573102                8.16464319               78.55094882                0.00010000                1.37898760               -0.98126670               -1.84634035               -3.40855876                4.67757991               -1.13819337
              22.57220103                7.62565150               78.15629863                0.00010000                1.65934232               -0.61111748               -2.50677344               -4.57160893                4.33997679               -1.25518619
              23.58891787                7.08106718               77.76033663                0.00010000                1.49069055                0.39582520               -3.06935781               -5.07545837                3.74155867               -1.68097880
              24.60201484                6.54030551               77.35941646                0.00010000                1.08899044                1.50344348               -3.46583606               -4.27497469                2.79616462               -2.36230983
              25.61069768                6.01376679               76.94842837                0.00010000                0.77772868                2.16336451               -3.65049425               -2.35308570                1.49692508               -3.19741924
              26.61756942                5.50723833               76.52306795                0.40830754                0.68717388                2.04736618               -3.63117482               -0.97296529                0.79907103               -3.94349480
              17.05248583               11.75114186               80.49395038                1.00000000                0.00536576                0.06174782               -0.15098799                0.00071606                0.00092307                0.59623149
              18.05253949               11.24514361               80.04175277                0.44406833               -0.03019090               -0.06542706                0.12940190               -0.04783584                0.03328740               -0.35959858
              19.05188201               10.73804793               79.59011610                0.00010000               -0.33866556               -0.19798247                0.41024711               -0.89427118                2.97649799               -1.36432182
              20.04576617               10.21527802               79.19698866                0.00010000               -0.23409898               -0.23434841               -0.58794083               -1.92789776                5.73437431               -1.44048139
              21.04720003                9.68989331               78.80359478                0.00010000                0.47058554               -0.24432028               -1.50330681               -2.49377792                5.46824693               -1.37957096
              22.05517789                9.15983187               78.40934442                0.00010000                1.01997975               -0.12557000               -2.35674347               -3.26110953                5.06254264               -1.33163579
              23.06759963                8.62499399               78.01297806                0.00010000                1.31828432                0.27851932               -3.13040351               -3.91773142                4.47066248               -1.36134769
              24.08154357                8.08842292               77.61240139                0.00010000                1.34556445                0.95327608               -3.77252966               -4.00155102                3.66022057               -1.51116772
              25.09451091                7.55602756               77.20478610                0.00010000                1.21339300                1.63003641               -4.21605223               -3.24589962                2.62505203               -1.81837116
              26.10581143                7.03406214               76.78702645                0.00010000                1.09347027                1.98000011               -4.40788229               -1.77052678                1.38445262               -2.29363288
              27.11638032                6.52622019               76.35637919                0.40939894                1.05688885                1.82624453               -4.33507528               -0.72613530                0.70641339               -2.99961202
              17.55914136               12.75182791               80.35560850                1.00000000                0.01163750                0.07414057               -0.18924311                0.00214210                0.00258489                0.62669223
              18.55925773               12.24451938               79.89856852                0.47516124               -0.02852863               -0.05842894                0.11824437               -0.04326210                0.03520563               -0.35593835
              19.55857079               11.73617875               79.44215388                0.00010000               -0.41345627               -0.18104587                0.42660414               -0.77315137                3.32405271               -1.29927977
              20.55098861               11.21433506               79.05114383                0.00010000               -0.41894578                0.03680613               -0.71269850               -1.69936787                6.40143629               -1.33640557
              21.55019187               10.69009637               78.66001973                0.00010000                0.22097738                0.23018386               -1.76390136               -2.20508529                6.06915067               -1.29987981
              22.55540816               10.16213179               78.26693705                0.00010000                0.75317408                0.47078257               -2.73782213               -2.77055528                5.53392073               -1.23573346
              23.56525535                9.63122188               77.87019395                0.00010000                1.12225576                0.83386890               -3.61488282               -3.12447411                4.80858005               -1.19730316
              24.57785327                9.10013270               77.46768422                0.00010000                1.31011399                1.30069900               -4.34305492               -3.02730828                3.88748016               -1.22635207
              25.59145763                8.57290624               77.05696726                0.00010000                1.36206234                1.72557296               -4.85207951               -2.37239215                2.77249046               -1.37379562
              26.60509452                8.05336679               76.63549920                0.00010000                1.36364881                1.91242358               -5.07382609               -1.27555037                1.47060712               -1.71009143
              27.61873061                7.54376322               76.20090863                0.41029847                1.36360903                1.70947204               -4.95695853               -0.50739949                0.73383624               -2.32094181
              18.06714573               13.75262467               80.21736717                1.00000000                0.01776758                0.08376071               -0.22825758                0.00290371                0.00997877                0.62622956
              19.06732341               13.24397503               79.75538319                0.51196326               -0.02712110               -0.05118527                0.11223120               -0.03589695                0.06395466               -0.38068311
              20.06660331               12.73442701               79.29450875                0.00010000               -0.47311042               -0.16901887                0.44515349               -0.51413268                3.76292308               -1.11513579
              21.05786120               12.21601414               78.90682050                0.00010000               -0.56508570                0.28163628               -0.80833563               -1.18587121                7.12769591               -1.11191263
              22.05530159               11.69449699               78.51788120                0.00010000                0.03900351                0.59413163               -1.95887397               -1.65987432                6.67201643               -1.02842348
              23.05864127               11.16924752               78.12629875                0.00010000                0.59038170                0.85942948               -3.02577979               -2.07299194                6.04030528               -0.94442376
              24.06710923               10.64167136               77.73012254                0.00010000                1.03358889                1.16775607               -3.98735321               -2.25535328                5.22798484               -0.87773476
              25.07931305               10.11443690               77.32726642                0.00010000                1.33598787                1.50242457               -4.79015422               -2.09099085                4.22919385               -0.85676575
              26.09382899                9.59053902               76.91535758                0.00010000                1.50651986                1.78139108               -5.35629182               -1.56283720                3.02821194               -0.93514975
              27.10944344                9.07231061               76.49183875                0.00010000                1.58052383                1.88520461               -5.59996063               -0.79597893                1.61305306               -1.18999998
              28.12543946                8.56040963               76.05418785                0.41100746                1.59960194                1.66329247               -5.45089356               -0.28403830                0.79104074               -1.70468914
              18.57649871               14.75350313               80.07889847                0.98997925                0.02387461                0.09100350               -0.26090659                0.00152457                0.02061176                0.53245799
              19.57673746               14.24349568               79.61187374                0.42291477               -0.01248411               -0.04528378                0.10772290               -0.02614167                0.30701705               -0.38270932
              20.57624903               13.73279837               79.15066396                0.00010000               -0.47681243               -0.16498277                0.42951207               -0.14301183                4.36110551               -0.89259040
              21.56720121               13.21996778               78.76516788                0.00010000               -0.62440112                0.51037781               -0.89318013               -0.53083041                7.80733155               -0.68177857
              22.56376100               12.70197900               78.37893660                0.00010000               -0.02136328                0.80246186               -2.12098805               -0.91861243                7.25084634               -0.57905119
              23.56677394               12.17932038               77.98909360                0.00010000                0.55989511                1.07704080               -3.25533070               -1.17409255                6.51054354               -0.51412506
              24.57495891               11.65457700               77.59404219                0.00010000                1.01959273                1.36135539               -4.28020881               -1.24304487                5.63538011               -0.45889338
              25.58716580               11.13018120               77.19177612                0.00010000                1.36841357                1.63226385               -5.14108549               -1.11038486                4.58630436               -0.42851300
              26.60232718               10.60853406               76.77991282                0.00010000                1.60692690                1.83433670               -5.75397585               -0.77940272                3.31626982               -0.46088675
              27.61930433               10.09107088               76.35561969                0.00010000                1.72623117                1.89578849               -6.01849821               -0.35731063                1.77548705               -0.61194855
              28.63685180                9.57702907               75.91576795                0.41177589                1.75474679                1.71789234               -5.84204908               -0.08388380                0.86315359               -0.97433433
              19.08719112               15.75444474               79.93873141                0.97436248                0.03142055                0.09416144               -0.30091528               -0.06829719                0.25838238                0.44678532
              20.08750533               15.24306936               79.46883624                0.66924434                0.00399225               -0.04263198                0.10051564               -0.08908219                0.69942770               -0.37060005
              21.08727097               14.73112736               79.00791175                0.36778440               -0.47206832               -0.16710181                0.41888763                0.25981076                5.20957578               -0.85937463
              22.07806396               14.22622170               78.62877330                0.36282150               -0.48471074                0.62539116               -1.00766114                0.05721882                8.52295578               -0.29542291
              23.07757675               13.71054623               78.24458210                0.36106781                0.22487282                0.85672219               -2.28083045               -0.39009338                7.66748584               -0.27017774
              24.08256142               13.19078833               77.85636890                0.36220447                0.69053813                1.14679558               -3.45642932               -0.50364016                6.85698124               -0.24708752
              25.09138751               12.66889847               77.46255756                0.36663095                1.02934359                1.43214677               -4.51982093               -0.54244727                5.94010410               -0.23454478
              26.10314829               12.14708217               77.06133459                0.37422271                1.29818654                1.69009789               -5.41900525               -0.48538655                4.88652279               -0.23457139
              27.11735124               11.62722576               76.65046856                0.38506375                1.53269665                1.86916913               -6.06964643               -0.34038324                3.63462192               -0.26949086
              28.13380222               11.11022638               76.22712924                0.40000851                1.72470795                1.91554943               -6.36660234               -0.17312534                2.05174111               -0.36887786
              29.15184540               10.59476747               75.78702319                0.70614956                1.80431824                1.77384000               -6.19081024               -0.04653008                1.08080951               -0.63715433
              14.45917989                5.89346615               82.32131768                1.00000000               -0.02257068                0.02048394               -0.05968961                0.04102773               -0.39913248                0.47626208
              15.45895419                5.38857824               81.89410794                1.00000000               -0.06362965               -0.05349545                0.18544796                0.04722269               -0.49620648                0.05807390
              16.45790730                4.88350651               81.46454154                1.00000000               -0.14164359               -0.12026875                0.42185754                0.04649069               -0.53034112               -0.03485043
              17.45612131                4.37806116               81.03654750                0.68898211               -0.22426715               -0.19492354                0.65844453                0.01812685               -0.48707850               -0.24616570
              18.45342196                3.87190315               80.60799571                0.50852878               -0.30358761               -0.26954481                0.89146933                0.00503570               -0.45008075               -0.27953061
              19.45004956                3.36517117               80.18118417                0.19041451               -0.53969652               -0.36149045                1.15713048               -0.26810067                0.25319575               -0.56566606
              20.44262803                2.85291779               79.76734607                0.00010000               -1.13998537               -0.11225501                1.13051844               -3.36955091                6.39658436               -1.56810610
              21.42724985                2.27763006               79.45879426                0.00010000                0.65274813               -1.19573012               -0.11069429               -3.15522185               12.61171361               -0.51014634
              22.45568299                1.68895478               79.15831783                0.00010000                4.76661842               -1.65337634               -1.25611108               -3.28246498               13.23742098               -0.26301651
              23.52258222                1.07914666               78.86192595                1.00000000                3.63493636                0.64358977               -2.19372310               -3.38912643                6.53928517               -0.10545946
              24.52838172                0.53938129               78.43482877                1.00000000                0.57994933                0.46532651               -1.67504661                0.07647210               -0.01429178               -0.11441941
              14.96447807                6.89367099               82.18237990                1.00000000               -0.00718412                0.01995114               -0.08402668                0.00381656                0.00833095                0.65655561
              15.96440623                6.38804329               81.75506482                1.00000000               -0.04236631               -0.05405498                0.16336379                0.01125845                0.07475778                0.08204198
              16.96363075                5.88230382               81.32865921                1.00000000               -0.11509853               -0.12230468                0.40419386                0.00632314                0.15199044               -0.20867808
              17.96210426                5.37611193               80.90271517                0.88449510               -0.18567192               -0.20465516                0.65234396               -0.00956753                0.23807105               -0.17659100
              18.95991731                4.86920770               80.47810588                0.74959739               -0.26215146               -0.28347431                0.90758707               -0.02412621                0.25942938               -0.19865479
              19.95686123                4.36155627               80.05281524                0.44282535               -0.36071174               -0.37661506                1.19361981               -0.11684913                0.37715305               -0.39697985
              20.95270307                3.85179524               79.63109646                0.00010000                1.04089552               -0.32591517                1.51019667               -3.77620202                6.26465556               -0.96857619
              21.97767914                3.26567276               79.32401465                0.00010000                3.46984826               -2.09379965               -0.21155569               -5.00021155               11.97962860               -0.83692159
              23.02210004                2.67242102               79.01588608                0.00010000                4.28992800               -1.49379602               -1.17214842               -4.17962896               12.23402292               -1.28272278
              24.06347770                2.08558256               78.71418472                0.92290181                2.34058820                0.62501267               -2.04640954               -2.23262187                6.30709308               -0.12537041
              25.06891180                1.54403456               78.28709945                1.00000000                0.54341004                0.43883176               -1.49700719               -0.01287261                0.00303940               -0.16682614
              15.47051162                7.89386517               82.04653428                1.00000000                0.00349022                0.02252124               -0.10757309               -0.00156285                0.13882293                0.76441126
              16.47054652                7.38749714               81.61623008                1.00000000               -0.02732470               -0.05200935                0.14381038                0.00023751                0.32419671                0.01580478
              17.46996512                6.88106041               81.18923856                0.00010000               -0.07602192               -0.12098930                0.39073776               -0.03528198                0.91277550               -0.64379487
              18.46902608                6.37396806               80.77050531                0.00010000               -0.12350164               -0.64020951                0.64653187               -0.31739957                1.27023515               -0.53847017
              19.46749509                5.86623366               80.35040483                0.00010000               -0.19505230               -1.03869223                0.91350258               -0.26995509                1.12516962               -0.37326937
              20.46512504                5.35763887               79.92874278                0.00010000               -0.22537979               -1.55331277                1.22904456                0.08480736                1.26548483                0.02170836
              21.46298750                4.84639949               79.51183417                0.00010000                2.07474073               -3.06973914                1.58436502               -3.55645352                5.90511650                1.06377598
              22.50661985                4.23575407               79.18430338                0.00010000                4.45965575               -2.34047320               -0.55819818               -6.80334220                9.81585517               -1.24283541
              23.55218061                3.65907886               78.85331036                0.00010000                4.98481975               -1.01508540               -1.29714955               -5.71995768               11.74760472               -3.14169430
              24.60631625                3.09164691               78.56621806                0.00010000                2.95198253                1.03809180               -1.85812560               -5.40596193                7.10157323               -6.10768440
              25.61122026                2.54815793               78.13916066                0.40103122                0.49040159                2.84267314               -1.26576831               -4.36969107                0.05649436               -5.02900102
              15.97718287                8.89412141               81.90938156                1.00000000                0.00328698                0.03221060               -0.12519751               -0.00095564                0.23167651                0.63623030
              16.97721574                8.38700310               81.47567968                0.53375822               -0.03643377               -0.05298559                0.13192389               -0.00116148                0.38246138               -0.29669412
              17.97645419                7.87988403               81.04467720                0.00010000               -0.33163582               -0.15466905                0.36719241               -0.46843185                1.32648319               -1.12461593
              18.97058302                7.36330774               80.62987528                0.00010000               -0.28033987               -0.90003202                0.25001771               -1.11792056                2.25300400               -1.12400914
              19.97084740                6.84843386               80.21783803                0.00010000                0.39042654               -1.61795833                0.14194677               -1.03373629                2.54099133               -0.86576904
              20.97839155                6.33049001               79.80999625                0.00010000                1.63057069               -2.61067723               -0.00274828               -1.60555814                3.36901108               -0.25553705
              22.00345881                5.79040046               79.41763190                0.00010000                2.52706890               -4.11400219               -0.48061348               -3.26826849                4.46671358                0.76307052
              23.02893293                5.21886329               79.03932654                0.00010000                2.41746154               -1.22954414               -1.19244538               -5.81027073                5.74467892               -1.79446704
              24.05180804                4.65211931               78.67795470                0.00010000                1.86732337                0.08991451               -1.79534366               -6.11598203                5.64324893               -4.27396078
              25.06627940                4.10634439               78.29933267                0.00010000                0.83439557                1.84986637               -2.03637071               -5.39748289                3.56709961               -9.45945397
              26.06849595                3.60088802               77.89525365                0.40176678                0.22165537                3.75459078               -1.98757486               -3.44252633                2.48199264               -8.96352284
              16.48472912                9.89450938               81.77072616                1.00000000                0.00315440                0.04503130               -0.14163411                0.00112708                0.00432164                0.52838800
              17.48476067                9.38643743               81.33043584                0.42918478               -0.02186353               -0.06299523                0.14685639               -0.01724162                0.29064904               -0.45186781
              18.48429185                8.87796703               80.89567077                0.00010000               -0.33214095               -0.21637777                0.37098186               -0.70684923                1.81983701               -1.49777161
              19.47811785                8.35596742               80.48610395                0.00010000               -0.23268813               -0.64216631               -0.07198836               -1.41968316                3.14225898               -1.40568422
              20.47963809                7.83387450               80.07949751                0.00010000                0.64647100               -1.23219919               -0.50603163               -1.69368287                3.34855877               -1.33138130
              21.49104727                7.30542533               79.67706728                0.00010000                1.48053774               -1.90508971               -0.97584104               -2.60966612                3.55959139               -1.23442257
              22.50924885                6.76411945               79.27987546                0.00010000                1.88241602               -1.80885251               -1.51168657               -4.41428832                3.76918879               -1.58440057
              23.52869559                6.21116318               78.88803049                0.00010000                1.65655135               -0.34356831               -2.06337962               -5.42854003                3.78373697               -2.39495372
              24.54237987                5.66087715               78.49632661                0.00010000                1.04511443                1.08405162               -2.49488944               -4.95812986                3.25455620               -4.19822192
              25.54959788                5.12864424               78.09614607                0.00010000                0.54513035                2.10772406               -2.73400993               -3.02482359                1.90759584               -5.66361767
              26.55328248                4.62324974               77.67706886                0.40259507                0.36846017                1.97512617               -2.70171759               -1.43320681                1.04553461               -6.73485001
              16.99334931               10.89502204               81.63124173                1.00000000                0.00639448                0.05774286               -0.15993239               -0.00040692                0.00435641                0.52097580
              17.99341325               10.38574320               81.18660220                0.44049931               -0.02810436               -0.07091619                0.14499444               -0.04250535                0.09151489               -0.36230799
              18.99278722                9.87555648               80.74356248                0.00010000               -0.35656793               -0.23125028                0.43117004               -0.84701812                2.10912510               -1.49464303
              19.98628189                9.35046441               80.33944084                0.00010000               -0.26356956               -0.44269974               -0.31407078               -1.75394527                3.93431608               -1.56247147
              20.98751583                8.82378987               79.93577730                0.00010000                0.48356922               -0.71567827               -0.99834069               -2.18730571                3.81954423               -1.61598214
              21.99595328                8.29238822               79.53359681                0.00010000                1.09596780               -0.83624098               -1.66177029               -3.06736723                3.67664320               -1.73686754
              23.00943519                7.75422341               79.13254562                0.00010000                1.38255738               -0.48736865               -2.29827558               -4.03495423                3.41844898               -2.00721899
              24.02360443                7.21199193               78.73107344                0.00010000                1.28646001                0.40147385               -2.85693703               -4.42802512                2.98744180               -2.55167058
              25.03516439                6.67380034               78.32617045                0.00010000                0.99029533                1.36459040               -3.26742688               -3.69415657                2.28460486               -3.34014639
              26.04341033                6.14849887               77.91324137                0.00010000                0.77282106                1.88589156               -3.46164862               -2.01879076                1.25522926               -4.20818793
              27.05062081                5.64039054               77.48812271                0.40335231                0.72104743                1.65296154               -3.40411358               -0.82189828                0.69747531               -4.88835962
              17.50327866               11.89566424               81.49225187                1.00000000                0.00974539                0.07022802               -0.18591308                0.00077093                0.00085990                0.56992614
              18.50337612               11.38501911               81.04311766                0.47458904               -0.03241936               -0.07073137                0.14090716               -0.04740255                0.03273018               -0.33680170
              19.50263028               10.87334203               80.59453436                0.00010000               -0.42852847               -0.21272632                0.46397188               -0.83509793                2.33933083               -1.28736122
              20.49480555               10.34711342               80.19167675                0.00010000               -0.43310544               -0.19997741               -0.48648311               -1.78491272                4.46805456               -1.53685843
              21.49396817                9.81956093               79.78939113                0.00010000                0.22304183               -0.16951839               -1.35805682               -2.24260247                4.24128728               -1.64267905
              22.49926639                9.28870051               79.38687526                0.00010000                0.74889415               -0.03448514               -2.17356200               -2.87841759                3.88332351               -1.75057590
              23.50894605                8.75437207               78.98303353                0.00010000                1.06458855                0.33579576               -2.91829687               -3.40742522                3.39350703               -1.92678341
              24.52055816                8.21919266               78.57625232                0.00010000                1.15218718                0.92452445               -3.54356947               -3.43017924                2.76697530               -2.21495658
              25.53198980                7.68816896               78.16434625                0.00010000                1.10368520                1.49512682               -3.98100156               -2.73519559                1.99358762               -2.63518328
              26.54263186                7.16636207               77.74476206                0.00010000                1.05356892                1.75465150               -4.16567516               -1.45967684                1.06280557               -3.15744553
              27.55306117                6.65630897               77.31504682                0.40412859                1.04293127                1.55875230               -4.05705205               -0.57709975                0.56833337               -3.76996795
              18.01465499               12.89642660               81.35357635                1.00000000                0.01324251                0.08029428               -0.21472227                0.00234228                0.00222677                0.59713500
              19.01478741               12.38432857               80.89986262                0.50754369               -0.03320206               -0.06538003                0.13703431               -0.04058807                0.03459189               -0.32876381
              20.01399095               11.87130195               80.44676057                0.00010000               -0.52113383               -0.19845976                0.48473910               -0.68315588                2.60187423               -1.22209372
              21.00436474               11.34646486               80.04456885                0.00010000               -0.64571245                0.06387177               -0.61182282               -1.50530405                4.96554361               -1.37486336
              22.00107670               10.82039951               79.64316595                0.00010000               -0.03954763                0.28969639               -1.62238203               -1.92655026                4.67687481               -1.45286853
              23.00357378               10.29169851               79.24060246                0.00010000                0.48589154                0.53240908               -2.56003107               -2.40533545                4.19493105               -1.50562366
              24.01079453                9.76093933               78.83536785                0.00010000                0.88150870                0.85914595               -3.40598173               -2.68572865                3.57533786               -1.58548351
              25.02120396                9.23048242               78.42585973                0.00010000                1.12482678                1.25712139               -4.10819516               -2.56486383                2.84414186               -1.72787761
              26.03329106                8.70370288               78.01032184                0.00010000                1.24364117                1.60019580               -4.59410869               -1.97172503                2.01151811               -1.96498116
              27.04607678                8.18359190               77.58688368                0.00010000                1.29469709                1.72425572               -4.79014816               -1.03722608                1.06673566               -2.32954170
              28.05918501                7.67156559               77.15363798                0.40498401                1.31082245                1.51622105               -4.64154406               -0.39580212                0.55462850               -2.86223303
              18.52752157               13.89727012               81.21499277                1.00000000                0.01674368                0.08630889               -0.24428362                0.00320037                0.01181217                0.59798905
              19.52768900               13.38371151               80.75665544                0.54805811               -0.03453487               -0.05826069                0.13738323               -0.03220785                0.06145798               -0.34799152
              20.52683087               12.86937283               80.29932335                0.00010000               -0.60435432               -0.18698702                0.50603521               -0.39779914                2.96428096               -1.04609564
              21.51560192               12.34839086               79.89927262                0.00010000               -0.83136786                0.31552337               -0.70753526               -0.96260680                5.55241495               -1.11045515
              22.51020351               11.82535486               79.49902631                0.00010000               -0.24910299                0.65879524               -1.82136163               -1.40287871                5.14616772               -1.10129887
              23.51061986               11.29934869               79.09701009                0.00010000                0.31220335                0.91295264               -2.85472492               -1.77709165                4.56668391               -1.09598757
              24.51644758               10.77155499               78.69149165                0.00010000                0.79387367                1.18426743               -3.78574320               -1.92622324                3.85886551               -1.11155232
              25.52649733               10.24433509               78.28091249                0.00010000                1.14991153                1.46327750               -4.55925660               -1.76274742                3.05409885               -1.16880734
              26.53944581                9.72017287               77.86365815                0.00010000                1.37636496                1.68065027               -5.09540454               -1.29436611                2.15556249               -1.30426301
              27.55402463                9.20084718               77.43798924                0.00010000                1.48759755                1.73946347               -5.30716663               -0.64564493                1.14396000               -1.56692437
              28.56919776                8.68663339               77.00204888                0.40565323                1.51731307                1.52947207               -5.12308755               -0.21757433                0.58301741               -2.00793240
              19.04183623               14.89815277               81.07625497                1.00000000                0.02043190                0.09002001               -0.26861699                0.00197909                0.01469860                0.50341830
              20.04204055               14.38316336               80.61313985                0.45662533               -0.02403084               -0.05294997                0.14045877               -0.02440429                0.27944766               -0.34779337
              21.04135561               13.86756221               80.15537183                0.00010000               -0.64549869               -0.18249789                0.49884466                0.00567031                3.48794346               -0.83068860
              22.02913057               13.35277533               79.75677148                0.00010000               -0.96471586                0.59815791               -0.78947944               -0.34090152                6.12462080               -0.66773473
              23.02206130               12.83357541               79.35843674                0.00010000               -0.36493787                0.88463062               -1.98237139               -0.74840350                5.61670869               -0.60215366
              24.02183182               12.30995757               78.95746545                0.00010000                0.26111848                1.13312179               -3.08533348               -1.00358932                4.93072449               -0.57874074
              25.02728366               11.78462467               78.55242681                0.00010000                0.77496561                1.37796299               -4.08112743               -1.06014968                4.15784497               -0.56741768
              26.03733113               11.25974797               78.14185722                0.00010000                1.18039904                1.60178654               -4.91275283               -0.93506040                3.30422034               -0.57838263
              27.05089165               10.73731588               77.72419407                0.00010000                1.46861170                1.75711363               -5.49406114               -0.64550972                2.35167388               -0.63892339
              28.06670336               10.21838117               77.29756478                0.00010000                1.61847272                1.78574665               -5.72415560               -0.29035326                1.25211721               -0.78801283
              29.08326110                9.70215503               76.85969978                0.40643343                1.65577367                1.61311295               -5.51172615               -0.05916017                0.62888923               -1.09380450
              19.55753998               15.89907052               80.93577409                0.98683993                0.02514941                0.09177496               -0.29405551               -0.07142610                0.23894214                0.41498234
              20.55779148               15.38265251               80.47005081                0.68475198               -0.01038421               -0.05108479                0.13677338               -0.09228945                0.64462606               -0.33396174
              21.55733230               14.86572287               80.01253978                0.36715004               -0.75103957               -0.18393377                0.49394659                0.48274426                4.24739253               -0.78842675
              22.54277069               14.36035402               79.61927950                0.36253168               -0.96395491                0.75786881               -0.89296150                0.23024112                6.73157377               -0.27418212
              23.53805320               13.84304747               79.22252722                0.36074174               -0.16359416                0.94720612               -2.13025979               -0.31795400                5.95976839               -0.26557991
              24.53949880               13.32201112               78.82277735                0.36209678                0.37004917                1.20535560               -3.27356930               -0.42996220                5.20805118               -0.26066912
              25.54545419               12.79911425               78.41859947                0.36573520                0.78030545                1.44895778               -4.30751784               -0.46496320                4.39196412               -0.26539878
              26.55510491               12.27637082               78.00869894                0.37255154                1.12241111                1.66228520               -5.17733978               -0.41257692                3.52893135               -0.27983401
              27.56790241               11.75531515               77.59166876                0.38240614                1.41367514                1.79992636               -5.79620417               -0.28935883                2.59174712               -0.32155324
              28.58337842               11.23656212               77.16568495                0.39582960                1.62822159                1.81809450               -6.05836240               -0.15346938                1.46558005               -0.41264701
              29.60046684               10.71889565               76.72756446                0.70341328                1.70884234                1.67406230               -5.84632210               -0.04607243                0.80262121               -0.63678709
              14.88112902                6.03728286               83.32024547                1.00000000               -0.00309995                0.04422064               -0.14819520                0.05098950               -0.40799932                0.47619656
              15.88109802                5.52832114               82.89571010                1.00000000               -0.05170173               -0.04036951                0.13705176                0.05698879               -0.51333261                0.06045499
              16.88009499                5.01915061               82.46871239                1.00000000               -0.14298076               -0.11582405                0.40952529                0.05544768               -0.55361273               -0.02995472
              17.87823841                4.50950454               82.04329998                0.69248700               -0.23894524               -0.20439149                0.68532841                0.01939822               -0.51129378               -0.23825772
              18.87531608                3.99897464               81.61728220                0.52273499               -0.33038323               -0.29617871                0.95949949                0.00542969               -0.45725934               -0.26496810
              19.87163074                3.48770190               81.19338110                0.22748103               -0.47595415               -0.40633896                1.27276806               -0.18372718                0.15624403               -0.56130761
              20.86579700                2.97256068               80.78018892                0.00010000               -0.80868347               -0.32534743                1.40772595               -2.74910936                5.38669404               -1.42724025
              21.85545707                2.40708083               80.45869946                0.00010000                0.89996392               -1.21005956                0.08987826               -2.37117865               11.01524929               -0.60133772
              22.88379628                1.82874804               80.14646362                0.00010000                4.57759579               -1.64898303               -1.24514070               -2.74790610               11.48195441               -0.04647627
              23.94700899                1.22511291               79.83997825                1.00000000                3.44813663                0.62610453               -2.20510511               -3.03582267                5.74745136               -0.13386181
              24.95275901                0.68526785               79.41857896                1.00000000                0.57500215                0.42108562               -1.58922745                0.04958470               -0.00946465               -0.11499546
              15.39060064                7.03772507               83.18110528                1.00000000                0.01333963                0.03991751               -0.16529246                0.00803129                0.00086857                0.65283482
              16.39073404                6.52791745               82.75648925                1.00000000               -0.02714378               -0.04322779                0.12256939                0.01539775                0.06205065                0.08488149
              17.39005776                6.01799237               82.33270233                1.00000000               -0.11068295               -0.12000337                0.39992973                0.00658594                0.14213470               -0.19855457
              18.38852038                5.50746063               81.90946074                0.89414715               -0.18930318               -0.22023445                0.68781252               -0.01297923                0.24510894               -0.16380229
              19.38627170                4.99601285               81.48767639                0.76800470               -0.27599637               -0.31668680                0.99396960               -0.02908698                0.30428163               -0.18478237
              20.38300045                4.48363851               81.06555543                0.48841757               -0.38276295               -0.42975136                1.34276908               -0.11099181                0.46854012               -0.39083157
              21.37861644                3.96930721               80.64725990                0.06636333                1.03255787               -0.46469284                1.71650644               -3.04907802                5.29670053               -0.88669288
              22.40365161                3.39498023               80.32199188                0.00010000                3.43423681               -2.04783526               -0.65809203               -3.98301886                9.70755824               -0.42161554
              23.44730118                2.81225821               80.00490023                0.00010000                4.23696250               -1.61637422               -0.89772991               -3.52208110               10.66604084               -1.29957084
              24.48839086                2.23137395               79.69426346                0.99311248                2.28993666                0.57327534               -1.89908027               -1.89697128                5.58116451               -0.13293260
              25.49309991                1.68947871               79.27306734                1.00000000                0.47090544                0.37057236               -1.28860200               -0.05551606                0.00000701               -0.13836114
              15.90090490                8.03808122               83.04507215                1.00000000                0.02337794                0.03556180               -0.18010488                0.00001819                0.13063840                0.75979108
              16.90113867                7.52745659               82.61750699                1.00000000               -0.01106851               -0.04385129                0.11174552               -0.00123696                0.31334677                0.02300286
              17.90068353                7.01675055               82.19320199                0.00010000               -0.05901658               -0.12037588                0.39652083               -0.05723870                0.90927167               -0.63362644
              18.89995834                6.50509985               81.77724445                0.00010000               -0.10635330               -0.65725002                0.68950108               -0.37370141                1.30148137               -0.71816253
              19.89855646                5.99264090               81.36013672                0.00010000               -0.19208965               -1.04175636                1.01332206               -0.37049248                1.22389626               -0.75551643
              20.89611655                5.47910687               80.94200931                0.00010000               -0.25413718               -1.50433998                1.40436925               -0.07404657                1.44548893               -0.62091558
              21.89347372                4.96326683               80.52897867                0.00010000                1.83645707               -2.76936070                1.82009205               -2.97728574                4.84348236               -0.07850049
              22.93284569                4.36612412               80.17899838                0.00010000                4.17436102               -2.28065833               -0.19421903               -5.78505103                7.90902376               -0.63879587
              23.97696094                3.79642056               79.84128020                0.00010000                4.95016869               -1.25912730               -0.99556311               -5.00123484               10.60384288               -3.68143399
              25.03184907                3.23657841               79.54889715                0.00010000                2.92391190                0.68491319               -1.57329151               -5.02650749                6.55122283               -6.36726309
              26.03543917                2.69267930               79.12795030                0.39666002                0.35901088                2.52752955               -0.96821513               -4.25077517                0.04167414               -5.50544145
              16.41185026                9.03843631               82.90779872                1.00000000                0.01897048                0.04054505               -0.18714363               -0.00336612                0.21881262                0.63114977
              17.41203996                8.52704042               82.47689186                0.55564256               -0.02902687               -0.04416306                0.11022337               -0.01165599                0.35761265               -0.27187709
              18.41126972                8.01558486               82.04845714                0.00010000               -0.34419870               -0.15035548                0.38423530               -0.50941741                1.11590255               -1.09991978
              19.40515599                7.49431563               81.63272903                0.00010000               -0.32074459               -0.89482531                0.30635982               -1.21294296                1.86985064               -1.47056546
              20.40485483                6.97517773               81.21985933                0.00010000                0.28688023               -1.55337196                0.23992225               -1.16284060                2.15295669               -1.58744670
              21.41089360                6.45355171               80.81079520                0.00010000                1.35993225               -2.39693399                0.13761215               -1.62713161                2.80017142               -1.42828601
              22.43205348                5.91391999               80.41379269                0.00010000                2.19516289               -3.63261129               -0.27727590               -2.88909998                3.49765428               -0.79573735
              23.45479685                5.34936707               80.02799522                0.00010000                2.23843574               -1.26318412               -0.94367470               -5.13798358                4.79541245               -2.43311847
              24.47682219                4.78707567               79.66094829                0.00010000                1.84025552               -0.13210296               -1.57173224               -5.57851148                4.94554911               -5.07738852
              25.49160196                4.24507222               79.27958149                0.00010000                0.95302215                1.35176891               -1.93073997               -5.08398994                3.09552175              -10.23296020
              26.49588263                3.74002930               78.87646864                0.39704993                0.42806698                3.25137540               -1.83255043               -3.18385905                2.23160922              -10.07188796
              16.92362934               10.03889212               82.76903899                1.00000000                0.01276616                0.05252301               -0.19184370                0.00044507                0.00789035                0.51965963
              17.92375701                9.52657333               82.33186282                0.45686932               -0.02046867               -0.05702354                0.13765646               -0.02792857                0.26012976               -0.42097287
              18.92321997                9.01374344               81.89955252                0.00010000               -0.38251959               -0.21014530                0.39934537               -0.73526164                1.42488345               -1.42757130
              19.91610661                8.48720335               81.48578035                0.00010000               -0.35782039               -0.60579170               -0.00630855               -1.47312596                2.40176349               -1.67088197
              20.91606356                7.96157346               81.07503878                0.00010000                0.43625173               -1.12041101               -0.40697970               -1.70168952                2.57939613               -1.90628423
              21.92483165                7.43116819               80.66807761                0.00010000                1.19063985               -1.67269266               -0.85078140               -2.46784498                2.71499196               -2.08781967
              22.93987636                6.89061460               80.26557103                0.00010000                1.60493494               -1.57854731               -1.37475652               -3.96339240                2.89086276               -2.54387071
              23.95693035                6.34086044               79.86821005                0.00010000                1.49045984               -0.37775649               -1.93385560               -4.82955408                2.97198795               -3.32880844
              24.96968556                5.79377850               79.47203003                0.00010000                1.01426418                0.92036440               -2.41349089               -4.42649156                2.62938408               -5.13703718
              25.97721563                5.26361379               79.06953039                0.00010000                0.60811334                1.79574112               -2.66210596               -2.69118230                1.57164523               -6.63034009
              26.98184782                4.75770681               78.65126971                0.39782182                0.46321923                1.57319394               -2.56455718               -1.29701740                0.89210173               -7.76284888
              17.43649674               11.03948677               82.62943045                1.00000000                0.01333298                0.06568234               -0.19857842               -0.00157645                0.00444433                0.50510745
              18.43663007               10.52589995               82.18805846                0.47063505               -0.02811374               -0.07130868                0.14434226               -0.04751132                0.08088040               -0.34140353
              19.43593447               10.01138195               81.74808488                0.00010000               -0.43833141               -0.23204114                0.46527718               -0.84052982                1.57641479               -1.41042513
              20.42786344                9.48219979               81.33672641                0.00010000               -0.45391368               -0.38952558               -0.24063762               -1.72242842                2.89036531               -1.74086036
              21.42685619                8.95276951               80.92640860                0.00010000                0.23160580               -0.59611930               -0.89446465               -2.06691139                2.78431454               -2.02417189
              22.43249556                8.42009786               80.51771341                0.00010000                0.81185926               -0.66767468               -1.54510813               -2.80250747                2.64167947               -2.34032978
              23.44309338                7.88234905               80.11033311                0.00010000                1.12731564               -0.34892564               -2.18946853               -3.60347910                2.42701934               -2.75446230
              24.45504187                7.34181194               79.70319789                0.00010000                1.12228144                0.42385278               -2.78042294               -3.91130386                2.12401752               -3.39294549
              25.46553901                6.80548295               79.29406792                0.00010000                0.94040673                1.26970029               -3.23197222               -3.23187629                1.64715167               -4.23604422
              26.47385001                6.28098704               78.87919540                0.00010000                0.81086220                1.68285603               -3.43739809               -1.74192204                0.92499059               -5.12081648
              27.48175625                5.77149318               78.45498568                0.39848036                0.79062447                1.37993740               -3.33068427               -0.68290403                0.55688136               -5.77313800
              17.95077145               12.04020576               82.49023212                1.00000000                0.01401480                0.07714721               -0.21457532               -0.00003051                0.00046643                0.54664814
              18.95091160               11.52514715               82.04457092                0.50638628               -0.03309585               -0.07468156                0.14674823               -0.04839316                0.02882810               -0.31644873
              19.95010953               11.00910261               81.59939554                0.00010000               -0.53205533               -0.22170300                0.49943791               -0.78833731                1.70143548               -1.21872357
              20.94027049               10.47941284               81.18725900                0.00010000               -0.66411308               -0.14789372               -0.40675590               -1.67104419                3.20208225               -1.64177543
              21.93682727                9.94965108               80.77643364                0.00010000               -0.05342669               -0.06828390               -1.24866437               -2.03792848                3.00099280               -1.91434732
              22.93920196                9.41781470               80.36587318                0.00010000                0.46327143                0.08933100               -2.05574617               -2.57028393                2.66956562               -2.17578185
              23.94609270                8.88363609               79.95461213                0.00010000                0.81842039                0.43525222               -2.81580656               -3.00328719                2.25615699               -2.48820029
              24.95557037                8.34933750               79.54153000                0.00010000                0.98901152                0.95515250               -3.47519976               -2.98616701                1.79143874               -2.88851707
              25.96587293                7.81917250               79.12516607                0.00010000                1.03983002                1.44058808               -3.95091265               -2.34707760                1.27771596               -3.38497837
              26.97636697                7.29727091               78.70371295                0.00010000                1.06522656                1.62808689               -4.15585696               -1.23019283                0.68550651               -3.92806277
              27.98717746                6.78530556               78.27523815                0.39925023                1.08104959                1.40116644               -4.02274485               -0.46861866                0.40501225               -4.47597539
              18.46661335               13.04102971               82.35131405                1.00000000                0.01520036                0.08500368               -0.23470287                0.00191953                0.00161640                0.57048518
              19.46676536               12.52440632               81.90130920                0.54122725               -0.03556584               -0.07045871                0.14827019               -0.03857153                0.03081467               -0.30494737
              20.46590204               12.00694789               81.45184866                0.00010000               -0.64356310               -0.21043920                0.52241163               -0.60010922                1.87961243               -1.15452331
              21.45389410               11.47924192               81.03890738                0.00010000               -0.91031386                0.10947867               -0.52711593               -1.33040090                3.53051694               -1.42469155
              22.44769576               10.95140383               80.62757209                0.00010000               -0.33946116                0.37745726               -1.50680800               -1.68486168                3.27087114               -1.61861867
              23.44710487               10.42188448               80.21573643                0.00010000                0.19045388                0.63250413               -2.43754902               -2.10210453                2.82304556               -1.78773173
              24.45150484                9.89105409               79.80207431                0.00010000                0.63386213                0.93726365               -3.30050735               -2.33390231                2.29087834               -1.97975763
              25.45978212                9.36091499               79.38552032                0.00010000                0.95796011                1.28628834               -4.03664583               -2.20506078                1.73875323               -2.22116087
              26.47066404                8.83429472               78.96508508                0.00010000                1.16654916                1.57045146               -4.55974638               -1.66878283                1.19170899               -2.52734203
              27.48311310                8.31354878               78.53969624                0.00010000                1.28252754                1.65100545               -4.77657254               -0.86066289                0.62742047               -2.90485848
              28.49631459                7.79951651               78.10807775                0.40011185                1.32014925                1.44418102               -4.61003771               -0.31307313                0.36231342               -3.36123898
              18.98405662               14.04190584               82.21248150                1.00000000                0.01653639                0.08802338               -0.25585565                0.00369259                0.01194138                0.57166870
              19.98422199               13.52373798               81.75813085                0.58541439               -0.03924379               -0.06309385                0.15286698               -0.02839104                0.05447740               -0.31817197
              20.98327175               13.00489383               81.30462945                0.00010000               -0.75077264               -0.19898604                0.54491021               -0.28306719                2.16770050               -0.98601397
              21.96920654               12.48160241               80.89266979                0.00010000               -1.13921355                0.36821477               -0.61681804               -0.74794914                3.97994225               -1.12014959
              22.96048748               11.95720022               80.48145397                0.00010000               -0.58484674                0.75155955               -1.69800565               -1.17160859                3.60607813               -1.18769193
              23.95750960               11.43046478               80.06920425                0.00010000               -0.00516669                1.00469128               -2.72458768               -1.52626895                3.06006530               -1.26238784
              24.96038414               10.90238136               79.65440768                0.00010000                0.53594625                1.25333716               -3.67363877               -1.65911617                2.44157115               -1.35867730
              25.96822853               10.37506326               79.23608129                0.00010000                0.97396699                1.49560535               -4.48174793               -1.50495009                1.82443606               -1.48851247
              26.97986348                9.85058153               78.81344949                0.00010000                1.28516942                1.67251340               -5.05474194               -1.08915952                1.23440473               -1.67248456
              27.99393191                9.33029102               78.38569541                0.00010000                1.45585250                1.70330708               -5.28702236               -0.53322414                0.64552473               -1.93494638
              29.00898053                8.81418918               77.95172609                0.40073859                1.50486195                1.50604476               -5.08766513               -0.16793444                0.36215514               -2.30058984
              19.50302292               15.04279018               82.07352613                1.00000000                0.01866198                0.09001618               -0.27639741                0.00342045                0.01399048                0.48020397
              20.50320954               14.52314444               81.61468292                0.49224981               -0.03233307               -0.05848911                0.16266033               -0.02059231                0.25273482               -0.31832662
              21.50237626               14.00296817               81.16064085                0.00010000               -0.82904120               -0.19354498                0.54244865                0.15900770                2.62033506               -0.77544694
              22.48662872               13.48660621               80.74937829                0.00010000               -1.34875236                0.70598058               -0.68984320               -0.15158460                4.44690613               -0.66098452
              23.47540122               12.96643502               80.33928917                0.00010000               -0.76151811                0.99267190               -1.84684840               -0.59205628                3.96931369               -0.63405911
              24.47139836               12.44197830               79.92738693                0.00010000               -0.08385910                1.22431754               -2.94244022               -0.85867953                3.31714668               -0.65366962
              25.47372403               11.91612084               79.51241964                0.00010000                0.50422913                1.44319111               -3.95731626               -0.91150703                2.63110733               -0.68640878
              26.48148294               11.39082709               79.09352106                0.00010000                0.99645294                1.63693954               -4.82539775               -0.79733790                1.96727828               -0.73716085
              27.49365309               10.86774498               78.67003160                0.00010000                1.36790162                1.76318890               -5.44561373               -0.54377413                1.33871984               -0.82288960
              28.50884097               10.34761492               78.24113658                0.00010000                1.57532498                1.77210409               -5.69778075               -0.24106837                0.69977973               -0.96688373
              29.52515959                9.82963740               77.80553342                0.40147151                1.63186192                1.60565976               -5.46883596               -0.03983777                0.38210220               -1.21233873
              20.02341651               16.04370616               81.93285030                1.00000000                0.02156451                0.09159810               -0.29360274               -0.07443815                0.22562296                0.39439023
              21.02363215               15.52256820               81.47157170                0.70044798               -0.02131881               -0.05762470                0.16334170               -0.09190063                0.59753758               -0.30666187
              22.02299013               15.00102293               81.01779068                0.36625542               -1.04620787               -0.19452387                0.54190034                0.71907811                3.30083477               -0.72441741
              23.00270800               14.49572202               80.61091407                0.36242726               -1.48579340                0.91158066               -0.77835757                0.40946408                4.95295099               -0.25673462
              23.99327426               13.97705366               80.20197691                0.36112786               -0.60289013                1.06186436               -1.97609867               -0.25123962                4.24262584               -0.26609098
              24.99065019               13.45495113               79.79089752                0.36186151                0.00154750                1.29728297               -3.11094111               -0.36524047                3.52594893               -0.28012696
              25.99330521               12.93124518               79.37640720                0.36550034                0.50037138                1.51243464               -4.16553152               -0.39933596                2.79237773               -0.30201111
              27.00065762               12.40780205               78.95778780                0.37115668                0.94474820                1.69749608               -5.07546692               -0.35252554                2.11221146               -0.32985488
              28.01220018               11.88584531               78.53454448                0.37964875                1.32802534                1.81003280               -5.73820382               -0.24873905                1.49521711               -0.37668318
              29.02721813               11.36573310               78.10596199                0.39189088                1.59693149                1.81181856               -6.02791883               -0.13943153                0.84557949               -0.45750667
              30.04413881               10.84630237               77.67009674                0.70086847                1.69206799                1.66649686               -5.80050023               -0.04515162                0.50711020               -0.63336807
              15.30009065                6.18127046               84.31835378                1.00000000                0.01299668                0.06305508               -0.22116370                0.05954297               -0.42146325                0.47713190
              16.30022062                5.66822903               83.89684897                1.00000000               -0.04227438               -0.02850101                0.09377915                0.06581182               -0.53813282                0.06307201
              17.29924516                5.15492753               83.47273204                1.00000000               -0.14474982               -0.10844043                0.39160276                0.06295201               -0.58438829               -0.02608811
              18.29732562                4.64097449               83.05025407                0.69687928               -0.25247554               -0.20830760                0.69669089                0.01506919               -0.53662041               -0.23201752
              19.29419565                4.12581541               82.62718570                0.53988297               -0.35289492               -0.31578708                1.00386204                0.00235337               -0.45614390               -0.24622278
              20.29026772                3.60959636               82.20663953                0.27313997               -0.45760527               -0.44849344                1.36388063               -0.14113792                0.12171423               -0.53901026
              21.28504355                3.09023104               81.79550059                0.00010000               -0.44937891               -0.49593970                1.61070637               -1.81318641                4.45175678               -1.32221602
              22.28128015                2.53901846               81.46059182                0.00010000                0.94998681               -0.20769399                0.10071428               -2.66296709                9.28218613               -1.93737749
              23.30404328                1.97115203               81.13341502                0.00010000                4.20678781               -1.95390165               -1.49050533               -2.64537377                9.80477085                0.20423340
              24.36541590                1.36789900               80.81782385                1.00000000                3.34738542                0.61059998               -2.18831374               -3.00057263                4.97917655               -0.07070520
              25.37099099                0.82810463               80.40304422                1.00000000                0.55750905                0.37913701               -1.48397359                0.05188070               -0.00593389               -0.07177315
              15.81372750                7.18190101               84.17907405                1.00000000                0.03226964                0.05485468               -0.23313506                0.01250388               -0.01067891                0.64982169
              16.81405020                6.66794402               83.75751621                1.00000000               -0.01127735               -0.03372195                0.08458248                0.02025573                0.04172198                0.08807510
              17.81350196                6.15384313               83.33665781                1.00000000               -0.10089120               -0.11472303                0.38587772                0.00576655                0.12438192               -0.18810849
              18.81203238                5.63889141               82.91647142                0.90479697               -0.17968516               -0.23189852                0.70105524               -0.01951165                0.25455506               -0.15266918
              19.80990825                5.12265754               82.49798527                0.78949707               -0.26919228               -0.34375044                1.04394962               -0.03837441                0.37413809               -0.16771844
              20.80664853                4.60511142               82.07967063                0.54336513               -0.38538096               -0.48077844                1.45778547               -0.12303772                0.61184102               -0.37094012
              21.80220063                4.08527164               81.66542658                0.18340257                0.37707238               -0.59671719                1.93249151               -1.51726922                3.83215572               -0.83461647
              22.81418998                3.53694152               81.31085281                0.00010000                3.04743209               -1.10218267               -0.62186819               -3.12199888                7.77341291               -0.68993109
              23.86314928                2.95161301               80.99793148                0.00010000                4.63719504               -2.08749567               -0.43293781               -3.63105510                9.69505115               -1.18610777
              24.90693388                2.37400500               80.67620312                1.00000000                2.40774503                0.55423074               -1.82031698               -1.72311598                4.67036001               -0.06967344
              25.91130418                1.83189600               80.26132741                1.00000000                0.43702973                0.32715886               -1.13374313               -0.06307818               -0.00192554               -0.09948714
              16.32825470                8.18236755               84.04293218                1.00000000                0.04289193                0.04382762               -0.24123776                0.00097189                0.11803418                0.75759609
              17.32868361                7.66755460               83.61846499                1.00000000                0.00792052               -0.03671458                0.08045356               -0.00375545                0.29511083                0.03210172
              18.32841311                7.15263307               83.19716897                0.00010000               -0.02813175               -0.11540099                0.39016710               -0.08924777                0.89559157               -0.61993004
              19.32812098                6.63633652               82.78429533                0.00010000               -0.06024749               -0.67654480                0.70231311               -0.45735989                1.33287275               -0.89506947
              20.32720816                6.11894040               82.37067128                0.00010000               -0.14640561               -1.04373357                1.05962719               -0.52118121                1.35507072               -1.13961714
              21.32519287                5.59998079               81.95683017                0.00010000               -0.21700432               -1.46277164                1.51461368               -0.34153067                1.69163826               -1.28179971
              22.32286807                5.07829669               81.54823601                0.00010000                1.36529634               -2.36891446                2.00922861               -1.44973736                4.09865403               -1.25060552
              23.35249879                4.51697481               81.18041900                0.00010000                3.57453158               -2.79761343                0.83773583               -4.26994889                5.89297843               -0.36823735
              24.39435870                3.92940212               80.83339909                0.00010000                4.90859041               -1.58956516               -0.25238121               -5.10038576                9.35601183               -4.56023758
              25.45067060                3.37898362               80.53475223                0.00010000                2.97943705                0.35234729               -1.47075522               -4.45093546                5.85164358               -6.68290564
              26.45394744                2.83464780               80.11979636                0.39240608                0.32768397                2.21174295               -0.80225072               -4.03109804                0.03736695               -6.10024933
              16.84337285                9.18277756               83.90563869                1.00000000                0.03367207                0.04516500               -0.23902352               -0.00755348                0.20197569                0.63100661
              17.84370957                8.66720973               83.47788414                0.57904883               -0.02188870               -0.03516134                0.08808627               -0.02381659                0.32714929               -0.24339964
              18.84293508                8.15153511               83.05236190                0.00010000               -0.35658608               -0.14225993                0.39096676               -0.56951657                0.89692482               -1.07105462
              19.83657785                7.62536052               82.63600248                0.00010000               -0.35473584               -0.88920638                0.33259955               -1.36031788                1.47975071               -1.80666985
              20.83584036                7.10178287               82.22263647                0.00010000                0.19418869               -1.48704286                0.28761172               -1.38919614                1.76511599               -2.30541463
              21.84046162                6.57585599               81.81274850                0.00010000                1.01857558               -2.16150369                0.21357691               -1.71337644                2.27675865               -2.62898705
              22.85621187                6.03789335               81.41208638                0.00010000                1.86119762               -3.07975441               -0.10861178               -2.54005783                2.69643015               -2.48663046
              23.87768558                5.48098925               81.02045305                0.00010000                2.14604397               -2.37952321               -0.58131109               -4.44470403                3.95204184               -3.64558640
              24.89913275                4.91982171               80.64652005                0.00010000                1.74919548               -0.21926733               -1.44093486               -5.03243931                4.07104893               -6.19351650
              25.91266949                4.38105195               80.26071787                0.00010000                1.01105466                0.87199569               -1.87832310               -4.62851782                2.55268151              -11.03952487
              26.91935384                3.87613085               79.85860264                0.39265711                0.66843583                2.74139583               -1.80838624               -2.80718739                1.95604167              -11.24040872
              17.35923928               10.18327085               83.76688929                1.00000000                0.02104569                0.05767488               -0.23280518               -0.00148250                0.01059356                0.51760941
              18.35944974                9.66685137               83.33318897                0.48746186               -0.01836452               -0.05013525                0.12641788               -0.04080596                0.22632922               -0.38848943
              19.35887199                9.14978787               82.90365768                0.00010000               -0.43914364               -0.20150733                0.41378032               -0.77932413                1.02433839               -1.35929952
              20.35066686                8.61855239               82.48597777                0.00010000               -0.49716141               -0.55959821                0.03462928               -1.57003487                1.65292644               -1.92536912
              21.34892876                8.08919954               82.07135791                0.00010000                0.20739952               -0.99356486               -0.34785425               -1.77134572                1.79321052               -2.46929840
              22.35481485                7.55675072               81.66005165                0.00010000                0.90024468               -1.40349703               -0.78746678               -2.40486036                1.84974878               -2.95497418
              23.36693365                7.01670160               81.25238033                0.00010000                1.34307496               -1.39001403               -1.30780462               -3.55435761                1.96998383               -3.60833530
              24.38167635                6.46938434               80.84935338                0.00010000                1.33567824               -0.50880919               -1.90625871               -4.35102213                2.03238010               -4.47027325
              25.39364722                5.92501677               80.44805679                0.00010000                1.00573752                0.80608503               -2.47029838               -3.99918243                1.85298816               -6.17483015
              26.40179110                5.39642353               80.04290395                0.00010000                0.69993307                1.54240200               -2.75256732               -2.36090751                1.15724419               -7.60227658
              27.40764588                4.88947572               79.62577772                0.39320158                0.58547769                1.24142425               -2.62003191               -1.15358005                0.72882600               -8.77371436
              17.87618216               11.18393106               83.62727016                1.00000000                0.01942678                0.07213735               -0.22869242               -0.00384678                0.00406920                0.49565830
              18.87637643               10.66620703               83.18948904                0.50290675               -0.02672965               -0.07059883                0.13946910               -0.05432837                0.06749181               -0.32234578
              19.87564757               10.14750496               82.75286802                0.00010000               -0.53054743               -0.22920505                0.48129585               -0.84697791                1.04328132               -1.33395028
              20.86576548                9.61416855               82.33462809                0.00010000               -0.67162240               -0.32277219               -0.18575422               -1.72255831                1.84338323               -1.91136077
              21.86221512                9.08191157               81.91788800                0.00010000               -0.04515643               -0.45445235               -0.82122076               -1.99687071                1.72296367               -2.42013724
              22.86486235                8.54778605               81.50269465                0.00010000                0.51379860               -0.47944343               -1.48221082               -2.60770683                1.54656819               -2.94278441
              23.87249109                8.01009307               81.08875625                0.00010000                0.87438068               -0.19173681               -2.16952665               -3.27471363                1.33087921               -3.52112989
              24.88234997                7.47081307               80.67546498                0.00010000                0.98094101                0.48577748               -2.83219834               -3.49965120                1.12164087               -4.25775496
              25.89210991                6.93594341               80.26153101                0.00010000                0.93212103                1.22177304               -3.35548158               -2.85995629                0.87726864               -5.13828369
              26.90099239                6.41189999               79.84449341                0.00010000                0.90339756                1.54382207               -3.60489923               -1.52526312                0.51551819               -6.03815994
              27.91017786                5.90095934               79.42150902                0.39400495                0.91854775                1.21108408               -3.48644849               -0.57080828                0.38278767               -6.68112788
              18.39461040               12.18471360               83.48796036                1.00000000                0.01788640                0.08279323               -0.23555874               -0.00167811               -0.00022554                0.52849960
              19.39478927               11.66543939               83.04605262                0.54010930               -0.03197490               -0.07686695                0.14626322               -0.05085812                0.02216006               -0.29914649
              20.39397090               11.14520377               82.60452312                0.00010000               -0.64900886               -0.22636956                0.51588279               -0.75024947                1.06909618               -1.16093261
              21.38180909               10.61209695               82.18354163                0.00010000               -0.92985272               -0.08041561               -0.34003615               -1.58035525                1.94107621               -1.74280327
              22.37537385               10.08011049               81.76441785                0.00010000               -0.36649366                0.05476203               -1.15958334               -1.87425784                1.73362026               -2.17671199
              23.37447921                9.54716185               81.34576033                0.00010000                0.15192581                0.24133802               -1.98483846               -2.32867546                1.38637562               -2.59205211
              24.37841237                9.01286687               80.92671740                0.00010000                0.56768856                0.57277766               -2.80334368               -2.68624195                1.00937825               -3.04222894
              25.38583299                8.47909989               80.50674833                0.00010000                0.84744038                1.03474226               -3.54841815               -2.63981749                0.68397099               -3.55149801
              26.39536117                7.94945223               80.08532799                0.00010000                1.02184634                1.44646060               -4.11428643               -2.04802558                0.43789337               -4.11909905
              27.40626991                7.42729997               79.66164492                0.00010000                1.13749184                1.58061398               -4.38031738               -1.05573456                0.23003194               -4.69103340
              28.41811101                6.91369740               79.23459193                0.39462883                1.18410964                1.34467629               -4.24608445               -0.38573729                0.20750413               -5.19235910
              18.91469701               13.18558692               83.34888230                1.00000000                0.01720846                0.08889127               -0.24807065                0.00084121                0.00077744                0.54792980
              19.91486909               12.66466969               82.90282803                0.57723417               -0.03559933               -0.07325198                0.15123376               -0.03840114                0.02442058               -0.28450566
              20.91398502               12.14297757               82.45720880                0.00010000               -0.78087210               -0.21717011                0.53824895               -0.52172055                1.16821963               -1.09604419
              21.89925165               11.61256024               82.03402654                0.00010000               -1.21599785                0.17100031               -0.44892926               -1.17017994                2.10888797               -1.47422883
              22.88966507               11.08300681               81.61302979                0.00010000               -0.68595911                0.48867201               -1.40131030               -1.47653315                1.84190352               -1.77926677
              23.88553247               10.55261281               81.19185148                0.00010000               -0.14184275                0.76442921               -2.35203001               -1.85349750                1.38376296               -2.06317153
              24.88682821               10.02154862               80.76935771                0.00010000                0.37178917                1.05846268               -3.28025650               -2.05576539                0.90034142               -2.36609572
              25.89296825                9.49150791               80.34512681                0.00010000                0.80605554                1.37321010               -4.11275771               -1.92823716                0.50686173               -2.70402492
              26.90294932                8.96487262               79.91912692                0.00010000                1.13321369                1.61622186               -4.73781976               -1.44185188                0.25438306               -3.07760859
              27.91563253                8.44351227               79.49135223                0.00010000                1.33594695                1.67039747               -5.02906032               -0.73155791                0.11504898               -3.46953800
              28.92966826                7.92785287               79.06143722                0.39537410                1.40357335                1.47342598               -4.87303835               -0.25251575                0.13713042               -3.85988716
              19.43646169               14.18649142               83.20987566                1.00000000                0.01689042                0.09005679               -0.26272687                0.00356516                0.01099656                0.54673266
              20.43663060               13.66397435               82.75971278                0.62471312               -0.04078763               -0.06568596                0.15858371               -0.02598127                0.04507384               -0.29031328
              21.43564594               13.14086037               82.31022155                0.00010000               -0.91271733               -0.20427601                0.56057192               -0.16877379                1.38798850               -0.93253035
              22.41837625               12.61551696               81.88693626                0.00010000               -1.49276609                0.43755590               -0.52629796               -0.54038563                2.43011884               -1.13109238
              23.40579062               12.08988393               81.46506619                0.00010000               -0.97543992                0.86822391               -1.57382194               -0.96463310                2.04886437               -1.27220618
              24.39886745               11.56245043               81.04251834                0.00010000               -0.36943301                1.12890471               -2.61947928               -1.31679989                1.48921977               -1.42574380
              25.39840196               11.03403612               80.61801888                0.00010000                0.25383959                1.36741750               -3.63776788               -1.44714344                0.92011383               -1.60173653
              26.40394424               10.50656409               80.19127753                0.00010000                0.80589121                1.58951644               -4.54934091               -1.30814849                0.47016693               -1.80268564
              27.41451978                9.98177667               79.76256331                0.00010000                1.23571357                1.74452368               -5.23291788               -0.93774829                0.19759653               -2.03331120
              28.42865851                9.46070792               79.33224879                0.00010000                1.49298582                1.76323254               -5.54718196               -0.45230728                0.07541492               -2.29443831
              29.44437950                8.94316592               78.90029558                0.39604577                1.57209835                1.58423707               -5.36254550               -0.13214071                0.10853034               -2.58330501
              19.95980245               15.18738806               83.07072702                1.00000000                0.01780704                0.09092832               -0.27999294                0.00418806                0.01806129                0.45650170
              20.95998052               14.66335597               82.61639306                0.52966774               -0.03677540               -0.06163257                0.17278831               -0.01623784                0.22556999               -0.28905550
              21.95906694               14.13889205               82.16622081                0.00010000               -1.02800750               -0.19627519                0.56038143                0.31580421                1.77457598               -0.72593022
              22.93942037               13.62131136               81.74297462                0.00010000               -1.78140087                0.83154057               -0.58426690                0.03732347                2.80196278               -0.65447287
              23.92343893               13.10037129               81.32149977                0.00010000               -1.21880439                1.12331242               -1.69975820               -0.44943999                2.31131754               -0.66564865
              24.91504429               12.57519091               80.89861664                0.00010000               -0.48336230                1.34684917               -2.81244705               -0.73771393                1.64155643               -0.72743704
              25.91377168               12.04889697               80.47328049                0.00010000                0.20102258                1.55313889               -3.89915171               -0.79415818                0.99887758               -0.80332745
              26.91906474               11.52329824               80.04534926                0.00010000                0.81394238                1.73380771               -4.87674544               -0.69331253                0.50185463               -0.89262931
              27.93005053               10.99976310               79.61528180                0.00010000                1.30661970                1.84895246               -5.61526494               -0.47042745                0.20503207               -1.00220432
              28.94519713               10.47877692               79.18360917                0.00010000                1.60294594                1.85266146               -5.95571074               -0.20731317                0.07177223               -1.13935831
              29.96210945                9.95953761               78.75032306                0.39669021                1.69123169                1.69678659               -5.74042643               -0.02592888                0.09895423               -1.31705836
              20.48460963               16.18830999               82.92990203                1.00000000                0.01922194                0.09219312               -0.29312627               -0.07611118                0.21869836                0.37231848
              21.48480185               15.66274170               82.47331765                0.71742477               -0.03014981               -0.06142686                0.17847956               -0.08662373                0.54904483               -0.27839565
              22.48400663               15.13693486               82.02337779                0.36549549               -1.35791840               -0.19571841                0.56109832                0.96427204                2.38251149               -0.66553743
              23.45764348               14.63214777               81.60371235                0.36212097               -2.05421802                1.08364063               -0.65192396                0.59307665                3.22213938               -0.24211052
              24.44292227               14.11235018               81.18300525                0.36076731               -1.10279970                1.19788963               -1.80154039               -0.18968308                2.52095509               -0.26948035
              25.43558749               13.58938742               80.76055853                0.36189130               -0.42554070                1.41965099               -2.95183113               -0.30824410                1.78110782               -0.30159485
              26.43441146               13.06509890               80.33528884                0.36472255                0.18121908                1.62019267               -4.08182326               -0.34338072                1.08006853               -0.33905281
              27.43921187               12.54124025               79.90718960                0.36987795                0.76105490                1.79420066               -5.10898101               -0.30244600                0.55482507               -0.37810598
              28.44963256               12.01875572               79.47690469                0.37775366                1.27629369                1.89926209               -5.90040242               -0.21575218                0.26249203               -0.42735621
              29.46473774               11.49776115               79.04512657                0.38827063                1.63534928                1.89842326               -6.28970487               -0.12864224                0.13558103               -0.49484528
              30.48233954               10.97710165               78.61155445                0.69867278                1.76017999                1.75640456               -6.07845717               -0.04294041                0.16179852               -0.61109263
              15.71570937                6.32538497               85.31582220                1.00000000                0.02477294                0.07581382               -0.27319788                0.06565040               -0.43999051                0.47851961
              16.71595710                5.80824811               84.89758568                1.00000000               -0.03536236               -0.01851745                0.05798111                0.07237923               -0.57112990                0.06543861
              17.71500213                5.29077732               84.47654444                1.00000000               -0.14523797               -0.09840534                0.36794895                0.06787452               -0.62257887               -0.02482486
              18.71305234                4.77242948               84.05723380                0.69877868               -0.25971945               -0.20634971                0.69007665                0.00685276               -0.56446700               -0.22845050
              19.70980774                4.25245104               83.63735944                0.55911287               -0.36511032               -0.32781337                1.01559092               -0.00374605               -0.43611796               -0.21622751
              20.70575014                3.73085951               83.22065871                0.32805583               -0.44639452               -0.48304360                1.41797281               -0.10475172                0.14669537               -0.47173104
              21.70087985                3.20626437               82.81240305                0.00010000               -0.12818856               -0.63849163                1.71402952               -0.83265871                3.42122825               -1.08129428
              22.70318637                2.66781129               82.46071374                0.00010000                1.08899095               -0.64568645                0.16481935               -2.78036961                7.31978421               -2.75358916
              23.72265967                2.10379978               82.11665351                0.00010000                3.68884775               -1.52477973               -1.22474304               -2.72432779                7.80690980                0.51995937
              24.77696332                1.50694027               81.79621197                1.00000000                2.97699663                0.61118282               -2.12205582               -2.68280688                4.37076578               -0.06794983
              25.78219960                0.96726601               81.38889949                1.00000000                0.52362777                0.34708145               -1.34621195                0.09389616               -0.00662705               -0.06737234
              16.23350274                7.32614311               85.17644258                1.00000000                0.04819787                0.06417631               -0.28247723                0.01651211               -0.02771422                0.64691118
              17.23398472                6.80806293               84.75818090                1.00000000                0.00437246               -0.02587110                0.05130485                0.02485795                0.01067358                0.09111245
              18.23359019                6.28979327               84.34041988                1.00000000               -0.08503514               -0.10647379                0.36092996                0.00329667                0.09264106               -0.17845952
              19.23228401                5.77036598               83.92348184                0.91639163               -0.15174633               -0.23810338                0.68608264               -0.02796058                0.25507776               -0.14540439
              20.23055526                5.24917291               83.50855539                0.81557801               -0.22440293               -0.36268417                1.03923074               -0.05108028                0.46280371               -0.14438867
              21.22779595                4.72602907               83.09471114                0.60862282               -0.32389462               -0.52332510                1.49844673               -0.13295064                0.85223896               -0.31971642
              22.22407737                4.19987945               82.68590973                0.31733353               -0.05904949               -0.73347245                2.10026043               -0.68482652                2.88141158               -0.71089428
              23.22661496                3.66135443               82.30955451                0.00327086                2.58872656               -0.93260760                0.79298856               -2.44858287                7.30860202               -1.45006571
              24.27585190                3.08855198               81.99624147                0.09089802                4.58935848               -2.35862692               -0.29060455               -3.06070260               10.15349853               -1.57806411
              25.31840213                2.51305210               81.65785712                1.00000000                2.34804602                0.57326366               -1.86899505               -1.61469003                3.45728790               -0.07270524
              26.32281282                1.97073683               81.25039248                1.00000000                0.44106845                0.30665324               -1.06531563               -0.03659387                0.00392917               -0.09123064
              16.75219996                8.32666849               85.04024739                1.00000000                0.06041344                0.04781121               -0.28651297                0.00102552                0.09920284                0.75801813
              17.75280410                7.80773069               84.61911606                1.00000000                0.02825259               -0.03072436                0.05125435               -0.00728111                0.26541580                0.04331119
              18.75276501                7.28864785               84.20100533                0.00010000                0.01547007               -0.10591051                0.36972568               -0.12817896                0.85995288               -0.60074426
              19.75311350                6.76766741               83.79129071                0.00010000                0.01790120               -0.69330965                0.67542832               -0.56290364                1.33665253               -1.06310703
              20.75312304                6.24519736               83.38132926                0.00010000               -0.03644599               -1.03950546                1.02756289               -0.72092642                1.47712188               -1.50787850
              21.75238458                5.72039301               82.97230158                0.00010000               -0.06325382               -1.41392915                1.49548990               -0.72097639                1.98667293               -1.92374074
              22.75185796                5.19159492               82.56916324                0.00010000                0.65788016               -1.99181936                2.05731394               -0.85168531                4.04921288               -2.36526234
              23.76554218                4.64915914               82.19575310                0.00010000                2.89449911               -2.69167313                1.52043238               -3.10893134                5.45511633               -2.59956572
              24.80974794                4.05662724               81.83623258                0.00010000                4.84712468               -2.00021724                1.35340371               -4.43135743                9.72629719               -4.75199771
              25.86248467                3.51840554               81.51948205                0.00010000                2.81751620                0.15389518               -1.61943011               -3.55286476                4.56044730               -6.98746700
              26.86609827                2.97339908               81.11190529                0.38826830                0.36135930                1.92514696               -0.78655926               -3.67959150                0.04180224               -6.75416172
              17.27139887                9.32709933               84.90301825                1.00000000                0.04608734                0.04721682               -0.27715725               -0.01299396                0.18014729                0.63717152
              18.27185974                8.80744845               84.47865358                0.60339966               -0.01544907               -0.02660224                0.06606147               -0.03565809                0.28995037               -0.21083190
              19.27108988                8.28767506               84.05627648                0.00010000               -0.36916528               -0.12982598                0.38512611               -0.63978689                0.66488172               -1.03809361
              20.26447643                7.75649979               83.63938102                0.00010000               -0.38393756               -0.87985270                0.33040729               -1.54704264                1.06347412               -2.11319771
              21.26341113                7.22838280               83.22561156                0.00010000                0.12512150               -1.41306955                0.28129612               -1.70092154                1.34100432               -2.98200754
              22.26697886                6.69775049               82.81506673                0.00010000                0.74331972               -1.91352243                0.19124124               -1.99600526                1.76258677               -3.77829833
              23.27827753                6.16004307               82.41162045                0.00010000                1.62125778               -2.49084491               -0.11373961               -2.60565881                2.18739091               -4.39230932
              24.29940402                5.60752097               82.01636900                0.00010000                1.98504097               -2.63580491               -0.50780791               -3.75680604                2.94131952               -5.93034014
              25.31797835                5.04854764               81.63212959                0.00010000                1.55844915               -0.06781502               -1.64570241               -4.39720789                2.63608560               -7.56668439
              26.33057300                4.51613000               81.24201503                0.00010000                1.06277891                0.46935891               -1.90464793               -3.95764757                2.12992356              -11.61424650
              27.33923392                4.00923977               80.84030091                0.38848709                0.86609227                2.29635337               -1.89851792               -2.46009671                1.60841048              -12.57560691
              17.79124185               10.32761283               84.76438289                1.00000000                0.02733515                0.06147649               -0.26170639               -0.00434356                0.01201078                0.52424856
              18.79151520                9.80719864               84.33439118                0.51979469               -0.01619581               -0.04295305                0.11271363               -0.05195927                0.18847458               -0.35472057
              19.79091793                9.28605133               83.90782813                0.00010000               -0.50251469               -0.19187794                0.41300712               -0.82785621                0.62045387               -1.29581345
              20.78146491                8.75007035               83.48647294                0.00010000               -0.65320165               -0.50455329                0.06035938               -1.69403369                0.89184908               -2.14882166
              21.77785390                8.21693597               83.06808169                0.00010000               -0.03303528               -0.85379861               -0.31710643               -1.90550095                0.96636112               -2.98090839
              22.78080420                7.68212256               82.65232827                0.00010000                0.60602034               -1.11085030               -0.78570118               -2.47890646                0.94099637               -3.80169617
              23.78997431                7.14177802               82.23941494                0.00010000                1.05486432               -1.12268419               -1.34950534               -3.35082064                0.93871792               -4.74875922
              24.80190149                6.59644304               81.83008488                0.00010000                1.16102196               -0.41295399               -2.03733523               -4.06055836                0.89966889               -5.78681218
              25.81319475                6.05527094               81.42262406                0.00010000                1.03690514                0.84492231               -2.65856081               -3.62863561                0.94556822               -7.26878775
              26.82263959                5.52779272               81.01447904                0.00010000                0.87410299                1.26764325               -3.00905691               -2.11677187                0.66913779               -8.68318613
              27.83067681                5.01932614               80.59886907                0.38934727                0.80372152                0.99083240               -2.86297643               -1.03931486                0.60598147               -9.86625670
              18.31214037               11.32832886               84.62485660                1.00000000                0.02416801                0.07753962               -0.24828101               -0.00691905                0.00312580                0.49452018
              19.31238205               10.80658938               84.19084785                0.53842011               -0.02396641               -0.06867022                0.12981550               -0.06072586                0.05055788               -0.30528053
              20.31166105               10.28383750               83.75771080                0.00010000               -0.63354653               -0.22540738                0.47769127               -0.85480771                0.51874867               -1.26500398
              21.29971112                9.74640872               83.33301133                0.00010000               -0.92060680               -0.24560155               -0.13490160               -1.73991501                0.80230576               -2.05631979
              22.29324891                9.21130682               82.90998418                0.00010000               -0.35762228               -0.29804561               -0.75648653               -1.97240806                0.62592931               -2.77708302
              23.29255868                8.67553348               82.48806919                0.00010000                0.18458602               -0.26528665               -1.45343633               -2.49458652                0.35894997               -3.51305930
              24.29694063                8.13758938               82.06694258                0.00010000                0.60706284                0.02060158               -2.22798124               -3.04768184                0.08982582               -4.28441965
              25.30469993                7.59926189               81.64655392                0.00010000                0.85576622                0.61013310               -3.00699392               -3.17027976               -0.04317346               -5.14512816
              26.31405595                7.06544608               81.22695829                0.00010000                0.97412122                1.19618373               -3.65509695               -2.56197805               -0.04470499               -6.07753174
              27.32418236                6.54148287               80.80709741                0.00010000                1.06624150                1.43993493               -3.99534390               -1.36627949                0.01446043               -7.03631153
              28.33538078                6.02905641               80.38525671                0.38957075                1.11984253                1.11020141               -3.89990189               -0.50480918                0.15868225               -7.70804212
              18.83458242               12.32916362               84.48552095                1.00000000                0.02096221                0.08720760               -0.24745356               -0.00398520               -0.00119828                0.51699921
              19.83479204               11.80582524               84.04749618                0.57700126               -0.02899879               -0.07666710                0.13909113               -0.05376134                0.01337557               -0.28461366
              20.83400244               11.28154318               83.60971319                0.00010000               -0.77973781               -0.22544649                0.51009081               -0.71300183                0.45653125               -1.11088416
              21.81919729               10.74515832               83.18045828                0.00010000               -1.23607343               -0.00230042               -0.26866000               -1.50141937                0.70404974               -1.82649514
              22.80928098               10.21097505               82.75324198                0.00010000               -0.72836855                0.19316594               -1.06436339               -1.74407597                0.43527170               -2.40908002
              23.80462992                9.67681683               82.32617641                0.00010000               -0.19943532                0.41647773               -1.93288464               -2.14457304                0.00713101               -2.98022360
              24.80529227                9.14219005               81.89854525                0.00010000                0.30046395                0.74206599               -2.85717576               -2.44377086               -0.38796671               -3.58066025
              25.81063919                8.60864571               81.47056164                0.00010000                0.72209674                1.15216999               -3.75156876               -2.37726177               -0.60316607               -4.21786308
              26.81973420                8.07919461               81.04288034                0.00010000                1.05322382                1.50305715               -4.47676062               -1.82919772               -0.56667852               -4.88823704
              27.83170367                7.55659142               80.61610660                0.00010000                1.28496642                1.60356377               -4.86940749               -0.93715130               -0.32811342               -5.51842228
              28.84543353                7.04153017               80.19031646                0.39032866                1.37298624                1.37793509               -4.77976673               -0.33080309               -0.03364373               -5.99482263
              19.35873744               13.33007301               84.34635264                1.00000000                0.01898246                0.09160705               -0.25382171               -0.00070283               -0.00031274                0.53025218
              20.35892727               12.80505604               83.90433388                0.61459528               -0.03347610               -0.07292765                0.14588638               -0.03794550                0.01607566               -0.26689006
              21.35806792               12.27932857               83.46261364                0.00010000               -0.93382015               -0.21559842                0.53150315               -0.44438673                0.48728825               -1.04629721
              22.34025086               11.74636271               83.02992879                0.00010000               -1.56795166                0.24370778               -0.35905843               -1.01957230                0.72855129               -1.51219343
              23.32670889               11.21517014               82.59954588                0.00010000               -1.08993240                0.61555334               -1.27798527               -1.29489806                0.39161960               -1.91968392
              24.31845222               10.68386304               82.16869583                0.00010000               -0.52362773                0.91839598               -2.27390670               -1.65140213               -0.14888090               -2.31846304
              25.31623633               10.15243070               81.73646918                0.00010000                0.08489612                1.21168980               -3.32136411               -1.84113954               -0.64483875               -2.73963586
              26.32015014                9.62230529               81.30326516                0.00010000                0.66449751                1.50706985               -4.32486341               -1.72376195               -0.91145050               -3.18778603
              27.32952628                9.09550723               80.87032869                0.00010000                1.14768175                1.72829074               -5.13518585               -1.28205976               -0.85760353               -3.64498828
              28.34310377                8.57355414               80.43911503                0.00010000                1.46804686                1.77769500               -5.57629217               -0.64439158               -0.50674204               -4.06974333
              29.35888722                8.05661512               80.01061698                0.39066231                1.57834465                1.60535336               -5.47984213               -0.21270069               -0.13840273               -4.40783126
              19.88460230               14.33099576               84.20722696                1.00000000                0.01752694                0.09104141               -0.26363874                0.00282398                0.00978575                0.52455774
              20.88477757               13.80436668               83.76130253                0.66431790               -0.03971307               -0.06487868                0.15465555               -0.02323295                0.03355832               -0.26462897
              21.88380804               13.27723121               83.31584089                0.00010000               -1.09066511               -0.20176220                0.55300387               -0.05579524                0.64880343               -0.88599340
              22.86296427               12.75003248               82.88214383                0.00010000               -1.89626766                0.51889799               -0.41731341               -0.34034720                0.93917801               -1.13497622
              23.84588269               12.22328612               82.44997753                0.00010000               -1.43114776                1.00064246               -1.42054604               -0.77855387                0.48084847               -1.34396049
              24.83434131               11.69518475               82.01681466                0.00010000               -0.79277279                1.27631657               -2.51028290               -1.14328582               -0.17100123               -1.57599295
              25.83002723               11.16642385               81.58165232                0.00010000               -0.06269412                1.51768123               -3.65575839               -1.28325064               -0.75798900               -1.83531182
              26.83308743               10.63878710               81.14509447                0.00010000                0.64084599                1.73785757               -4.75301456               -1.16474198               -1.07719810               -2.11382693
              27.84284415               10.11376043               80.70879113                0.00010000                1.23102583                1.89261480               -5.63935831               -0.83371168               -1.02161077               -2.39941969
              28.85770795                9.59214532               80.27475177                0.00010000                1.61067119                1.91979146               -6.11873448               -0.39959029               -0.60958624               -2.66574563
              29.87505758                9.07363724               79.84447518                0.39158410                1.73496270                1.77111212               -6.00093721               -0.10962466               -0.19902200               -2.87719541
              20.41205208               15.33189384               84.06792627                1.00000000                0.01750749                0.09033752               -0.27698753                0.00430985                0.02228572                0.43316910
              21.41222716               14.80375847               83.61813869                0.56632654               -0.03829318               -0.06077919                0.17063268               -0.01203949                0.19717204               -0.26016609
              22.41128622               14.27529333               83.17184848                0.00010000               -1.24190721               -0.19164951                0.55454782                0.47099116                0.97936706               -0.68248006
              23.38738901               13.75674067               82.73769295                0.00010000               -2.26503379                0.96859365               -0.45324993                0.22243587                1.23319423               -0.64365276
              24.36598554               13.23518299               82.30529401                0.00010000               -1.74701218                1.26834896               -1.51133645               -0.31934042                0.65414731               -0.69105590
              25.35244877               12.70938937               81.87113799                0.00010000               -0.95082904                1.49253537               -2.66496400               -0.63756108               -0.12000792               -0.79432665
              26.34696896               12.18278433               81.43443660                0.00010000               -0.14650250                1.70117861               -3.88370433               -0.70393239               -0.79421282               -0.91397660
              27.34951872               11.65706244               80.99598615                0.00010000                0.62624334                1.88860796               -5.05801774               -0.61869821               -1.16669701               -1.04367429
              28.35949383               11.13335952               80.55772630                0.00010000                1.28582182                2.01459913               -6.01344840               -0.42217850               -1.12373273               -1.17949836
              29.37523516               10.61194997               80.12202236                0.00010000                1.71085303                2.03280331               -6.53065110               -0.18750653               -0.68019765               -1.31082472
              30.39371089               10.09203736               79.69072490                0.39196846                1.84757341                1.89902455               -6.38175627               -0.01818962               -0.24452009               -1.41034832
              20.94095924               16.33280251               83.92698777                1.00000000                0.01780520                0.09086740               -0.28697995               -0.07442575                0.21164239                0.34907517
              21.94113729               15.80315110               83.47514130                0.73522143               -0.03567896               -0.06073699                0.17922987               -0.07920109                0.49676784               -0.24924434
              22.94024566               15.27339822               83.02901265                0.36504097               -1.68069849               -0.18951054                0.55471828                1.20860681                1.52763031               -0.61522630
              23.90752332               14.76940435               82.59787559                0.36200703               -2.66992406                1.26636806               -0.49085177                0.77617468                1.59224886               -0.23058951
              24.88684718               14.24865310               82.16594610                0.36086953               -1.67672821                1.34701067               -1.57159186               -0.13228137                0.81076980               -0.27597314
              25.87398876               13.72503545               81.73186089                0.36164912               -0.92858316                1.56460822               -2.75962833               -0.25628504               -0.05066662               -0.32484523
              26.86827552               13.20044742               81.29477074                0.36425467               -0.19252430                1.76630953               -4.02671162               -0.29315422               -0.80481208               -0.37600705
              27.87013827               12.67655926               80.85560818                0.36858188                0.56187646                1.94968236               -5.26215333               -0.25779529               -1.22572772               -0.42405042
              28.87951305               12.15405241               80.41653643                0.37545406                1.25708540                2.06928899               -6.28620671               -0.18597208               -1.19065808               -0.47307005
              29.89527998               11.63280139               79.98016790                0.38464227                1.75029834                2.08514148               -6.86927642               -0.11725160               -0.72165163               -0.52329883
              30.91451901               11.11161773               79.54852760                0.69620598                1.92390321                1.95803727               -6.72866437               -0.03755351               -0.26483083               -0.56271672
              16.12776387                6.46960008               86.31288982                1.00000000                0.03119032                0.08139553               -0.29841777                0.06799863               -0.46272951                0.47944966
              17.12807578                5.94834736               85.89800859                1.00000000               -0.03092010               -0.01114736                0.03256107                0.07506295               -0.61132283                0.06700477
              18.12714547                5.42668015               85.48009102                1.00000000               -0.14272478               -0.08671058                0.33961582                0.06893787               -0.66633460               -0.02742562
              19.12522128                4.90390939               85.06405560                0.69917940               -0.25485442               -0.19829734                0.66391797               -0.00134416               -0.59276589               -0.23120946
              20.12204838                4.37909897               84.64749752                0.57874228               -0.35316273               -0.32990312                0.98695489               -0.00396017               -0.39719809               -0.18959365
              21.11815803                3.85205688               84.23499899                0.38796653               -0.43176509               -0.49826601                1.40743469               -0.05726505                0.21439607               -0.37247829
              22.11341308                3.32159179               83.82978118                0.12172519                0.26336717               -0.72982304                1.77894028               -0.13234704                2.61601387               -0.63349150
              23.12342537                2.78626513               83.46388821                0.00010000                0.56350833               -1.33642829                0.54601228               -2.30033443                5.18534748               -2.32598668
              24.12468325                2.22237529               83.10892016                0.00010000                2.85799327               -2.19026293               -0.16647454                2.17256854                8.26377446               -0.54843131
              25.18058524                1.64324971               82.77538273                1.00000000                3.04000835                0.60311096               -2.00399696               -1.79586517                3.30567419               -0.10685509
              26.18548342                1.10377120               82.37611998                1.00000000                0.48981797                0.32943835               -1.25128927                0.13501123               -0.00979261               -0.04147602
              16.64969658                7.47041404               86.17342450                1.00000000                0.05897944                0.06760798               -0.30754231                0.01906216               -0.05064985                0.64329472
              17.65028637                6.94823589               85.75854231                1.00000000                0.01786308               -0.01996133                0.02549188                0.02786120               -0.03289815                0.09349204
              18.65005384                6.42581305               85.34387640                1.00000000               -0.06439711               -0.09592819                0.32617471               -0.00087137                0.04151872               -0.17051968
              19.64899843                5.90192642               84.93019308                0.93034929               -0.10594016               -0.23670921                0.64133537               -0.03521436                0.22981735               -0.14610411
              20.64793503                5.37579994               84.51876988                0.84556880               -0.13297308               -0.36861615                0.96978711               -0.05804279                0.52706264               -0.12477400
              21.64633897                4.84707422               84.10963956                0.68225831               -0.14747733               -0.54532532                1.41614727               -0.12860293                1.12124646               -0.24907664
              22.64498549                4.31429356               83.70743179                0.46587015                0.18456541               -0.81555346                2.00698909               -0.35928243                2.83161383               -0.44906792
              23.65003028                3.77290085               83.32671259                0.24818188                3.64655769               -1.40480614                1.79545458               -2.13572420                6.69057326               -1.34696295
              24.71791664                3.20047266               82.99211939                0.39329756                3.59491769               -1.19506258               -0.63855523                0.84262126                7.32241893               -0.30332366
              25.72192863                2.64928082               82.63882321                1.00000000                0.41976984                0.59133257               -1.90794285               -0.38927379                2.31656460               -0.13529812
              26.72631204                2.10706559               82.24002109                1.00000000                0.43834095                0.29424658               -1.01967050                0.00115571                0.02862666               -0.03758025
              17.17250141                8.47095224               86.03720192                1.00000000                0.07325835                0.04857275               -0.31071994                0.00001764                0.07335029                0.76080347
              18.17323399                7.94794814               85.61949007                1.00000000                0.04680559               -0.02589549                0.02643194               -0.01133350                0.22148723                0.05661657
              19.17343752                7.42476159               85.20456349                0.00010000                0.06480532               -0.09313044                0.33552061               -0.16607463                0.79055642               -0.57427826
              20.17453010                6.89917521               84.79780390                0.00010000                0.11511005               -0.70060418                0.60819619               -0.67605591                1.27612925               -1.21009608
              21.17573972                6.37172665               84.39122253                0.00010000                0.12811258               -1.02048284                0.91073559               -0.94925669                1.50090581               -1.83209600
              22.17709235                5.84115038               83.98673997                0.00010000                0.23305446               -1.34054448                1.30806095               -1.15402120                2.16677910               -2.49462069
              23.18040081                5.30528072               83.58938229                0.00010000                0.87197174               -1.72490488                1.76478467               -1.46547163                3.84387102               -3.32801538
              24.19453178                4.75816901               83.21082765                0.00010000                4.23774439               -2.24250907                1.33657886               -2.04170664                6.39422851               -4.60129199
              25.26515570                4.19847404               82.86046717                0.00010000                3.58375268               -0.91880624                0.87297135               -4.74004264                6.79428036               -5.35333625
              26.26620684                3.65507637               82.50236363                0.00010000                0.23906532                0.22445976               -1.75986419               -3.18249500                2.04943577               -7.29305433
              27.26993700                3.10965613               82.10406517                0.38427260                0.37301661                1.52946736               -0.77623021               -3.11011068                0.03611877               -7.39861634
              17.69570513                9.47138549               85.90009554                1.00000000                0.05452187                0.04826170               -0.29740536               -0.01867540                0.15316417                0.65015443
              18.69625035                8.94771798               85.47920537                0.62944048               -0.00999282               -0.01927216                0.04526113               -0.04475275                0.24617343               -0.17416536
              19.69550528                8.42395044               85.06006442                0.00010000               -0.38690527               -0.11621520                0.36495749               -0.70209322                0.42222456               -0.99983031
              20.68851225                7.88791433               84.64261063                0.00010000               -0.42652744               -0.86147784                0.31413449               -1.74199844                0.60852024               -2.36094594
              21.68697473                7.35539029               84.22826240                0.00010000                0.05961118               -1.32589491                0.24187467               -2.04950342                0.81893288               -3.55629727
              22.68970447                6.82026333               83.81657332                0.00010000                0.58413481               -1.67180230                0.07904672               -2.51928188                1.07910849               -4.77606922
              23.69865743                6.27979546               83.40981159                0.00010000                1.31491764               -1.94382170               -0.30677600               -3.23310372                1.42938847               -6.13871780
              24.71600282                5.72805067               83.01029689                0.00010000                1.37755028               -1.73529181               -0.87141364               -3.78850498                1.41302770               -7.77017377
              25.72620843                5.18209654               82.61360600                0.00010000                1.55469064               -0.68308635               -1.69502530               -5.56359626                1.51097142               -9.91253054
              26.74709664                4.65377002               82.22262491                0.00010000                1.43709279                0.13005288               -2.07994679               -3.58597969                1.49081551              -12.59719606
              27.75495029                4.13765493               81.82063229                0.38469292                0.78536502                1.87693247               -2.12662143               -2.55908580                1.03915840              -14.09982038
              18.21946292               10.47191747               85.76165516                1.00000000                0.03110702                0.06489559               -0.27575992               -0.00762546                0.01191530                0.54043164
              19.21977399                9.94756270               85.33544324                0.55408540               -0.01318080               -0.03607847                0.09642598               -0.05985762                0.14849307               -0.31981331
              20.21919930                9.42243728               84.91191782                0.00010000               -0.57618547               -0.18153117                0.39596995               -0.86316313                0.22705813               -1.24043469
              21.20825028                8.88194565               84.48718496                0.00010000               -0.83993266               -0.44287569                0.09299419               -1.81012847                0.12859081               -2.31435838
              22.20240065                8.34520875               84.06501578                0.00010000               -0.29743736               -0.70903318               -0.28197146               -2.07651032                0.07360355               -3.39329157
              23.20230153                7.80771433               83.64433762                0.00010000                0.27753765               -0.82933032               -0.80734791               -2.67129900               -0.10279199               -4.52509227
              24.20795140                7.26640429               83.22539023                0.00010000                0.70795382               -0.72605510               -1.48322721               -3.35528525               -0.29790063               -5.74119176
              25.21646061                6.72346317               82.80860667                0.00010000                1.01065081               -0.03084618               -2.28201733               -3.80620064               -0.33425736               -7.02918471
              26.22816442                6.18481232               82.39488558                0.00010000                1.12341202                0.60199767               -3.00545456               -3.06609271               -0.11892537               -8.34416829
              27.23892885                5.65767742               81.98272281                0.00010000                1.14105193                0.78880912               -3.44691948               -2.08654959                0.09525027              -10.03315088
              28.25098546                5.14719478               81.56851819                0.38497908                1.20566084                0.88480852               -3.36352197               -0.94413274                0.37069445              -11.31672491
              18.74426218               11.47268340               85.62230454                1.00000000                0.02712062                0.08200332               -0.25576632               -0.01004683                0.00160619                0.50256496
              19.74453339               10.94699641               85.19208535                0.57504929               -0.02015617               -0.06508055                0.11542459               -0.06365238                0.03123536               -0.28954728
              20.74385906               10.42031981               84.76242184                0.00010000               -0.74975906               -0.21770226                0.45660960               -0.84997323                0.02435176               -1.20846950
              21.72953821                9.87905682               84.33193006                0.00010000               -1.20916106               -0.16480341               -0.06316648               -1.74995864               -0.20410863               -2.15505258
              22.71967584                9.34120962               83.90275827                0.00010000               -0.72276275               -0.14207791               -0.66104733               -1.97097938               -0.50913645               -3.05993053
              23.71508295                8.80367673               83.47362592                0.00010000               -0.19364798               -0.03917967               -1.41881214               -2.44591171               -0.94892138               -4.00122599
              24.71580288                8.26527436               83.04419663                0.00010000                0.31939153                0.26613855               -2.32830037               -2.89632951               -1.32002008               -4.99576419
              25.72147079                7.72743374               82.61532510                0.00010000                0.74347222                0.72841096               -3.28763480               -2.90819524               -1.41483502               -6.03473860
              26.73067232                7.19413649               82.18842907                0.00010000                1.07561954                1.17523904               -4.13530247               -2.37846578               -1.14483190               -7.14550747
              27.74298318                6.66954620               81.76458653                0.00010000                1.31802926                1.36182409               -4.65327654               -1.27213559               -0.60308421               -8.23203576
              28.75703291                6.15535110               81.34351098                0.38549674                1.40497341                1.06229483               -4.63599346               -0.51786221               -0.10303381               -8.99329837
              19.27063597               12.47355754               85.48301129                1.00000000                0.02285656                0.09012729               -0.24938733               -0.00634137               -0.00248956                0.51292987
              20.27086453               11.94626108               85.04883444                0.61562781               -0.02482667               -0.07354339                0.12580277               -0.05390449                0.00207208               -0.27163560
              21.27013943               11.41808324               84.61472493                0.00010000               -0.92516157               -0.21979452                0.48498304               -0.66673443               -0.10915604               -1.06846341
              22.25236130               10.87864958               84.17816843                0.00010000               -1.58891391                0.07870013               -0.16580332               -1.41819073               -0.46746798               -1.87836827
              23.23836115               10.34236720               83.74313058                0.00010000               -1.15213702                0.33339783               -0.92279061               -1.63321326               -0.88301596               -2.59110682
              24.22931856                9.80693074               83.30710264                0.00010000               -0.60466775                0.59642850               -1.85753503               -2.00457693               -1.48359045               -3.32276180
              25.22626780                9.27172706               82.86957389                0.00010000                0.00580077                0.91872382               -2.94442823               -2.26700616               -1.97504934               -4.09846995
              26.22943457                8.73803139               82.43171695                0.00010000                0.61074233                1.28928088               -4.07174802               -2.20005053               -2.11808287               -4.91399215
              27.23848264                8.20831710               81.99579278                0.00010000                1.14184764                1.59627904               -5.05565006               -1.69212148               -1.78951696               -5.73993451
              28.25227153                7.68491391               81.56425677                0.00010000                1.52678816                1.69630119               -5.67273873               -0.88250986               -1.02391674               -6.48767700
              29.26901841                7.16844068               81.13899659                0.38622147                1.67468813                1.50932064               -5.70122651               -0.30415228               -0.34047293               -6.98380621
              19.79872827               13.47448595               85.34380586                1.00000000                0.02013313                0.09257029               -0.25133603               -0.00252466               -0.00164116                0.51816910
              20.79892960               12.94552554               84.90574575                0.65471918               -0.02961978               -0.06920588                0.13323848               -0.03693618                0.00675069               -0.25083442
              21.79813588               12.41592392               84.46783886                0.00010000               -1.10195817               -0.20887869                0.50343354               -0.36267261               -0.13230758               -1.00136557
              22.77689044               11.88063082               84.02684537                0.00010000               -1.97027291                0.32018453               -0.22941653               -0.86922347               -0.56145935               -1.52963968
              23.75873042               11.34787758               83.58747008                0.00010000               -1.56294444                0.74447014               -1.09582834               -1.13249603               -1.06283780               -2.02852437
              24.74563155               10.81560530               83.14637335                0.00010000               -0.96841563                1.07788384               -2.16131843               -1.48873326               -1.79128339               -2.54680438
              25.73936211               10.28364884               82.70293042                0.00010000               -0.23759057                1.38177021               -3.39248206               -1.68456855               -2.38886188               -3.10559618
              26.74087974                9.75321936               82.25862955                0.00010000                0.52926379                1.67675871               -4.66258633               -1.58799334               -2.57898191               -3.69354938
              27.74994738                9.22606207               81.81642320                0.00010000                1.21648276                1.90367845               -5.77088831               -1.18997579               -2.20752382               -4.27113306
              28.76520939                8.70347223               81.37982639                0.00010000                1.69744663                1.97858879               -6.47175774               -0.60066758               -1.28061725               -4.76152452
              29.78389631                8.18553752               80.95184038                0.38676942                1.86869191                1.85367080               -6.51573981               -0.19677950               -0.48414742               -5.06937872
              20.32850628               14.47540895               85.20460288                1.00000000                0.01815504                0.09023409               -0.25765165                0.00155490                0.00817077                0.50649036
              21.32868783               13.94487697               84.76280590                0.70615879               -0.03627898               -0.06058336                0.14217963               -0.02155647                0.02225882               -0.24062165
              22.32778070               13.41390567               84.32128163                0.00010000               -1.28323287               -0.19266150                0.52348769                0.05702249               -0.01475765               -0.84353667
              23.30302317               12.88505327               83.87858999                0.00010000               -2.35219727                0.60378623               -0.26094765               -0.14503908               -0.43727073               -1.12649391
              24.28073676               12.35725660               83.43665527                0.00010000               -1.96252705                1.13520090               -1.19614195               -0.61092201               -1.07616051               -1.39685837
              25.26377263               11.82848841               82.99231268                0.00010000               -1.28871955                1.43264210               -2.35447098               -1.00120761               -1.93642864               -1.71057794
              26.25496237               11.29936246               82.54490371                0.00010000               -0.42555806                1.69250916               -3.69620449               -1.16223466               -2.64126970               -2.06356262
              27.25526147               10.77156656               82.09621724                0.00010000                0.47339496                1.93458444               -5.08285359               -1.07052180               -2.88680727               -2.43597782
              28.26443026               10.24639067               81.64977614                0.00010000                1.27606300                2.11828768               -6.29412815               -0.77442993               -2.49429754               -2.79520247
              29.28078273                9.72448568               81.20987410                0.00010000                1.82609850                2.18360379               -7.05677137               -0.37456913               -1.45683966               -3.08247081
              30.30095223                9.20551410               80.78027683                0.38707387                2.01695020                2.08703537               -7.09228348               -0.10127523               -0.58368159               -3.21959159
              20.85982333               15.47629063               85.06518727                1.00000000                0.01784242                0.08797690               -0.26783026                0.00378189                0.02583643                0.41276675
              21.86000175               14.94431388               84.61980571                0.60340987               -0.03616548               -0.05626860                0.15806160               -0.00977193                0.17058559               -0.23286053
              22.85910002               14.41207069               84.17731176                0.00010000               -1.46815144               -0.18018326                0.52560692                0.62184563                0.27518594               -0.64419772
              23.83063873               13.89270655               83.73390962                0.00010000               -2.80115933                1.10587144               -0.26572906                0.40213662               -0.19522400               -0.62552228
              24.80307683               13.37058160               83.29127304                0.00010000               -2.35685972                1.41349711               -1.23650180               -0.20163992               -0.97431767               -0.70827346
              25.78350153               12.84425814               82.84531736                0.00010000               -1.50187861                1.64781454               -2.45401552               -0.55528472               -1.98177471               -0.85375959
              26.77303926               12.31749902               82.39560640                0.00010000               -0.55302144                1.87740127               -3.87616736               -0.63707626               -2.79915330               -1.02070963
              27.77244110               11.79191105               81.94418891                0.00010000                0.42502021                2.09743123               -5.35614819               -0.57005229               -3.11331594               -1.19679380
              28.78153967               11.26842783               81.49501283                0.00010000                1.30767387                2.26416935               -6.65743836               -0.39686679               -2.72521867               -1.36608221
              29.79859458               10.74714430               81.05299614                0.00010000                1.91371553                2.32592120               -7.47570484               -0.18093984               -1.60798436               -1.49619254
              30.81981398               10.22727822               80.62268793                0.38764554                2.12193967                2.23639055               -7.48214363               -0.01804366               -0.67380489               -1.50604915
              21.39253543               16.47716849               84.92416243                1.00000000                0.01769030                0.08778542               -0.27583100               -0.07047938                0.20556516                0.32844167
              22.39271233               15.94375159               84.47690225                0.75186726               -0.03552410               -0.05622823                0.16724782               -0.07226668                0.44726959               -0.22203890
              23.39182494               15.41030200               84.03447215                0.36434336               -2.00786630               -0.17686935                0.52488520                1.44344770                0.78420258               -0.57244850
              24.35255500               14.90717070               83.59389531                0.36176086               -3.33362904                1.44641539               -0.25874539                0.95285478                0.14241616               -0.22534651
              25.32515236               14.38552654               83.15157341                0.36097664               -2.34027449                1.49449427               -1.23362251               -0.07874674               -0.85228586               -0.28906231
              26.30574951               13.86144471               82.70536597                0.36162159               -1.52922165                1.71865653               -2.47948619               -0.20600424               -1.98178933               -0.35343555
              27.29456793               13.33691049               82.25475461                0.36359785               -0.64089465                1.94114677               -3.95596477               -0.24360890               -2.91662674               -0.41656077
              28.29293162               12.81351519               81.80194653                0.36737526                0.33458730                2.16041401               -5.51236299               -0.21277006               -3.31147921               -0.47175507
              29.30125968               12.29167405               81.35118055                0.37338357                1.26909589                2.32462244               -6.90345860               -0.15355313               -2.95129469               -0.51805332
              30.31831354               11.77100410               80.90774104                0.38131550                1.95319185                2.38598041               -7.81063013               -0.09971133               -1.78643031               -0.54652834
              31.34032351               11.25024191               80.47698117                0.69395026                2.20099753                2.29636834               -7.83194484               -0.02526597               -0.80516842               -0.48657396
              16.53621724                6.61390460               87.30985384                1.00000000                0.03122065                0.07923035               -0.29235600                0.06530721               -0.48669351                0.47862923
              17.53652945                6.08852078               86.89823690                1.00000000               -0.02944059               -0.00694852                0.02039255                0.07221273               -0.65417442                0.06746217
              18.53562843                5.56265805               86.48333676                1.00000000               -0.13694580               -0.07476337                0.30981981                0.06461388               -0.71156388               -0.03448898
              19.53379053                5.03553033               86.07051216                0.69833318               -0.23540215               -0.18347329                0.61851478               -0.00754572               -0.62642819               -0.24222187
              20.53092038                4.50611443               85.65709854                0.59890115               -0.30180673               -0.31620211                0.90871047                0.00288787               -0.36615815               -0.17646522
              21.52775440                3.97412880               85.24880740                0.45098004               -0.33047400               -0.48222369                1.29040996               -0.01059798                0.34562078               -0.29274549
              22.52431090                3.43829331               84.84798185                0.25500922               -0.00000296               -0.69963301                1.70423181                0.00827169                2.12633913               -0.36429327
              23.52775434                2.89564281               84.47163399                0.07447733                2.60648621               -0.81670791                0.93482511               -0.79458215                4.06628864               -1.22349727
              24.57644063                2.32643268               84.11332402                0.25165843                2.40613235                0.45058167               -0.05540198               -2.51112810                6.12343198               -1.19261042
              25.57587698                1.77792221               83.75613203                1.00000000                0.20443140                0.54430317               -1.81628626               -0.29444668                1.73373185               -0.21625645
              26.58052926                1.23863426               83.36387371                1.00000000                0.46522738                0.34057672               -1.24898762                0.11723905               -0.05076578                0.02821821
              17.06225413                7.61469690               87.17029174                1.00000000                0.06207169                0.06544606               -0.30364606                0.01910979               -0.07785059                0.63799267
              18.06287485                7.08845129               86.75869074                1.00000000                0.02578281               -0.01604145                0.01025527                0.02781670               -0.08683407                0.09500594
              19.06276979                6.56191041               86.34694338                1.00000000               -0.04439850               -0.08418903                0.28627343               -0.00609017               -0.03005431               -0.16496344
              20.06198688                6.03369560               85.93630855                0.94965194               -0.05598804               -0.22411965                0.57072556               -0.03857482                0.16218908               -0.15643465
              21.06165003                5.50295241               85.52795113                0.88089510               -0.02139525               -0.35257527                0.84210782               -0.05521674                0.50370937               -0.11376345
              22.06155898                4.96930656               85.12303408                0.76263407                0.09932953               -0.52809845                1.20335965               -0.09247124                1.19201856               -0.19270508
              23.06363662                4.43129698               84.72604951                0.62163742                0.70899273               -0.78192459                1.58379068               -0.07470234                2.64555818               -0.27106640
              24.07573883                3.88747573               84.34546361                0.49961986                2.32765140               -1.10469051                1.39782345               -0.28854724                4.61321581               -0.72077995
              25.11018965                3.33093850               83.98347037                0.69523280                2.05464480                0.08206126               -0.66660386               -1.32267735                2.78502377               -0.01983163
              26.11683173                2.78336524               83.61969826                1.00000000                0.53999736                0.54102762               -1.76742736               -0.24500332                1.45893825               -0.24885816
              27.12098959                2.24204003               83.22999907                1.00000000                0.41578684                0.30906492               -1.04242206                0.01189410                0.14292779                0.05729577
              17.58909066                8.61521352               87.03403299                1.00000000                0.07816149                0.04761374               -0.30947534               -0.00193933                0.04192865                0.76492180
              18.58987227                8.08819995               86.61964470                1.00000000                0.05858309               -0.02196614                0.00889295               -0.01498893                0.16449821                0.07154182
              19.59026232                7.56097426               86.20771574                0.00010000                0.10523824               -0.07931436                0.29174300               -0.18963380                0.68295588               -0.54021904
              20.59197704                7.03104794               85.80345463                0.00010000                0.19713832               -0.68978983                0.51110437               -0.77246773                1.12503748               -1.31496727
              21.59420508                6.49906292               85.39954398                0.00010000                0.27916816               -0.97444033                0.73534136               -1.16520210                1.34816902               -2.07464800
              22.59756040                5.96356683               84.99846280                0.00010000                0.52213054               -1.23375580                1.00237353               -1.54776198                1.97154543               -2.93818211
              23.60464770                5.42265482               84.60445893                0.00010000                1.23907379               -1.50181020                1.20351536               -2.02563640                3.10738170               -3.99667264
              24.62234188                4.87354900               84.22248468                0.00010000                2.47249370               -1.65686280                0.82303582               -2.32247931                4.21595219               -5.22427843
              25.65409757                4.32807390               83.85369200                0.00010000                1.87667551               -0.75299406               -0.56469315               -2.95630653                1.88756700               -6.26737327
              26.65987539                3.78874276               83.48428476                0.00010000                0.46599961                0.02308319               -1.61293247               -2.33635209                1.07680109               -7.75288141
              27.66341756                3.24481556               83.09638068                0.38040847                0.35421763                1.03751568               -0.83985259               -2.24208233                0.14252793               -8.14702314
              18.11624249                9.61564918               86.89707015                1.00000000                0.05718367                0.04994719               -0.29645690               -0.02305408                0.12232211                0.66885275
              19.11681433                9.08801197               86.47955881                0.65752472               -0.00566837               -0.01387756                0.02733559               -0.04874599                0.19792595               -0.13422110
              20.11612912                8.56032412               86.06357563                0.00010000               -0.41827311               -0.10445244                0.33001165               -0.73285542                0.18616054               -0.95634419
              21.10844887                8.01989980               85.64566371                0.00010000               -0.51510151               -0.82920920                0.31341998               -1.89493986                0.13501724               -2.51182616
              22.10582709                7.48346360               85.23044906                0.00010000               -0.07185118               -1.22443340                0.22162714               -2.36500635                0.18227585               -3.96325980
              23.10701184                6.94463145               84.81664767                0.00010000                0.36573171               -1.44993591               -0.03084391               -3.06946529                0.15965337               -5.54085048
              24.11314173                6.40126078               84.40548493                0.00010000                0.84291576               -1.50428355               -0.51471352               -3.75967122                0.17446673               -7.34302443
              25.12387016                5.85433847               83.99894072                0.00010000                1.13640124               -1.13589298               -1.22822940               -4.10015228                0.12942501               -9.12813306
              26.13586975                5.31587862               83.59822909                0.00010000                1.47464364               -0.72546987               -1.82618917               -4.39545182                0.58424350              -11.45250465
              27.15336303                4.78382690               83.20041609                0.00010000                1.40662985               -0.17873362               -2.49642814               -3.10258363                0.24749358              -14.16177983
              28.16400235                4.26279034               82.79776848                0.38095093                1.06393194                1.26486950               -2.60757204               -1.94953722                0.36728318              -15.95945221
              18.64390399               10.61621246               86.75886769                1.00000000                0.03184141                0.06874256               -0.27301263               -0.01058707                0.01032759                0.56487371
              19.64422240               10.08792240               86.33631970                0.59181500               -0.00933068               -0.03023655                0.07800595               -0.06260579                0.10825873               -0.28334391
              20.64371738                9.55888522               85.91574753                0.00010000               -0.66418222               -0.17315635                0.36165140               -0.86421964               -0.12643827               -1.18779137
              21.63093876                9.01446375               85.48833282                0.00010000               -1.07720330               -0.37878014                0.16718792               -1.87336519               -0.59070127               -2.39599519
              22.62217331                8.47457426               85.06244226                0.00010000               -0.62824206               -0.57350923               -0.18496280               -2.21762087               -0.86690659               -3.66949525
              23.61837392                7.93456811               84.63618131                0.00010000               -0.12130316               -0.59437495               -0.77700981               -2.84375269               -1.31057304               -5.05989016
              24.61974725                7.39256915               84.20975040                0.00010000                0.36735355               -0.38851688               -1.60800984               -3.40188297               -1.70093762               -6.54813646
              25.62572099                6.85083114               83.78444453                0.00010000                0.84764263                0.05591815               -2.56768452               -3.53520024               -1.72664934               -8.15391955
              26.63670010                6.31356451               83.36251497                0.00010000                1.25954980                0.28750579               -3.49348531               -2.98174561               -1.34020409               -9.92458529
              27.65091199                5.78516809               82.94554065                0.00010000                1.48999199                0.57406455               -4.15133784               -1.98879137               -0.60364485              -11.78863470
              28.66649994                5.27011295               82.53159863                0.38132564                1.55879539                0.79608515               -4.23593468               -0.93207101               -0.03087776              -13.23304775
              19.17261088               11.61702403               86.61974127                1.00000000                0.02785766                0.08542188               -0.25039200               -0.01256241               -0.00039414                0.51879450
              20.17288946               11.08740724               86.19315634                0.61511620               -0.01537552               -0.05951384                0.09715370               -0.06327981                0.01269014               -0.27298506
              21.17230337               10.55686100               85.76684299                0.00010000               -0.87984698               -0.20641596                0.41823471               -0.81575410               -0.40274196               -1.15719024
              22.15529252               10.01232420               85.33174800                0.00010000               -1.54665285               -0.08940530                0.06597471               -1.71820290               -1.11482965               -2.19108421
              23.14137032                9.47199342               84.89676324                0.00010000               -1.15753118               -0.00665750               -0.48004393               -1.95335559               -1.65451251               -3.24433545
              24.13214190                8.93274395               84.45969295                0.00010000               -0.62646353                0.15230259               -1.31619637               -2.41810496               -2.37165047               -4.39383683
              25.12884105                8.39349044               84.02037657                0.00010000                0.00144474                0.44588550               -2.41542653               -2.79286964               -2.92433974               -5.65533800
              26.13217079                7.85545683               83.58080123                0.00010000                0.65284214                0.81151422               -3.65073683               -2.77620274               -3.02030920               -6.99460485
              27.14189789                7.32162873               83.14425224                0.00010000                1.24339844                1.14186421               -4.81511401               -2.27223467               -2.48256126               -8.39289513
              28.15703876                6.79530819               82.71403188                0.00010000                1.67866587                1.32149684               -5.63731758               -1.29035745               -1.39032592               -9.74055068
              29.17547121                6.27871204               82.29253684                0.38167499                1.84324450                1.17058512               -5.81225887               -0.52739035               -0.43746207              -10.65360019
              19.70288632               12.61792090               86.48053320                1.00000000                0.02335173                0.09103865               -0.24127446               -0.00818055               -0.00395871                0.51603740
              20.70311984               12.08673212               86.05001224                0.65519541               -0.02004941               -0.06696680                0.10793045               -0.05120920               -0.00822816               -0.25801428
              21.70248533               11.55475690               85.61941285                0.00010000               -1.08387792               -0.20582150                0.44477715               -0.60188447               -0.58591991               -1.03362255
              22.68144228               11.01267565               85.17714221                0.00010000               -1.98994427                0.15120788                0.00525448               -1.31089280               -1.50445607               -1.88579541
              23.66268645               10.47444111               84.73478616                0.00010000               -1.64637413                0.45407716               -0.68108849               -1.52538229               -2.18565721               -2.71120687
              24.64851480                9.93761417               84.28902571                0.00010000               -1.07547396                0.74864800               -1.70319772               -1.89649685               -3.08764595               -3.61620470
              25.64117697                9.40148686               83.83965669                0.00010000               -0.32280780                1.07492580               -3.02377222               -2.15954475               -3.78388321               -4.61375606
              26.64205864                8.86706142               83.38912668                0.00010000                0.51135383                1.42385894               -4.49454124               -2.10890668               -3.92053224               -5.68042907
              27.65140405                8.33640179               82.94176734                0.00010000                1.29814405                1.72362341               -5.87532236               -1.65911607               -3.29665378               -6.75148161
              28.66802152                7.81159802               82.50265182                0.00010000                1.88701929                1.86990636               -6.86036840               -0.89208256               -1.90572520               -7.68663129
              29.68914443                7.29352465               82.07629193                0.38235463                2.11229086                1.76176285               -7.12083962               -0.32208302               -0.73639536               -8.26457623
              20.23482484               13.61884480               86.34132592                1.00000000                0.02044460                0.09116296               -0.24078342               -0.00402144               -0.00326389                0.51207379
              21.23502928               13.08606790               85.90699865                0.69507781               -0.02513398               -0.06189129                0.11544705               -0.03380366               -0.00290290               -0.23470501
              22.23432216               12.55274457               85.47268231                0.00010000               -1.28194134               -0.19346596                0.46000995               -0.27380460               -0.64442216               -0.96293233
              23.20939045               12.01534836               85.02534046                0.00010000               -2.41990012                0.38813503               -0.02251901               -0.71333392               -1.68273864               -1.51868554
              24.18592415               11.48107496               84.57762932                0.00010000               -2.11121227                0.85524450               -0.80084738               -0.98405539               -2.48342867               -2.09998170
              25.16716621               10.94771691               84.12546946                0.00010000               -1.48606289                1.22075032               -1.96023683               -1.36182498               -3.54581984               -2.75039590
              26.15620290               10.41498895               83.66861954                0.00010000               -0.60442426                1.54948822               -3.45416479               -1.58312922               -4.37071743               -3.47915001
              27.15507772                9.88393401               83.21001344                0.00010000                0.39880338                1.87233816               -5.11498287               -1.52337734               -4.55971997               -4.25427106
              28.16417896                9.35610120               82.75491092                0.00010000                1.34982628                2.14324787               -6.67372700               -1.16652012               -3.86725600               -5.00506876
              29.18207425                8.83270632               82.30967988                0.00010000                2.04986638                2.28640631               -7.79108345               -0.60524767               -2.25748352               -5.61256615
              30.20517629                8.31394730               81.88030218                0.38293610                2.31020411                2.24366012               -8.10302362               -0.20419925               -0.92550027               -5.92846491
              20.76835969               14.61974416               86.20207393                1.00000000                0.01843095                0.08724121               -0.24498055                0.00036843                0.00594472                0.49355395
              21.76854400               14.08549429               85.76414612                0.74682416               -0.03154517               -0.05314970                0.12360931               -0.01857438                0.01060608               -0.21759013
              22.76772879               13.55088758               85.32631065                0.00010000               -1.48493963               -0.17628584                0.47629697                0.16539636               -0.55240435               -0.80496920
              23.73884521               13.02043835               84.87692488                0.00010000               -2.85459998                0.67882759               -0.01798339                0.03956113               -1.61211486               -1.10206947
              24.71063679               12.49154600               84.42605469                0.00010000               -2.57404516                1.25122133               -0.84499781               -0.46209404               -2.57939600               -1.42951891
              25.68736431               11.96202917               83.96972524                0.00010000               -1.86697536                1.57719933               -2.09630117               -0.88778330               -3.80804413               -1.83341274
              26.67329728               11.43247662               83.50772823                0.00010000               -0.84427271                1.87651418               -3.71849117               -1.08047666               -4.77008239               -2.29844152
              27.67047885               10.90450818               83.04343740                0.00010000                0.30020270                2.17316273               -5.52718561               -1.02208134               -5.02672791               -2.79128048
              28.67930134               10.37926675               82.58290857                0.00010000                1.37958084                2.42661349               -7.22664957               -0.75893883               -4.29565160               -3.25488265
              29.69807047                9.85732615               82.13361635                0.00010000                2.16385756                2.57264307               -8.44027033               -0.37713894               -2.51897639               -3.58987538
              30.72257849                9.33839785               81.70262952                0.38321076                2.45080188                2.56323693               -8.76637848               -0.10908349               -1.07114624               -3.66530009
              21.30333194               15.62058963               86.06256966                1.00000000                0.01824407                0.08384336               -0.25313957                0.00308949                0.02832730                0.39658812
              22.30351438               15.08500491               85.62129992                0.63843591               -0.03229541               -0.04885222                0.13777169               -0.00709072                0.14524131               -0.20740816
              23.30268603               14.54921885               85.18236062                0.00010000               -1.69955597               -0.16295503                0.47798425                0.75639286               -0.28160303               -0.61027013
              24.26952326               14.02892491               84.73237837                0.00010000               -3.37972894                1.22438442                0.02003379                0.56528587               -1.38529603               -0.59855005
              25.23509145               13.50609939               84.28056397                0.00010000               -3.05216701                1.53625589               -0.81525365               -0.09849963               -2.52330254               -0.71871318
              26.20847992               12.97926090               83.82205768                0.00010000               -2.14885496                1.79201799               -2.11886906               -0.48863391               -3.94110607               -0.90952412
              27.19211435               12.45251924               83.35691326                0.00010000               -1.03169738                2.06715859               -3.83072076               -0.58992476               -5.05684520               -1.13068147
              28.18784597               11.92739727               82.88886319                0.00010000                0.20339348                2.35503631               -5.75460506               -0.54409397               -5.40936736               -1.36374458
              29.19618222               11.40463347               82.42457753                0.00010000                1.37771980                2.60445757               -7.57264719               -0.39233892               -4.67912043               -1.57902791
              30.21540037               10.88415918               81.97250826                0.00010000                2.23344970                2.75274369               -8.86751617               -0.18705682               -2.76722261               -1.71780183
              31.24085121               10.36521204               81.54108202                0.38370297                2.54508478                2.74509663               -9.17205524               -0.02686874               -1.21624935               -1.62855168
              21.83959092               16.62142103               85.92147115                1.00000000                0.01820463                0.08314022               -0.26056668               -0.06447978                0.20083886                0.31152586
              22.83977296               16.08451725               85.47848625                0.76774031               -0.03271353               -0.04876583                0.14565025               -0.06376901                0.40204929               -0.19746362
              23.83893665               15.54762848               85.03951035                0.36371825               -2.32512870               -0.15903735                0.47582263                1.64550111                0.21820069               -0.53564819
              24.79327039               15.04492604               84.59270068                0.36177069               -4.03029184                1.60011291                0.09295962                1.10684499               -1.00842658               -0.23275505
              25.75833081               14.52227111               84.14127365                0.36108721               -3.10493060                1.61717267               -0.71820631               -0.02888932               -2.40569526               -0.31601926
              26.73117178               13.99786953               83.68227117                0.36137984               -2.24841971                1.86086362               -2.03993029               -0.15338011               -4.00568758               -0.39482192
              27.71336242               13.47381979               83.21565144                0.36316644               -1.18445177                2.13005555               -3.81267505               -0.18822462               -5.29844723               -0.46819905
              28.70748274               12.95160891               82.74536092                0.36654488                0.06651135                2.42116428               -5.83212682               -0.15951753               -5.78023678               -0.52889516
              29.71469264               12.43135590               82.27846726                0.37122011                1.31340097                2.67224316               -7.76704820               -0.11035207               -5.10797406               -0.57018821
              30.73375076               11.91238102               81.82395529                0.37813572                2.26213776                2.82218416               -9.18059579               -0.06776624               -3.12257410               -0.57200345
              31.75993540               11.39329979               81.39188870                0.69207737                2.61846366                2.80877465               -9.50999092                0.00029457               -1.49339000               -0.38546490
              16.94126388                6.75829688               88.30704270                1.00000000                0.02454908                0.06978591               -0.25464038                0.05697257               -0.50628572                0.47458826
              17.94150937                6.22878893               87.89841644                1.00000000               -0.03124705               -0.00607232                0.02285963                0.06288037               -0.69072057                0.06692496
              18.94063894                5.69877714               87.48628742                1.00000000               -0.12892190               -0.06423435                0.28251491                0.05376175               -0.74886842               -0.04416194
              19.93893093                5.16747217               87.07642589                0.69716112               -0.21044830               -0.16169172                0.55832687               -0.01527944               -0.66530164               -0.26040655
              20.93642997                4.63386450               86.66567173                0.62000486               -0.23719025               -0.27852579                0.79207081               -0.00080580               -0.38599785               -0.17759048
              21.93418713                4.09774862               86.26080719                0.51476989               -0.16583470               -0.41838920                1.07460687                0.00468858                0.37161638               -0.25073516
              22.93311328                3.55817062               85.86386581                0.38714950                0.26109247               -0.57754619                1.33849913                0.05475122                1.70721799               -0.32585717
              23.93940898                3.01413595               85.48258471                0.29293043                1.47702799               -0.65013879                0.81103173               -0.45053582                2.84680756               -0.75377866
              24.96265384                2.45823039               85.10781212                0.51535193                1.26506028                0.14776574               -0.41615829               -1.44432880                1.42272193                0.19537295
              25.96471018                1.91179213               84.73905701                1.00000000                0.31654574                0.43588026               -1.57142621               -0.32042668                0.93695894               -0.23984206
              26.96898476                1.37208484               84.35114023                1.00000000                0.42745706                0.36196838               -1.30417030               -0.01230648               -0.05841854                0.02768449
              17.47134155                7.75899474               88.16735158                1.00000000                0.05564943                0.05876930               -0.26983153                0.01598108               -0.10504531                0.62998053
              18.47189805                7.22872821               87.75874741                1.00000000                0.02466941               -0.01390124                0.00777432                0.02359429               -0.14299014                0.09574967
              19.47183494                6.69813479               87.34960187                1.00000000               -0.03317944               -0.07260901                0.24816872               -0.01125974               -0.11365467               -0.16098901
              20.47123446                6.16585525               86.94160759                0.97365752               -0.02756256               -0.19757309                0.48588405               -0.03919362                0.05362485               -0.17462034
              21.47128369                5.63107924               86.53561204                0.92183060                0.04232484               -0.30643676                0.68703897               -0.05127828                0.36850719               -0.10989803
              22.47208096                5.09356473               86.13370675                0.84764527                0.20917184               -0.44877343                0.92348817               -0.06314577                0.96850179               -0.15581612
              23.47546713                4.55239515               85.73910761                0.77819978                0.63963893               -0.61293833                1.05458018               -0.02584393                1.84556740               -0.21267848
              24.48487373                4.00763456               85.35466905                0.74371594                1.19576667               -0.69648138                0.67696160               -0.12391648                2.38935341               -0.48861611
              25.49938246                3.45970805               84.97878732                0.97711419                0.98524784                0.00687340               -0.37962957               -0.65152580                1.33808064               -0.03762061
              26.50457869                2.91615093               84.60347467                1.00000000                0.45932590                0.37543878               -1.32772244               -0.18297628                0.75341299               -0.25322963
              27.50856898                2.37570453               84.21917265                1.00000000                0.39902876                0.34307079               -1.16093282               -0.06409251                0.27604940                0.04495404
              18.00211656                8.75947227               88.03101241                1.00000000                0.07246439                0.04665542               -0.28155253               -0.00450065                0.00906710                0.76834640
              19.00284120                8.22851091               87.61966793                1.00000000                0.05850735               -0.01848227                0.00116966               -0.01709842                0.10175384                0.08685781
              20.00328671                7.69732496               87.21039835                0.00010000                0.11807051               -0.06715111                0.24562930               -0.18507793                0.54737418               -0.50113508
              21.00520261                7.16352070               86.80802598                0.00010000                0.22041123               -0.65278153                0.40573181               -0.82422441                0.89718633               -1.35027080
              22.00769493                6.62773576               86.40592936                0.00010000                0.32028423               -0.89262185                0.55475983               -1.31974810                1.03963552               -2.19882606
              23.01160830                6.08877315               86.00678744                0.00010000                0.54158177               -1.09184570                0.69625089               -1.80216025                1.44672266               -3.22153589
              24.01852657                5.54591185               85.61345260                0.00010000                0.90047291               -1.23758201                0.70937012               -2.20901266                1.93709904               -4.42542471
              25.02961776                5.00020632               85.22728837                0.00010000                1.12901917               -1.20532062                0.36974162               -2.32852799                2.02214934               -5.60751247
              26.04110695                4.45836786               84.84917331                0.00010000                0.77182112               -0.77422826               -0.37073770               -2.19349713                0.91098953               -7.04467099
              27.04505418                3.91930091               84.47010498                0.00010000                0.37443844               -0.34362013               -1.08365381               -1.57465900                0.48210854               -8.51538833
              28.04859572                3.37894626               84.08726812                0.37707586                0.35415399                0.37717088               -1.00713700               -1.08435531                0.26485428               -9.27275434
              18.53317426                9.75992785               87.89416641                1.00000000                0.05291341                0.05357779               -0.27352768               -0.02448327                0.09057646                0.69020801
              19.53370339                9.22835857               87.47975209                0.68724211               -0.00253335               -0.01063117                0.01406570               -0.04589763                0.14923826               -0.09322095
              20.53312359                8.69679177               87.06666466                0.00010000               -0.46821125               -0.09554294                0.28219772               -0.70941217               -0.00645789               -0.90926113
              21.52433916                8.15279962               86.64887902                0.00010000               -0.67436520               -0.77896251                0.36505729               -1.95130319               -0.28533693               -2.52391006
              22.51963628                7.61322680               86.23269494                0.00010000               -0.32387502               -1.11155477                0.28329949               -2.57763554               -0.49062900               -4.15546295
              23.51786166                7.07172781               85.81595644                0.00010000                0.01087094               -1.26509522               -0.03836047               -3.42048243               -0.85719373               -6.05310017
              24.51985370                6.52764351               85.39951732                0.00010000                0.39927519               -1.26809665               -0.61590129               -4.05284007               -1.14269219               -8.23540266
              25.52584717                5.98352815               84.98573230                0.00010000                0.82821146               -1.08410215               -1.40849376               -4.19373713               -1.16478754              -10.59749667
              26.53641793                5.44422348               84.57708222                0.00010000                1.33299716               -0.90352023               -2.31911913               -3.75461754               -0.82532748              -13.47458412
              27.55250711                4.90927853               84.17269635                0.00010000                1.55866186               -0.55059828               -3.10931587               -2.41287132               -0.64295459              -16.12295060
              28.56759117                4.38324794               83.76848084                0.37756347                1.50840586                0.44096057               -3.37799432               -1.12024716               -0.09927095              -18.33358308
              19.06476546               10.76054382               87.75619491                1.00000000                0.02938687                0.07329681               -0.25345224               -0.01205783                0.00750329                0.59406091
              20.06505933               10.22829829               87.33700336                0.63114734               -0.00540244               -0.02571978                0.05883911               -0.05738179                0.07054611               -0.24510509
              21.06465741                9.69541410               86.91915085                0.00010000               -0.76589053               -0.16405443                0.31378099               -0.81339292               -0.38941259               -1.13642019
              22.04974152                9.14794145               86.49052872                0.00010000               -1.37216917               -0.31869364                0.32281818               -1.84636134               -1.17295759               -2.37098355
              23.03721403                8.60550467               86.06131653                0.00010000               -1.04797895               -0.46238957                0.03695090               -2.27329294               -1.77893175               -3.79215697
              24.02878194                8.06347124               85.62879743                0.00010000               -0.57722988               -0.43861073               -0.62447402               -2.93899031               -2.59742384               -5.44692135
              25.02566943                7.52054992               85.19323003                0.00010000                0.01905545               -0.26911026               -1.64187031               -3.42964306               -3.23179013               -7.33105237
              26.02916305                6.97852428               84.75725298                0.00010000                0.72973933               -0.03343242               -2.87971226               -3.44553507               -3.31519091               -9.44500089
              27.04026422                6.44029745               84.32501587                0.00010000                1.43046218                0.14013678               -4.14271486               -2.94314116               -2.74382427              -11.74700560
              28.05777229                5.90828894               83.89969605                0.00010000                1.89938671                0.41727439               -5.18287046               -1.90735185               -1.53914045              -13.97439065
              29.07825195                5.38776547               83.48379950                0.37775706                2.04796592                0.71689278               -5.56388625               -0.86821831               -0.47014637              -15.57216845
              19.59742417               11.76139378               87.61729670                1.00000000                0.02613064                0.08749107               -0.23273326               -0.01329864               -0.00273046                0.54037025
              20.59768548               11.22784417               87.19402842                0.65679849               -0.01058050               -0.05198997                0.07686605               -0.05610584               -0.00429314               -0.25286154
              21.59721256               10.69351068               86.77078654                0.00010000               -1.01820553               -0.19213176                0.36650114               -0.73923887               -0.70606241               -1.10593557
              22.57732137               10.14642575               86.33324955                0.00010000               -1.92859632               -0.03001226                0.29500959               -1.61871610               -1.82747969               -2.14941925
              23.55864064                9.60397901               85.89315740                0.00010000               -1.66423797                0.08861557               -0.15224245               -1.89598315               -2.74308676               -3.32354977
              24.54403661                9.06295560               85.44730199                0.00010000               -1.12164129                0.26794440               -1.07938335               -2.39022632               -3.87906148               -4.71389735
              25.53620781                8.52226131               84.99588810                0.00010000               -0.34238385                0.53295266               -2.44156332               -2.76381837               -4.74156970               -6.32374877
              26.53718893                7.98285950               84.54231037                0.00010000                0.57913181                0.83431619               -4.07756933               -2.77424330               -4.91533280               -8.10241952
              27.54779045                7.44702622               84.09212679                0.00010000                1.48515631                1.11656667               -5.72417611               -2.32376357               -4.13715426               -9.95856132
              28.56689206                6.91762402               83.65184018                0.00010000                2.17416501                1.36221712               -7.02186076               -1.37901382               -2.39550749              -11.64614823
              29.59127375                6.39758580               83.22726580                0.37829788                2.43816884                1.38091734               -7.54624745               -0.56590524               -0.90218244              -12.77349554
              20.13159872               12.76229364               87.47818580                1.00000000                0.02215978                0.08964555               -0.22388486               -0.00884783               -0.00556733                0.52462876
              21.13182031               12.22725849               87.05099305                0.69736508               -0.01538289               -0.05733031                0.08772419               -0.04462554               -0.01653857               -0.24083834
              22.13129106               11.69157146               86.62362048                0.00010000               -1.24607235               -0.18715990                0.39164600               -0.51121092               -0.91388581               -0.99694209
              23.10689887               11.14734121               86.17827352                0.00010000               -2.42632724                0.20243501                0.28944011               -1.16635929               -2.29915136               -1.83945300
              24.08276451               10.60727698               85.72950881                0.00010000               -2.21018758                0.53152046               -0.27593306               -1.41094349               -3.40951080               -2.76395355
              25.06269512               10.06883013               85.27303869                0.00010000               -1.61376762                0.84711249               -1.40683014               -1.81898451               -4.78761723               -3.86969713
              26.05048916                9.53120897               84.80909844                0.00010000               -0.68909202                1.18664941               -3.04844926               -2.12117788               -5.83862105               -5.15706823
              27.04891328                8.99521060               84.34182613                0.00010000                0.42676325                1.54818605               -5.00655453               -2.11875777               -6.06881751               -6.57000485
              28.05902443                8.46262879               83.87828633                0.00010000                1.53595795                1.88966298               -6.96697299               -1.72659726               -5.16108822               -7.98891714
              29.07963243                7.93553328               83.42704940                0.00010000                2.39929295                2.13161811               -8.51738113               -0.97342829               -3.03417576               -9.21396938
              30.10701029                7.41538382               82.99657980                0.37856403                2.73778513                2.15224184               -9.18277849               -0.37154910               -1.24706551               -9.95048111
              20.66731753               13.76318670               87.33899019                1.00000000                0.01976187                0.08713186               -0.22299004               -0.00480896               -0.00497337                0.51142735
              21.66751515               13.22669756               86.90805470                0.73466448               -0.02059546               -0.05172955                0.09517622               -0.02881442               -0.01023685               -0.21654736
              22.66690562               12.68976748               86.47703906                0.00010000               -1.46132417               -0.17217413                0.40646381               -0.17801608               -0.98586104               -0.92698531
              23.63828867               12.15047445               86.02639499                0.00010000               -2.89863894                0.43163823                0.30820185               -0.55100474               -2.52260479               -1.47353956
              24.60893284               11.61460942               85.57145314                0.00010000               -2.72818693                0.92272914               -0.32783944               -0.84963198               -3.80378578               -2.13164694
              25.58372493               11.07989785               85.10716861                0.00010000               -2.07645292                1.32009058               -1.60586130               -1.26860147               -5.39388753               -2.93645426
              26.56740378               10.54599430               84.63384713                0.00010000               -1.01654832                1.69454747               -3.45939907               -1.53576152               -6.61546643               -3.88105908
              27.56339396               10.01382322               84.15632989                0.00010000                0.27660175                2.08403010               -5.66872828               -1.52707584               -6.91243005               -4.90811601
              28.57293582                9.48481948               83.68294866                0.00010000                1.56372507                2.44988087               -7.87939089               -1.21264892               -5.91058770               -5.90737873
              29.59466846                8.96025638               83.22400472                0.00010000                2.56029395                2.71632527               -9.63096099               -0.65695102               -3.49236109               -6.70474830
              30.62414170                8.44063064               82.78977991                0.37911086                2.94732359                2.80222203              -10.40432298               -0.23794019               -1.49092011               -7.09489667
              21.20448080               14.76403628               87.19970327                1.00000000                0.01824368                0.08192383               -0.22653430               -0.00064678                0.00337059                0.48605887
              22.20466324               14.22622390               86.76527808                0.78598132               -0.02634724               -0.04359922                0.10213673               -0.01539109                0.00058871               -0.19490352
              23.20395385               13.68812798               86.33080757                0.00010000               -1.68132005               -0.15509479                0.41986195                0.26169827               -0.89626436               -0.77114649
              24.17103684               13.15597397               85.87823033                0.00010000               -3.38026910                0.72426480                0.35970755                0.20221824               -2.46352248               -1.05972620
              25.13634847               12.62573156               85.41975532                0.00010000               -3.25493131                1.31894762               -0.29914368               -0.33716992               -3.95572359               -1.44382334
              26.10593821               12.09523194               84.95038666                0.00010000               -2.52499574                1.68119415               -1.66807351               -0.80132214               -5.76254259               -1.95266909
              27.08584856               11.56509992               84.47053389                0.00010000               -1.31958150                2.04839413               -3.67287583               -1.03238382               -7.16649350               -2.55653617
              28.07954658               11.03689120               83.98567353                0.00010000                0.12448645                2.44447101               -6.07140173               -1.01389975               -7.55423711               -3.20752028
              29.08833829               10.51162640               83.50524315                0.00010000                1.55678377                2.82345498               -8.47402287               -0.78275251               -6.49824590               -3.82006677
              30.11068225                9.98985979               83.04106870                0.00010000                2.65823419                3.10964687              -10.37225748               -0.40604863               -3.85081622               -4.24670091
              31.14150297                9.47142826               82.60494926                0.37943039                3.08207162                3.24086835              -11.19943951               -0.13316439               -1.68835556               -4.29143841
              21.74292937               15.76482517               87.06012448                1.00000000                0.01862624                0.07798722               -0.23389134                0.00210090                0.02983233                0.38513138
              22.74311563               15.22582558               86.62256114                0.67052499               -0.02699288               -0.03971206                0.11325462               -0.00543514                0.12371110               -0.18399764
              23.74238951               14.68666559               86.18687145                0.00010000               -1.91930900               -0.14192059                0.41970408                0.85774184               -0.61544039               -0.58182515
              24.70472945               14.16495974               85.73431030                0.00010000               -3.97290174                1.29485016                0.45545599                0.69545615               -2.20220331               -0.56252414
              25.66293147               13.64098837               85.27496797                0.00010000               -3.81996610                1.60276205               -0.17454551               -0.01592568               -3.90832881               -0.72676769
              26.62833013               13.11352173               84.80293998                0.00010000               -2.89173123                1.89446726               -1.58586836               -0.43532172               -5.96795598               -0.96874505
              27.60509685               12.58696218               84.31899198                0.00010000               -1.58703220                2.24851086               -3.69159124               -0.55742055               -7.58663886               -1.25436265
              28.59658948               12.06271264               83.82909681                0.00010000               -0.03923329                2.65253130               -6.23336938               -0.53545565               -8.11241877               -1.55988896
              29.60431218               11.54128858               83.34355989                0.00010000                1.50780769                3.04322145               -8.79243291               -0.40478937               -7.05993980               -1.84045984
              30.62674564               11.02244932               82.87564582                0.00010000                2.70146450                3.34050958              -10.80829327               -0.20411084               -4.21403778               -2.00575755
              31.65834147               10.50544800               82.43924683                0.37982713                3.15958371                3.47454960              -11.63121331               -0.04583548               -1.89975881               -1.81485424
              22.28252200               16.76559603               86.91895110                1.00000000                0.01921147                0.07708536               -0.24202387               -0.05737344                0.19745380                0.29875725
              23.28271412               16.22542965               86.47981525                0.78268564               -0.02737364               -0.03959253                0.11821514               -0.05547396                0.36390618               -0.17602933
              24.28197453               15.68528957               86.04398861                0.36298336               -2.60454717               -0.13760204                0.41539703                1.78056827               -0.08005575               -0.50709612
              25.23062317               15.18187098               85.59575450                0.36159726               -4.72532792                1.69112350                0.62364035                1.21423429               -1.69541260               -0.26238371
              26.18746797               14.65778680               85.13720928                0.36107797               -3.96826027                1.67984293                0.05856689                0.01616541               -3.74909714               -0.36852783
              27.15125797               14.13312129               84.66456736                0.36111668               -3.09793669                1.95995592               -1.35533663               -0.09304906               -6.08624162               -0.46054029
              28.12550924               13.61007014               84.17850110                0.36264716               -1.83734490                2.31079568               -3.52902403               -0.11773417               -7.97076568               -0.54206318
              29.11451107               13.08994183               83.68530400                0.36550672               -0.25017077                2.72291886               -6.18979019               -0.08680641               -8.69525016               -0.60657026
              30.12050582               12.57249083               83.19583959                0.36944669                1.39647709                3.12022560               -8.89932066               -0.04422853               -7.74340138               -0.64080163
              31.14244061               12.05666998               82.72412913                0.37515854                2.70415350                3.42206619              -11.07127591               -0.00908158               -4.79398989               -0.61141568
              32.17458889               11.54091925               82.28678135                0.69015370                3.21482801                3.54712460              -11.93387860                0.04966880               -2.36404038               -0.26749933
              17.34334404                6.90277860               89.30476103                1.00000000                0.01262787                0.05481975               -0.19101164                0.04362654               -0.51502333                0.46603103
              18.34347032                6.36919734               88.89869410                1.00000000               -0.03512157               -0.00825463                0.03813926                0.04780809               -0.70997099                0.06608675
              19.34264161                5.83514589               88.48898706                1.00000000               -0.11850648               -0.05661931                0.25957840                0.03756459               -0.76593580               -0.05232899
              20.34110019                5.29995881               88.08167869                0.69530328               -0.19112372               -0.13557120                0.48914770               -0.02829316               -0.69823757               -0.27910137
              21.33881913                4.76268199               87.67293996                0.64015933               -0.20537777               -0.21851759                0.66571142               -0.02200501               -0.45022285               -0.17625989
              22.33699263                4.22331497               87.27029954                0.57492553               -0.10706958               -0.31049739                0.83528823               -0.02538913                0.22554357               -0.21739284
              23.33667774                3.68129258               86.87475184                0.50877343                0.18757754               -0.38359579                0.89352205               -0.05502869                1.02797675               -0.29533965
              24.34074418                3.13639855               86.48785462                0.48769229                0.58725135               -0.33987982                0.41988802               -0.33494164                1.40888982               -0.45254308
              25.34842277                2.58838974               86.10500085                0.73912969                0.52719346                0.04351548               -0.23793228               -0.63313717                0.66902489                0.06480533
              26.35128805                2.04429005               85.72470351                1.00000000                0.33858410                0.29626247               -1.22319432               -0.24067270                0.44227750               -0.02757225
              27.35519445                1.50312310               85.33779030                1.00000000                0.39063977                0.36881171               -1.31452432               -0.12467899                0.05360466               -0.12255428
              17.87736157                7.90332680               89.16489510                1.00000000                0.04031875                0.04935088               -0.21083011                0.00964519               -0.12629798                0.61831647
              18.87776475                7.36911480               88.75884623                1.00000000                0.01374757               -0.01324564                0.01745091                0.01519961               -0.18893622                0.09623976
              19.87763652                6.83457970               88.35190675                1.00000000               -0.03577727               -0.06285574                0.21758806               -0.01507766               -0.19011738               -0.15681946
              20.87704921                6.29860310               87.94602623                1.00000000               -0.03577560               -0.15938640                0.40288477               -0.03966633               -0.06506053               -0.19282545
              21.87692101                5.76049681               87.54169191                0.96603989                0.01921179               -0.23392420                0.54132373               -0.04879494                0.18174983               -0.10248876
              22.87743345                5.22020999               87.14150384                0.93258889                0.13323299               -0.32142718                0.66969992               -0.05306046                0.61626674               -0.12247191
              23.87958567                4.67745663               86.74714111                0.92755518                0.32063716               -0.37779846                0.64561221               -0.04996222                1.05248486               -0.15407454
              24.88384619                4.13299975               86.35900284                0.96512605                0.42799899               -0.30315238                0.32467736               -0.11558781                1.17534482               -0.20847219
              25.88814565                3.58882490               85.97587778                1.00000000                0.38342302                0.02479199               -0.26813765               -0.23345492                0.78731922               -0.01281903
              26.89151465                3.04725267               85.59314381                1.00000000                0.34844830                0.24616312               -0.89613339               -0.09394976                0.46039801               -0.09238901
              27.89511461                2.50681121               85.20678041                1.00000000                0.35999632                0.34645918               -1.19830276               -0.08444985                0.21379184               -0.11083741
              18.41196096                8.90376562               89.02840194                1.00000000                0.05604565                0.04720198               -0.23062742               -0.00726449               -0.01913550                0.76842953
              19.41252141                8.36893243               88.61966810                1.00000000                0.04453971               -0.01513374                0.00365142               -0.01703780                0.04532509                0.10058955
              20.41285175                7.83388878               88.21262833                0.00010000                0.09341686               -0.05966492                0.20479469               -0.14624184                0.41128750               -0.46245797
              21.41438975                7.29677109               87.81156927                0.00010000                0.16922965               -0.58421186                0.31500617               -0.81113191                0.65275602               -1.28746376
              22.41623634                6.75800351               87.41063917                0.00010000                0.22909315               -0.77648182                0.41345711               -1.39342873                0.70273667               -2.18076956
              23.41897161                6.21688642               87.01238782                0.00010000                0.33262007               -0.93252701                0.47998839               -1.93273737                0.90741080               -3.36167848
              24.42288874                5.67373661               86.61864634                0.00010000                0.40462720               -1.03406657                0.42711829               -2.28122841                1.06992183               -4.80411260
              25.42706416                5.13033550               86.22987951                0.00010000                0.33060003               -1.02879114                0.20657095               -2.28438586                1.02877297               -6.39176593
              26.42950075                4.58888558               85.84627725                0.00010000                0.21792922               -0.91402651               -0.26143854               -1.84343393                0.71441240               -8.18840805
              27.43142274                4.04921331               85.46261169                0.00010000                0.24438130               -0.77379267               -0.66410717               -1.06213183                0.43640547               -9.80756813
              28.43438837                3.51005228               85.07623794                0.37390367                0.29656303               -0.36119546               -1.05554794               -0.14943642                0.23698388              -10.87583586
              18.94688266                9.90427084               88.89159959                1.00000000                0.04181795                0.05988815               -0.23162765               -0.02206249                0.06176498                0.70967333
              19.94730084                9.36881212               88.47984012                0.71934596               -0.00048183               -0.00942369                0.00668238               -0.03642322                0.10503149               -0.05455875
              20.94687303                8.83338640               88.06921958                0.00010000               -0.52944986               -0.09269242                0.22591453               -0.61706204               -0.10328418               -0.86013089
              21.93671185                8.28691886               87.65296485                0.00010000               -0.89679661               -0.70487646                0.50147027               -1.87475230               -0.54182952               -2.35354079
              22.92893709                7.74496718               87.23611505                0.00010000               -0.68331279               -0.98674222                0.47313415               -2.66348923               -1.07796901               -4.09892202
              23.92304559                7.20155945               86.81588046                0.00010000               -0.42125348               -1.13011436                0.09697212               -3.63257782               -1.81094910               -6.34972967
              24.92051202                6.65677529               86.39316690                0.00010000               -0.00180429               -1.20796464               -0.61067122               -4.26841909               -2.36334845               -9.12967595
              25.92300950                6.11242392               85.97077085                0.00010000                0.59435652               -1.24912218               -1.60064914               -4.28318770               -2.48431981              -12.33550522
              26.93239915                5.57054437               85.55184670                0.00010000                1.30479049               -1.26528775               -2.77234887               -3.53836540               -2.11975748              -15.84349951
              27.94910531                5.03177682               85.13822978                0.00010000                1.90243941               -1.13384324               -3.84363759               -2.05171244               -1.38419356              -18.96370617
              28.97044794                4.49958730               84.73020860                0.37414680                2.13426297               -0.50838306               -4.41235974               -0.49386346               -0.35085474              -21.38986376
              19.48243715               10.90496339               88.75379865                1.00000000                0.02402405                0.07848488               -0.21966007               -0.01143447                0.00406905                0.62276452
              20.48267739               10.36874396               88.33749648                0.67352214               -0.00166905               -0.02259022                0.04109976               -0.04577673                0.03896240               -0.20524588
              21.48240377                9.83203493               87.92202315                0.00010000               -0.86817295               -0.15568737                0.25812657               -0.69912140               -0.49475460               -1.08061777
              22.46531393                9.28267356               87.49478919                0.00010000               -1.70388984               -0.26639257                0.59822432               -1.70530224               -1.49046045               -2.21372219
              23.44832597                8.73826866               87.06318128                0.00010000               -1.54009946               -0.38185187                0.43539029               -2.24351874               -2.56116437               -3.74297732
              24.43451194                8.19428414               86.62369183                0.00010000               -1.08350389               -0.36673545               -0.30279528               -2.99534810               -3.88039052               -5.72864380
              25.42665589                7.64957732               86.17691299                0.00010000               -0.34403049               -0.28141212               -1.57081411               -3.52209141               -4.89576243               -8.16753692
              26.42763133                7.10535305               85.72685029                0.00010000                0.63623251               -0.17943134               -3.21930803               -3.56907771               -5.16311617              -10.98384362
              27.43938054                6.56357983               85.27966067                0.00010000                1.68571120               -0.06786612               -5.01140968               -3.07953863               -4.44338243              -13.96977821
              28.46134555                6.02653645               84.84188325                0.00010000                2.47547943                0.16275311               -6.56287644               -1.94054631               -2.62937924              -16.70079247
              29.48889013                5.49988462               84.42032090                0.37469659                2.75445768                0.54372626               -7.38176044               -0.85876440               -0.96908441              -18.57019845
              20.01909283               11.90584054               88.61508661                1.00000000                0.02209302                0.08783008               -0.20494370               -0.01185594               -0.00504594                0.56329724
              21.01931376               11.36836032               88.19469366                0.70079927               -0.00659173               -0.04274364                0.05714742               -0.04454399               -0.01642031               -0.22702919
              22.01896100               10.83027265               87.77417301                0.00010000               -1.14708464               -0.17346990                0.30801753               -0.61229608               -0.81148422               -1.05150564
              22.99637207               10.28159101               87.33764819                0.00010000               -2.32524294                0.00337983                0.66855600               -1.43427608               -2.20530622               -2.00940852
              23.97245614                9.73733014               86.89371839                0.00010000               -2.22710515                0.12988167                0.38405907               -1.79805841               -3.68026275               -3.28365191
              24.95182997                9.19422474               86.43810529                0.00010000               -1.67274302                0.30347357               -0.64952925               -2.37611029               -5.42838474               -4.96707137
              25.93900128                8.65114705               85.97154531                0.00010000               -0.71022617                0.54045699               -2.36553176               -2.82141158               -6.77531981               -7.04242686
              26.93762544                8.10883530               85.49924984                0.00010000                0.53118561                0.81443743               -4.55731135               -2.90484676               -7.15257738               -9.40951983
              27.94962499                7.56918704               85.02976872                0.00010000                1.81820754                1.11108750               -6.88523701               -2.51124751               -6.16864642              -11.87162445
              28.97398959                7.03503188               84.57359467                0.00010000                2.84756581                1.43088255               -8.88101333               -1.55131126               -3.67735763              -14.07152241
              30.00657631                6.51046183               84.14161189                0.37522281                3.25867124                1.60581539               -9.95267049               -0.64439519               -1.49529642              -15.51906877
              20.55716047               12.90671999               88.47605550                1.00000000                0.01939191                0.08576692               -0.19897050               -0.00791377               -0.00714028                0.53627376
              21.55735439               12.36788908               88.05176672                0.73918280               -0.01166623               -0.04541954                0.06789768               -0.03462699               -0.02216214               -0.21809836
              22.55692715               11.82856553               87.62724577                0.00010000               -1.38917351               -0.16274425                0.33226712               -0.39221427               -1.01388197               -0.95597247
              23.52957092               11.28274115               87.18293101                0.00010000               -2.85980395                0.21648740                0.73645621               -0.97735126               -2.70394738               -1.72405800
              24.49973107               10.74086629               86.72926750                0.00010000               -2.81990502                0.54326869                0.36176016               -1.28844340               -4.45946973               -2.73669419
              25.47317282               10.20035361               86.26088911                0.00010000               -2.20569814                0.87075528               -0.90022903               -1.77076664               -6.53770567               -4.08460844
              26.45561711                9.66038646               85.77868770                0.00010000               -1.08392102                1.23926386               -2.96753858               -2.14903979               -8.14299584               -5.74647817
              27.45149440                9.12164180               85.28899559                0.00010000                0.36709502                1.65444983               -5.59022206               -2.22413687               -8.60591275               -7.62400065
              28.46295901                8.58580158               84.80242788                0.00010000                1.87750704                2.09048802               -8.36387223               -1.89101597               -7.44894569               -9.53241614
              29.48904454                8.05515410               84.33230420                0.00010000                3.10916609                2.47800900              -10.74080522               -1.11972313               -4.46057866              -11.18709480
              30.52514233                7.53200093               83.89263636                0.37531837                3.60977868                2.66090378              -12.06088300               -0.45375653               -1.90410439              -12.21600423
              21.09659637               13.90755588               88.33686612                1.00000000                0.01793123                0.08055322               -0.19925275               -0.00454463               -0.00664719                0.51480378
              22.09677568               13.36745193               87.90890217                0.77406475               -0.01658612               -0.03996536                0.07505285               -0.02205108               -0.01526589               -0.19483928
              23.09626464               12.82701777               87.48081159                0.00010000               -1.61256973               -0.14666369                0.34621943               -0.08035289               -1.07315185               -0.88811168
              24.06452428               12.28592076               87.03150450                0.00010000               -3.35949132                0.42936820                0.81642932               -0.38830848               -2.92361668               -1.38634632
              25.02907482               11.74819551               86.57107253                0.00010000               -3.38149076                0.91442023                0.39678252               -0.73229982               -4.92058492               -2.11874909
              25.99689447               11.21163985               86.09335224                0.00010000               -2.71712640                1.34254060               -1.02500059               -1.20505604               -7.28236672               -3.10878529
              26.97473229               10.67593233               85.59943156                0.00010000               -1.45834386                1.79072909               -3.35326967               -1.53260590               -9.11637471               -4.32923041
              27.96772759               10.14192429               85.09663887                0.00010000                0.17800447                2.29745287               -6.30547907               -1.58725415               -9.67106641               -5.69251451
              28.97829238                9.61099680               84.59732310                0.00010000                1.88340955                2.82263055               -9.42599063               -1.31749963               -8.39606474               -7.04229728
              30.00539578                9.08459206               84.11706066                0.00010000                3.27575687                3.27984674              -12.10659928               -0.75067029               -5.03632617               -8.14230503
              31.04380751                8.56367991               83.67221572                0.37578179                3.84117334                3.55506184              -13.62736798               -0.29581975               -2.20530063               -8.71853865
              21.63727748               14.90833105               88.19754324                1.00000000                0.01739950                0.07442745               -0.20343619               -0.00118291                0.00095766                0.48323355
              22.63745148               14.36708978               87.76618885                0.82143889               -0.02131139               -0.03320697                0.08062565               -0.01164199               -0.00655278               -0.17184064
              23.63685126               13.82563226               87.33470789                0.00010000               -1.84122349               -0.13082302                0.35861094                0.33010834               -0.95756506               -0.73827452
              24.60062701               13.29132852               86.88411903                0.00010000               -3.87426360                0.71147432                0.92786413                0.31904156               -2.82350162               -0.99843899
              25.55936598               12.75915470               86.42007182                0.00010000               -3.96460617                1.29572774                0.51813658               -0.24518618               -5.09104637               -1.44303176
              26.52133489               12.22720442               85.93636377                0.00010000               -3.23427199                1.70327219               -0.99316825               -0.73756707               -7.73615969               -2.07787349
              27.49468055               11.69620104               85.43427071                0.00010000               -1.83250216                2.17662194               -3.50154672               -1.00605508               -9.81461459               -2.85565455
              28.48468484               11.16759086               84.92200937                0.00010000               -0.03696487                2.73223619               -6.69618752               -1.03223767              -10.49575374               -3.71534823
              29.49394125               10.64225419               84.41342811                0.00010000                1.83315963                3.31155161              -10.07791826               -0.83488981               -9.15588399               -4.54074812
              30.52134804               10.12075103               83.92617120                0.00010000                3.35544991                3.81957698              -12.97875702               -0.45575683               -5.50015814               -5.12852894
              31.56105025                9.60310216               83.47864073                0.37631687                3.97022103                4.17014817              -14.62025327               -0.17256137               -2.45989574               -5.20589594
              22.17905526               15.90904443               88.05789184                1.00000000                0.01863725                0.07059435               -0.21114860                0.00104616                0.03059118                0.37801426
              23.17924163               15.36678779               87.62356501                0.69836492               -0.02135947               -0.03006630                0.08785019               -0.00405092                0.10616219               -0.16259018
              24.17862807               14.82440131               87.19075470                0.00010000               -2.09294782               -0.11900083                0.35640636                0.89537403               -0.62971172               -0.55645194
              25.13738267               14.30015025               86.74148749                0.00010000               -4.51664394                1.27307142                1.09907523                0.76116040               -2.46087758               -0.51835435
              26.08829519               13.77411007               86.27707306                0.00010000               -4.61429458                1.56316132                0.76719627                0.03625362               -4.99999389               -0.73985795
              27.04509678               13.24570529               85.79034031                0.00010000               -3.70352216                1.90997725               -0.77279528               -0.39125313               -7.98770252               -1.04110510
              28.01422475               12.71946477               85.28308143                0.00010000               -2.20335451                2.38796232               -3.39545779               -0.53031778              -10.36575674               -1.40446144
              29.00102969               12.19656902               84.76419580                0.00010000               -0.28951682                2.97361326               -6.76862949               -0.53412596              -11.24539577               -1.80340354
              30.00843441               11.67722784               84.24872887                0.00010000                1.72014882                3.58631382              -10.35617937               -0.42635902               -9.92035180               -2.17744071
              31.03543267               11.16098360               83.75634240                0.00010000                3.36098060                4.12175335              -13.42576502               -0.22818997               -5.99620053               -2.39971737
              32.07565402               10.64708287               83.30845776                0.37640910                4.02213535                4.48892990              -15.09609388               -0.07507807               -2.74867165               -2.11841507
              22.72181169               16.90974294               87.91663067                1.00000000                0.02018908                0.06985112               -0.22076862               -0.04980582                0.19515547                0.28983745
              23.72201358               16.36648845               87.48085056                0.79485165               -0.02077056               -0.02993370                0.08866297               -0.04733997                0.33318006               -0.15769722
              24.72139628               15.82325224               87.04781829                0.36249531               -2.79360600               -0.11490674                0.34880028                1.79189560                0.00153863               -0.48247381
              25.66614146               15.31678995               86.60517349                0.36132838               -5.34301329                1.66396978                1.40100174                1.23416267               -1.69466415               -0.32986035
              26.61453601               14.79041793               86.14244499                0.36088067               -4.89931673                1.63078574                1.18983556                0.05478311               -4.73286714               -0.46342282
              27.56815512               14.26540396               85.65516444                0.36135493               -4.06627728                1.96986711               -0.33118844               -0.01704762               -8.14100844               -0.56673850
              28.53321047               13.74396029               85.14507096                0.36251334               -2.59579350                2.44955218               -3.02969290               -0.01847008              -10.91101278               -0.65320625
              29.51623925               13.22706313               84.62156511                0.36434320               -0.61054906                3.04941074               -6.55007015                0.02196497              -12.08412638               -0.71967044
              30.52099948               12.71398046               84.10048085                0.36768688                1.53449747                3.67526276              -10.32879020                0.06265608              -10.91727847               -0.74564786
              31.54692920               12.20318610               83.60252977                0.37240846                3.31753321                4.22024973              -13.60035203                0.09466841               -6.85517101               -0.68210569
              32.58735015               11.69288076               83.15321113                0.68837609                4.04209445                4.57978929              -15.33185332                0.13907899               -3.44742615               -0.14865330
              17.74309729                7.04734936               90.30322247                1.00000000               -0.00133619                0.03707998               -0.11271536                0.02731024               -0.50863588                0.45245528
              18.74308393                6.50980641               89.89917923                1.00000000               -0.03808333               -0.01274012                0.06099498                0.02946497               -0.70478976                0.06538128
              19.74233563                5.97189117               89.49147899                1.00000000               -0.10353244               -0.05340370                0.23966855                0.02112927               -0.75543905               -0.05430738
              20.74101328                5.43319507               89.08620885                0.69322165               -0.17654773               -0.10868988                0.41401181               -0.03930722               -0.70680110               -0.29090180
              21.73880467                4.89283540               88.67898595                0.65796488               -0.20635802               -0.15051516                0.54868783               -0.04650543               -0.50463589               -0.17147872
              22.73688612                4.35099215               88.27751295                0.62785056               -0.13434685               -0.19651420                0.63374642               -0.06041029                0.05906468               -0.17232016
              23.73611773                3.80748527               87.88173626                0.61193483                0.02258190               -0.20661062                0.57723605               -0.12016515                0.54461593               -0.22247406
              24.73733776                3.26278865               87.49098247                0.64693041                0.15338574               -0.13484247                0.25331708               -0.25501005                0.71165476               -0.22808175
              25.73918545                2.71777265               87.10305347                0.91080493                0.17142637                0.04026180               -0.17982501               -0.24118667                0.44347011               -0.03767301
              26.74076629                2.17436008               86.71459312                1.00000000                0.23489089                0.20348974               -0.83711670               -0.09418329                0.25637058                0.02176378
              27.74388327                1.63165353               86.32484974                1.00000000                0.31169804                0.33866035               -1.17851300               -0.10181999                0.10319709               -0.17649371
              18.28091335                8.04772016               90.16313498                1.00000000                0.01943277                0.03935039               -0.13678921                0.00109702               -0.13709566                0.60254492
              19.28110768                7.50967901               89.75909643                1.00000000               -0.00303797               -0.01388003                0.03557051                0.00371792               -0.21365279                0.09653056
              20.28085259                6.97135713               89.35395363                1.00000000               -0.04797922               -0.05641013                0.19426311               -0.01475903               -0.23823288               -0.14950882
              21.28014809                6.43210817               88.94966528                1.00000000               -0.07057580               -0.11811285                0.33619445               -0.03966352               -0.15309686               -0.20559119
              22.27944107                5.89133025               88.54643852                1.00000000               -0.05955043               -0.15690846                0.43338437               -0.04773563                0.03764474               -0.09482913
              23.27895708                5.34902701               88.14710075                1.00000000               -0.02116209               -0.19145932                0.48541932               -0.05239279                0.35139445               -0.08823742
              24.27901783                4.80541916               87.75201985                1.00000000                0.03434424               -0.18407321                0.41286398               -0.06356008                0.61123505               -0.09565459
              25.27964397                4.26144023               87.36116260                1.00000000                0.09850188               -0.10928321                0.17984190               -0.10096762                0.73590177               -0.07484546
              26.28098787                3.71817527               86.97342456                1.00000000                0.16200223                0.04290583               -0.20709353               -0.07838401                0.67530138               -0.02753300
              27.28288401                3.17639498               86.58555200                1.00000000                0.22918729                0.18517505               -0.66857173               -0.00399126                0.42184798               -0.03262507
              28.28557162                2.63504013               86.19520660                1.00000000                0.26876018                0.31739125               -1.05348313               -0.02550346                0.21549978               -0.19703921
              18.81920154                9.04813637               90.02639986                1.00000000                0.03197757                0.05022243               -0.16519291               -0.00999884               -0.03788198                0.76265228
              19.81952132                8.50952881               89.61974096                1.00000000                0.02048709               -0.01199995                0.01398913               -0.01485263                0.00723099                0.11084131
              20.81961129                7.97076297               89.21449424                0.00010000                0.03627864               -0.05813975                0.17139310               -0.08077080                0.30640094               -0.43142505
              21.82024689                7.43083281               88.81432611                0.00010000                0.06599151               -0.47996414                0.25708870               -0.73033574                0.46836755               -1.09623382
              22.82093112                6.88969723               88.41419850                0.00010000                0.07512296               -0.63119981                0.32855393               -1.39748096                0.46816157               -1.99192831
              23.82174935                6.34716297               88.01638720                0.00010000                0.07510990               -0.77989033                0.35474199               -2.01298436                0.57766867               -3.37239687
              24.82243331                5.80380381               87.62199497                0.00010000                0.04064759               -0.93179110                0.29625395               -2.39407325                0.69071427               -5.19346674
              25.82256230                5.26060299               87.23141979                0.00010000                0.01148538               -1.07964832                0.13125516               -2.36680181                0.77608124               -7.34583092
              26.82266302                4.71863077               86.84394453                0.00010000                0.06296463               -1.21026000               -0.20320029               -1.84817111                0.80211065               -9.63604663
              27.82382160                4.17806358               86.45682284                0.00010000                0.17099307               -1.28310646               -0.53670979               -0.85260394                0.57504577              -11.65519088
              28.82608288                3.63800136               86.06615716                0.37132131                0.22612867               -1.18362142               -0.92634043                0.54601839                0.33658615              -13.05147861
              19.35792850               10.04872461               89.88953385                1.00000000                0.02555302                0.06878638               -0.17738299               -0.01607863                0.03930683                0.72256746
              20.35818403                9.50943901               89.47988573                0.75437493                0.00023371               -0.00944885                0.00514268               -0.02187579                0.06911273               -0.02139013
              21.35793317                8.97019434               89.07118295                0.00010000               -0.57884590               -0.09573257                0.16791241               -0.45358988               -0.04482214               -0.81247205
              22.34660711                8.42250888               88.65890843                0.00010000               -1.13859374               -0.59245676                0.74337550               -1.64803995               -0.51590597               -1.94114763
              23.33516130                7.87870625               88.24215762                0.00010000               -1.10081437               -0.83277267                0.81480822               -2.64613508               -1.48215806               -3.72787271
              24.32459082                7.33342920               87.81789589                0.00010000               -0.87324772               -1.02447117                0.38330576               -3.81149212               -2.64565526               -6.41309690
              25.31769634                6.78678334               87.38730389                0.00010000               -0.35549254               -1.24915152               -0.51771161               -4.57097641               -3.54056520               -9.99351335
              26.31748097                6.23984726               86.95371932                0.00010000                0.44337566               -1.51172884               -1.81304020               -4.61112677               -3.86684422              -14.25433843
              27.32656386                5.69397007               86.52163524                0.00010000                1.44901870               -1.78254483               -3.33768901               -3.77069120               -3.45102402              -18.75696243
              28.34646135                5.15073285               86.09582360                0.00010000                2.50262878               -1.95776904               -4.77529189               -2.09497420               -2.19377987              -22.75644196
              29.37661643                4.61136771               85.68023365                0.37142247                3.01550856               -1.65215768               -5.73616093               -0.14091113               -0.63733337              -25.65023137
              19.89745118               11.04951210               89.75180171                1.00000000                0.01629006                0.08391312               -0.17648042               -0.00819415                0.00077292                0.64553429
              20.89761408               10.50933983               89.33782536                0.71853624                0.00092173               -0.02028318                0.02703826               -0.02885716                0.01553302               -0.16453589
              21.89746961                9.96884831               88.92431338                0.00010000               -0.94199512               -0.14681972                0.20110040               -0.51304916               -0.36465554               -1.01501340
              22.87877418                9.41898367               88.50249321                0.00010000               -2.01907584               -0.22065682                1.02922682               -1.43718896               -1.39517809               -1.87929518
              23.85708809                8.87304178               88.07002433                0.00010000               -2.06658772               -0.32432517                1.05541141               -2.14465721               -3.11204077               -3.46683855
              24.83744242                8.32667354               87.62274152                0.00010000               -1.62461842               -0.35061528                0.22702592               -3.05849163               -5.11608646               -5.85584016
              25.82459573                7.77882078               87.16181375                0.00010000               -0.71446893               -0.35726425               -1.37972118               -3.72223080               -6.69925729               -9.00752259
              26.82315304                7.23036841               86.69286682                0.00010000                0.58839428               -0.36617310               -3.57979345               -3.87039544               -7.28658137              -12.73156404
              27.83636361                6.68297987               86.22478768                0.00010000                2.06857163               -0.35717759               -6.06016225               -3.39756887               -6.46177474              -16.65329988
              28.86452447                6.13890820               85.76843853                0.00010000                3.28156656               -0.24801170               -8.33570545               -2.14906416               -3.93830016              -20.22053206
              29.90199494                5.60495820               85.33616429                0.37162326                3.74704687                0.17606301               -9.76253764               -0.95915320               -1.55928802              -22.61167318
              20.43810915               12.05040287               89.61319783                1.00000000                0.01615182                0.08637558               -0.17034886               -0.00783804               -0.00706466                0.58328016
              21.43827067               11.50903334               89.19517137                0.74524908               -0.00404020               -0.03259132                0.04053774               -0.02861039               -0.02346039               -0.19487525
              22.43802835               10.96725794               88.77694689                0.00010000               -1.23004011               -0.15174404                0.24790860               -0.42790410               -0.62840847               -0.98810477
              23.41366987               10.41809575               88.34662067                0.00010000               -2.67250308                0.00100333                1.23351173               -1.15070879               -2.07432927               -1.73441971
              24.38457828                9.87221975               87.90083858                0.00010000               -2.80139363                0.10735883                1.19145113               -1.65749579               -4.34730359               -3.07733198
              25.35764199                9.32641690               87.43431141                0.00010000               -2.25107139                0.26087343                0.03342142               -2.37516560               -6.94939133               -5.11234466
              26.33955686                8.77963806               86.94857746                0.00010000               -1.08640123                0.47861882               -2.13918656               -2.94830321               -9.00285317               -7.78411424
              27.33591397                8.23252380               86.45116414                0.00010000                0.52579176                0.74865728               -5.06529876               -3.14548712               -9.75548304              -10.91903312
              28.35007269                7.68682652               85.95442205                0.00010000                2.27938812                1.07231049               -8.31907212               -2.81889485               -8.62233298              -14.21331778
              29.38150173                7.14577261               85.47421991                0.00010000                3.76303352                1.47085976              -11.28858012               -1.81248216               -5.26323876              -17.18980516
              30.42533336                6.61488897               85.02821240                0.37183388                4.38316307                1.77508495              -13.18297520               -0.77491809               -2.23204272              -19.21914113
              20.98003347               13.05123961               89.47420639                1.00000000                0.01533266                0.07960788               -0.16887655               -0.00499446               -0.00836646                0.54831596
              21.98018680               12.50868800               89.05235101                0.77877983               -0.00921740               -0.03273483                0.05079799               -0.02162430               -0.02437272               -0.18979083
              22.97984913               11.96581343               88.63026582                0.00010000               -1.46943051               -0.13574016                0.27240245               -0.24361755               -0.78663080               -0.90948294
              23.95079819               11.41900374               88.19300265                0.00010000               -3.21160486                0.17318789                1.39986155               -0.73694743               -2.52597365               -1.51396129
              24.91561703               10.87518896               87.73674401                0.00010000               -3.41386943                0.46051882                1.30427106               -1.15088047               -5.19697570               -2.59876196
              25.88252080               10.33189101               87.25503410                0.00010000               -2.80471347                0.79152889               -0.11057315               -1.73596198               -8.24575329               -4.23733045
              26.85952276                9.78839315               86.74974767                0.00010000               -1.47329807                1.20943107               -2.72235862               -2.21583265              -10.64904928               -6.37572108
              27.85305484                9.24534156               86.23002169                0.00010000                0.36070711                1.72176768               -6.21724692               -2.38999763              -11.52686062               -8.86583878
              28.86673690                8.70442608               85.71100889                0.00010000                2.35787708                2.30733947              -10.09026173               -2.12480597              -10.18947185              -11.45234174
              29.90021238                8.16832539               85.21223330                0.00010000                4.07634873                2.88853355              -13.63764584               -1.32092965               -6.21985642              -13.76323516
              30.94826388                7.64045990               84.75536214                0.37210192                4.80514941                3.26832666              -15.96766672               -0.56693975               -2.72313261              -15.32380318
              21.52311247               14.05199503               89.33500514                1.00000000                0.01518859                0.07178119               -0.17140346               -0.00287521               -0.00800731                0.52049473
              22.52326436               13.50837865               88.90955575                0.80927523               -0.01361064               -0.02818789                0.05746329               -0.01355765               -0.01817917               -0.16993374
              23.52284026               12.96454314               88.48396345                0.00010000               -1.68544813               -0.11970257                0.28675063                0.01020549               -0.79975500               -0.84721002
              24.48955540               12.42155951               88.04272357                0.00010000               -3.70834276                0.35092313                1.55833114               -0.23541638               -2.67654900               -1.24462603
              25.44867340               11.88143013               87.57938879                0.00010000               -3.99184189                0.78407170                1.44966176               -0.63231277               -5.67880493               -2.04945024
              26.40971856               11.34224748               87.08666860                0.00010000               -3.34418739                1.23976943               -0.14065306               -1.15540665               -9.09931365               -3.26259480
              27.38178966               10.80382668               86.56678173                0.00010000               -1.88187342                1.79719023               -3.07389265               -1.54502046              -11.80353532               -4.83238604
              28.37208109               10.26695915               86.03022031                0.00010000                0.14015398                2.48428746               -6.99786142               -1.67170514              -12.81099449               -6.63991816
              29.38459274                9.73297331               85.49442885                0.00010000                2.34841143                3.24897959              -11.34802838               -1.45469968              -11.33939973               -8.48265151
              30.41904932                9.20354328               84.98187273                0.00010000                4.25664091                3.98410373              -15.34758957               -0.87318571               -6.91844367              -10.05624709
              31.46972555                8.68025550               84.51723255                0.37262096                5.06762363                4.53042021              -18.03003329               -0.37367240               -3.08535187              -11.00830127
              22.06720874               15.05267523               89.19563455                1.00000000                0.01588032                0.06514983               -0.17703937               -0.00098029               -0.00083746                0.48364232
              23.06736754               14.50812425               88.76689059                0.85238056               -0.01681791               -0.02332869                0.06126998               -0.00720989               -0.01094311               -0.14872854
              24.06687238               13.96341938               88.33797979                0.00010000               -1.90823324               -0.10584969                0.29679716                0.34652457               -0.62355595               -0.70491187
              25.02920287               13.42602220               87.89678761                0.00010000               -4.22947872                0.59893448                1.74413650                0.35445718               -2.46817703               -0.91846267
              25.98228280               12.89087039               87.43011805                0.00010000               -4.60933786                1.11939577                1.68467377               -0.19652173               -5.81448545               -1.43115759
              26.93701612               12.35668640               86.93052329                0.00010000               -3.91860659                1.58257435                0.00668236               -0.68421419               -9.59937818               -2.21838695
              27.90391067               11.82433696               86.40050295                0.00010000               -2.32710032                2.21230116               -3.14217644               -0.97612616              -12.62698139               -3.21307272
              28.89047411               11.29502731               85.85174978                0.00010000               -0.14259472                3.00648333               -7.37582669               -1.04891241              -13.81117534               -4.34676363
              29.90105878               10.76940567               85.30368479                0.00010000                2.24961822                3.88568591              -12.07886045               -0.89270119              -12.27364661               -5.47399029
              30.93546647               10.24800747               84.78149356                0.00010000                4.31536108                4.72765538              -16.40407638               -0.51469716               -7.49126981               -6.33069290
              31.98736600                9.73106831               84.31254420                0.37291849                5.18995240                5.41268975              -19.31398694               -0.22332785               -3.39974668               -6.55406849
              22.61219484               16.05329803               89.05590151                1.00000000                0.01811706                0.06199329               -0.18599794                0.00023534                0.03102700                0.37435311
              23.61237601               15.50791207               88.62431815                0.71748245               -0.01610229               -0.02098124                0.06416763               -0.00246596                0.09345559               -0.14370436
              24.61187279               14.96242614               88.19399958                0.00010000               -2.15912399               -0.09532385                0.29368333                0.82180562               -0.20205081               -0.53458545
              25.56919353               14.43353819               87.75629180                0.00010000               -4.88970109                1.09397853                2.00972528                0.71461092               -1.91862146               -0.46992119
              26.51407877               13.90381804               87.29031189                0.00010000               -5.33129124                1.34520543                2.09060586                0.04488222               -5.60737365               -0.76914653
              27.46256771               13.37389896               86.78748407                0.00010000               -4.50762738                1.77259364                0.40162976               -0.34748167               -9.85544843               -1.13902501
              28.42392622               12.84807270               86.25108283                0.00010000               -2.82667900                2.43449969               -2.87719886               -0.49162547              -13.29512638               -1.59561619
              29.40603413               12.32708882               85.69372422                0.00010000               -0.50838375                3.28912436               -7.33279898               -0.52205643              -14.76014008               -2.11493616
              30.41375855               11.81068702               85.13643630                0.00010000                2.05293074                4.23341285              -12.30471507               -0.44278062              -13.26070241               -2.62233875
              31.44709274               11.29809639               84.60713052                0.00010000                4.26893873                5.13228228              -16.86868263               -0.25186498               -8.13582272               -2.95010051
              32.49913732               10.78850929               84.13732495                0.37339893                5.20445834                5.86855634              -19.86352377               -0.11312701               -3.77596472               -2.61276539
              23.15798535               17.05391510               88.91453573                1.00000000                0.02047521                0.06170718               -0.19741851               -0.04199680                0.19330410                0.28433672
              24.15819010               16.50770462               88.48158851                0.80263302               -0.01514905               -0.02074522                0.06042633               -0.03870057                0.30963226               -0.14315869
              25.15768237               15.96151291               88.05096461                0.36213242               -2.80434535               -0.09132397                0.28418190                1.59081501                0.60915717               -0.46572399
              26.10210319               15.44790177               87.62377454                0.36113730               -5.74313441                1.43635779                2.49276680                1.10404604               -0.71398226               -0.45664733
              27.04281968               14.91777450               87.16100600                0.36099510               -5.81456854                1.39564559                2.76728430                0.08591573               -5.14282160               -0.62446358
              27.98581182               14.39213827               86.65794359                0.36120270               -5.09656882                1.82393097                1.12468819                0.08703439              -10.01623851               -0.73500914
              28.94088830               13.87302695               86.11790725                0.36185375               -3.41965820                2.49542489               -2.23938629                0.12978402              -14.01954736               -0.82136130
              29.91741866               13.36080979               85.55430259                0.36384698               -0.98463555                3.37209740               -6.87567002                0.19080225              -15.90184203               -0.88777394
              30.92119559               12.85407393               84.98926378                0.36620852                1.75941228                4.33869047              -12.08677766                0.23587032              -14.63477901               -0.90604969
              31.95260691               12.35065311               84.45212209                0.37019230                4.15410308                5.25567226              -16.90747438                0.26969158               -9.33302444               -0.80892912
              33.00427765               11.84843943               83.98014428                0.68673019                5.16707491                5.99301380              -19.99362340                0.29266475               -4.76060595               -0.05577256
              18.14125780                7.19200269               91.30250673                1.00000000               -0.01397944                0.01976158               -0.03330063                0.01068315               -0.48775588                0.43425221
              19.14111801                6.65067057               90.89991400                1.00000000               -0.03772964               -0.01868933                0.08516993                0.01089157               -0.67545014                0.06482009
              20.14050321                6.10911045               90.49378043                1.00000000               -0.08304040               -0.05361791                0.21965406                0.00784691               -0.72139649               -0.05173059
              21.13945720                5.56722791               90.08995893                0.69210682               -0.15404479               -0.08538901                0.33704819               -0.03363850               -0.68702665               -0.28164468
              22.13742231                5.02434729               89.68391371                0.67525012               -0.20167866               -0.09596094                0.44138537               -0.04513498               -0.51124563               -0.14815632
              23.13542362                4.48069297               89.28297447                0.67183455               -0.16608844               -0.11219726                0.47130391               -0.05793154               -0.03830201               -0.13435233
              24.13410054                3.93627591               88.88629656                0.69107203               -0.08817808               -0.09910889                0.37731786               -0.09601840                0.30277096               -0.14198498
              25.13366006                3.39147665               88.49292096                0.76209939               -0.02095115               -0.04111272                0.15163634               -0.11914578                0.44962126               -0.12134243
              26.13368152                2.84689410               88.10140435                1.00000000                0.04795672                0.04890745               -0.16344713               -0.07537855                0.33464077               -0.06592278
              27.13461920                2.30280757               87.70796118                1.00000000                0.15318189                0.15628865               -0.55820921               -0.04569201                0.17744628               -0.00310589
              28.13674516                1.75887951               87.31422004                1.00000000                0.21259603                0.26835012               -0.91928504               -0.05578059                0.08087043               -0.15404057
              18.68269675                8.19220031               91.16215932                1.00000000               -0.00237105                0.03085516               -0.06026930               -0.00849709               -0.13597048                0.58269543
              19.68267304                7.65048367               90.75955764                1.00000000               -0.01968733               -0.01553082                0.05661058               -0.00861945               -0.21449314                0.09607861
              20.68230301                7.10857427               90.35579201                1.00000000               -0.05853259               -0.05397414                0.17443870               -0.01091211               -0.24544957               -0.14045679
              21.68150239                6.56637402               89.95275012                1.00000000               -0.10322869               -0.08123231                0.28071448               -0.02954727               -0.18026023               -0.20144249
              22.68023843                6.02338768               89.55035959                1.00000000               -0.13111960               -0.09507294                0.35784965               -0.03434290               -0.02371346               -0.08246026
              23.67888000                5.47957099               89.15121223                1.00000000               -0.12449575               -0.10248073                0.37101520               -0.03989806                0.24693784               -0.06514626
              24.67774852                4.93528482               88.75539839                1.00000000               -0.08602437               -0.08463375                0.29736210               -0.04677840                0.48643724               -0.05586805
              25.67715951                4.39106552               88.36259968                1.00000000               -0.02431214               -0.03072441                0.11876318               -0.04627497                0.64834053               -0.04097884
              26.67726228                3.84738317               87.97173590                1.00000000                0.05050312                0.05299350               -0.15861396               -0.01183408                0.60036421               -0.04992015
              27.67816957                3.30437045               87.57977238                1.00000000                0.14265688                0.15151631               -0.50600532                0.01358327                0.37182934               -0.02935416
              28.68011541                2.76156301               87.18571075                1.00000000                0.19458388                0.25580749               -0.83605317                0.00456997                0.20299766               -0.20150656
              19.22452112                9.19261979               91.02509808                1.00000000                0.00505344                0.05600217               -0.09605763               -0.01256974               -0.04529394                0.74955963
              20.22457165                8.65035995               90.61994788                1.00000000               -0.00632489               -0.00918757                0.02803389               -0.01139341               -0.00859296                0.11603098
              21.22439462                8.10803096               90.21605619                0.00010000               -0.02594076               -0.06282219                0.14313833               -0.00529050                0.25671235               -0.41209370
              22.22405284                7.56560326               89.81671104                0.00010000               -0.04280719               -0.32226028                0.22152781               -0.58342359                0.38778894               -0.73829009
              23.22353848                7.02244583               89.41721025                0.00010000               -0.06621584               -0.44018944                0.27960297               -1.34459334                0.36858230               -1.58608954
              24.22272852                6.47864335               89.01948266                0.00010000               -0.09340155               -0.63138981                0.28922875               -2.08781905                0.47819754               -3.20203904
              25.22167045                5.93458324               88.62457142                0.00010000               -0.10461548               -0.90992889                0.23585853               -2.58262112                0.64399138               -5.52993088
              26.22063621                5.39086216               88.23250461                0.00010000               -0.07652707               -1.25876998                0.09225830               -2.62237548                0.79915994               -8.37600390
              27.22013991                4.84795397               87.84221324                0.00010000                0.00374083               -1.64105999               -0.15819946               -2.05060732                0.84730431              -11.41384137
              28.22071103                4.30583789               87.45187749                0.00010000                0.11557718               -1.96690802               -0.45498758               -0.77482892                0.61144189              -14.10003429
              29.22245145                3.76399566               87.05771113                0.36850003                0.17404201               -2.24937277               -0.75967839                1.25406436                0.37244063              -15.94276831
              19.76696504               10.19332035               90.88805193                1.00000000                0.00689620                0.07951513               -0.11920148               -0.00783337                0.02449760                0.72566608
              20.76703400                9.65029992               90.47994297                0.79240521               -0.00055772               -0.00961769                0.00809419               -0.00489013                0.04321584                0.00431092
              21.76695389                9.10731782               90.07257783                0.00010000               -0.58074757               -0.10301217                0.11491950               -0.21614638                0.22736965               -0.76909687
              22.75541905                8.55992881               89.66783236                0.00010000               -1.33237049               -0.41139257                1.10773518               -1.25436790               -0.09738587               -1.20144578
              23.74030648                8.01458389               89.25241121                0.00010000               -1.52164189               -0.60974487                1.32727596               -2.53436270               -1.63668444               -2.92277669
              24.72498621                7.46694320               88.82354657                0.00010000               -1.32145948               -0.89457707                0.83383859               -3.99126874               -3.36288396               -6.10707543
              25.71387729                6.91708625               88.38281267                0.00010000               -0.68224721               -1.32149680               -0.31259799               -5.00890378               -4.74621096              -10.68900964
              26.71134127                6.36589012               87.93451005                0.00010000                0.36985544               -1.87926038               -1.99804948               -5.21173561               -5.39858335              -16.29605594
              27.72127440                5.81456197               87.48509292                0.00010000                1.76450198               -2.51134733               -4.01007706               -4.32121959               -4.98242608              -22.26991743
              28.74663131                5.26503229               87.04272394                0.00010000                3.38033895               -3.10542020               -5.98255868               -2.37472545               -3.23337083              -27.68159323
              29.78888117                4.71657555               86.61548538                0.36869949                4.22498657               -3.21616232               -7.42863125                0.14439581               -1.04158620              -31.59651569
              20.31040530               11.19421010               90.75026904                1.00000000                0.00710726                0.08905544               -0.12980341               -0.00227918               -0.00171746                0.65859173
              21.31047638               10.65016760               90.33803724                0.76379807                0.00187510               -0.01813801                0.01810253               -0.00889409                0.00089531               -0.12488717
              22.31044281               10.10597072               89.92604515                0.00010000               -0.93884817               -0.13798533                0.14937158               -0.24012720                0.08870282               -0.94146927
              23.29169941                9.55737541               89.51537372                0.00010000               -2.23029830               -0.17678162                1.65182228               -1.00725204               -0.71694020               -1.29003904
              24.26583684                9.01025094               89.08428951                0.00010000               -2.56493086               -0.27600367                1.94403712               -1.95553734               -3.31534708               -2.85237941
              25.24040080                8.46075181               88.62823235                0.00010000               -2.16456959               -0.36289644                1.01457376               -3.09902956               -6.23555411               -5.70579063
              26.22254545                7.90815330               88.14931857                0.00010000               -1.07375119               -0.47777007               -1.01479362               -3.96303301               -8.60614256               -9.73471780
              27.21892577                7.35327695               87.65525442                0.00010000                0.60139475               -0.62951763               -3.91236848               -4.25481760               -9.69050313              -14.63034530
              28.23457334                6.79772702               87.15845743                0.00010000                2.61385853               -0.79312479               -7.29308459               -3.83496502               -8.85118396              -19.87141110
              29.27120294                6.24372949               86.67516914                0.00010000                4.38397527               -0.87956440              -10.56141469               -2.48757247               -5.53551487              -24.75325598
              30.32225285                5.69967241               86.22507015                0.36879482                5.10499057               -0.48471987              -12.85924295               -1.15224226               -2.28744568              -28.17975265
              20.85500445               12.19510146               90.61167963                1.00000000                0.00910431                0.08344509               -0.13272154               -0.00149889               -0.00832858                0.59725275
              21.85509550               11.64993716               90.19550441                0.78729950               -0.00304612               -0.02293552                0.02869574               -0.01061028               -0.02544216               -0.15859211
              22.85494353               11.10455812               89.77913118                0.00010000               -1.20508493               -0.13057039                0.19262354               -0.17219477               -0.04945744               -0.91994887
              23.83099380               10.55639318               89.36231842                0.00010000               -2.85620997               -0.05081928                2.03690545               -0.73102273               -1.21941149               -1.26527938
              24.79781933               10.00906382               88.91754741                0.00010000               -3.29452701                0.00449547                2.33209112               -1.43923268               -4.57867222               -2.62226571
              25.76510326                9.45968527               88.43877371                0.00010000               -2.78639229                0.12490000                1.03519551               -2.33398361               -8.31065874               -5.06448480
              26.74209148                8.90753084               87.92876158                0.00010000               -1.42160305                0.32572322               -1.69959214               -3.06412034              -11.32583499               -8.47932864
              27.73667120                8.35329977               87.39794387                0.00010000                0.60155371                0.59959537               -5.55374847               -3.40305828              -12.66464075              -12.61095917
              28.75412256                7.79869948               86.86338728                0.00010000                2.91316386                0.95104596              -10.01707464               -3.17370735              -11.48896581              -17.05718438
              29.79493447                7.24744101               86.34782306                0.00010000                4.99139652                1.42535410              -14.32760384               -2.13635513               -7.17241288              -21.22196046
              30.85395049                6.70688116               85.87795239                0.36922489                5.90160163                1.84161506              -17.44375557               -0.94752768               -3.12358119              -24.30428767
              21.40070391               13.19587900               90.47267797                1.00000000                0.01035954                0.07180792               -0.13613345               -0.00048397               -0.00901299                0.55830402
              22.40080751               12.64970889               90.05278268                0.81640486               -0.00805108               -0.02117500                0.03782053               -0.00806979               -0.02377514               -0.15787211
              23.40054289               12.10335931               89.63269382                0.00010000               -1.41171268               -0.10992580                0.21624139               -0.05958356               -0.11084629               -0.85776947
              24.37257326               11.55635903               89.21092825                0.00010000               -3.33913978                0.04250487                2.33176177               -0.42221502               -1.51743414               -1.17226115
              25.33376010               11.01034084               88.75535292                0.00010000               -3.86595787                0.23843259                2.61940610               -0.96874253               -5.42061232               -2.30085729
              26.29525410               10.46324981               88.25867764                0.00010000               -3.30557786                0.56067478                1.03262208               -1.66305440               -9.73620047               -4.28163137
              27.26764854                9.91466777               87.72424053                0.00010000               -1.77790638                1.04992409               -2.24735444               -2.24812810              -13.20875978               -7.01566293
              28.25969597                9.36526886               87.16465065                0.00010000                0.46547094                1.70490361               -6.84293474               -2.53652156              -14.72900718              -10.30428499
              29.27695796                8.81674794               86.60062265                0.00010000                3.02990959                2.49841979              -12.15596833               -2.36514457              -13.33634100              -13.82859961
              30.32029416                8.27223657               86.05955128                0.00010000                5.37320183                3.33829279              -17.31878478               -1.54772475               -8.30644267              -17.13331806
              31.38442200                7.73650471               85.57328303                0.36972677                6.41278322                3.97253340              -21.16780302               -0.70166792               -3.70471974              -19.62611938
              21.94733499               14.19653762               90.33343805                1.00000000                0.01187915                0.06142654               -0.14139214               -0.00015893               -0.00845375                0.52651191
              22.94745378               13.64951366               89.91005144                0.83833855               -0.01166355               -0.01780387                0.04371103               -0.00490729               -0.01780862               -0.14347342
              23.94710172               13.10235960               89.48654660                0.00010000               -1.59429092               -0.09307097                0.23221308                0.08349223               -0.03558716               -0.80506140
              24.91556796               12.55724328               89.06267112                0.00010000               -3.77740134                0.15160061                2.58619878               -0.09875905               -1.51319363               -1.03324080
              25.87155369               12.01383247               88.60006576                0.00010000               -4.40263587                0.46337982                2.89782111               -0.53820100               -5.85129705               -1.90619810
              26.82751525               11.47089876               88.09053918                0.00010000               -3.82219109                0.93856970                1.11585127               -1.07974123              -10.63686452               -3.38500524
              27.79510987               10.92852933               87.53795371                0.00010000               -2.18273300                1.64853645               -2.55895401               -1.51175137              -14.49206393               -5.39036982
              28.78386059               10.38739784               86.95668164                0.00010000                0.23710414                2.59414085               -7.70723604               -1.71389612              -16.19270222               -7.77673112
              29.79985196                9.84866787               86.37036254                0.00010000                3.01813106                3.70094941              -13.66635910               -1.57122018              -14.66653939              -10.30354335
              30.84422321                9.31420686               85.81010887                0.00010000                5.57644482                4.83214077              -19.48873227               -0.99834916               -9.12037621              -12.60210209
              31.91138085                8.78633182               85.31161506                0.36987300                6.71576430                5.77118395              -23.92180391               -0.46090199               -4.12589994              -14.23199304
              22.49474864               15.19710753               90.19400246                1.00000000                0.01387363                0.05463478               -0.14893595               -0.00009535               -0.00157992                0.48562482
              23.49488738               14.64935281               89.76741425                0.87401925               -0.01327593               -0.01489393                0.04547745               -0.00253718               -0.01282509               -0.12702316
              24.49448312               14.10149789               89.34064383                0.00010000               -1.78810860               -0.08174132                0.23986772                0.27749526                0.24292597               -0.67393695
              25.45912521               13.55939104               88.91900176                0.00010000               -4.25712663                0.32608079                2.85826855                0.26202552               -1.11145398               -0.82245669
              26.40934059               13.01960844               88.45376529                0.00010000               -5.00813930                0.70033603                3.26368968               -0.19840420               -5.87877802               -1.41516202
              27.35896242               12.48202120               87.93649742                0.00010000               -4.42130774                1.23028660                1.39559664               -0.61341575              -11.11923096               -2.38470758
              28.32091444               11.94763849               87.37142718                0.00010000               -2.68414599                2.08094117               -2.53738938               -0.89486617              -15.39180256               -3.64531745
              29.30527950               11.41715168               86.77449283                0.00010000               -0.10949503                3.21598177               -8.07757488               -1.01293660              -17.33603651               -5.13340992
              30.31872454               10.89076693               86.17185090                0.00010000                2.86918655                4.52670953              -14.50668655               -0.91550935              -15.75853038               -6.68164729
              31.36266323               10.36887939               85.59808967                0.00010000                5.61147486                5.85730994              -20.79858850               -0.56170933               -9.79626220               -7.96455881
              32.43095403                9.85192839               85.09236099                0.36998595                6.82908011                7.04478263              -25.61874200               -0.27684896               -4.49870334               -8.51797604
              23.04284252               16.19763031               90.05417188                1.00000000                0.01701533                0.05268553               -0.15960574               -0.00027468                0.03150610                0.37266980
              24.04301267               15.64921578               89.62484836                0.73046052               -0.01145608               -0.01341295                0.04380380               -0.00077879                0.08537040               -0.12798415
              25.04261340               15.10072478               89.19662836                0.00010000               -2.01573728               -0.07451005                0.23494781                0.57296879                0.81395665               -0.51421058
              26.00269793               14.56376489               88.78168200                0.00010000               -4.88289781                0.66502415                3.23574153                0.49048199               -0.26910036               -0.42598612
              26.94495544               14.02783919               88.31888518                0.00010000               -5.77405246                0.84660043                3.85681892               -0.00452303               -5.46002818               -0.83155776
              27.88721688               13.49550450               87.79837291                0.00010000               -5.14366834                1.38817714                1.99904074               -0.28621801              -11.31873917               -1.27890385
              28.84208208               12.97014815               87.22553746                0.00010000               -3.33717297                2.31228660               -2.08199419               -0.41204695              -16.14625374               -1.84465085
              29.82047342               12.45171748               86.61753982                0.00010000               -0.61340089                3.54996080               -7.89568624               -0.46898544              -18.47837969               -2.51691205
              30.82981406               11.93920207               86.00263457                0.00010000                2.56770713                4.97187847              -14.67112960               -0.43022704              -16.97815149               -3.21114943
              31.87182756               11.43135306               85.41896875                0.00010000                5.49659039                6.40724983              -21.29359417               -0.26248012              -10.59996429               -3.71619862
              32.93974587               10.92722748               84.91118728                0.37045911                6.79183040                7.70991299              -26.28457959               -0.15557810               -4.96961537               -3.39044806
              23.59157220               17.19816124               89.91268230                1.00000000                0.02051360                0.05309270               -0.17279049               -0.03470061                0.19180708                0.28097993
              24.59177734               16.64908455               89.48205908                0.80761148               -0.00894058               -0.01312335                0.03579728               -0.03121087                0.29467201               -0.13219585
              25.59139339               16.10000769               89.05350193                0.36137368               -2.49784541               -0.07170830                0.22471843                1.05834760                1.91343722               -0.45050960
              26.54182043               15.57269152               88.65502882                0.36108259               -5.69414317                0.89266271                3.95515178                0.73888802                1.60774865               -0.67543906
              27.47751053               15.03654045               88.19779067                0.36099555               -6.54456635                0.87012578                4.86001125                0.11016976               -4.68345650               -0.88360987
              28.41092910               14.50978475               87.67765820                0.36112372               -6.05250054                1.42802511                3.08044551                0.23841124              -11.45128287               -0.99371670
              29.35646052               13.99388423               87.10028324                0.36160635               -4.20416137                2.37360775               -1.09792575                0.35615132              -17.06682362               -1.07181548
              30.32684588               13.48815089               86.48405171                0.36278598               -1.29880527                3.64334165               -7.13103308                0.45325927              -19.97101517               -1.13601789
              31.33048441               12.99020450               85.85874529                0.36483217                2.12711713                5.10024349              -14.20028536                0.51070979              -18.79448318               -1.14997543
              32.36938822               12.49702438               85.26438029                0.36793795                5.28046143                6.56713236              -21.14256444                0.55217311              -12.19634344               -1.02528197
              33.43609364               12.00612665               84.75333866                0.68501195                6.67054214                7.88991745              -26.26532319                0.54500396               -6.29284368               -0.02852996
              18.53852764                7.33672922               92.30255646                1.00000000               -0.02264111                0.00534931                0.03578996               -0.00440274               -0.45643117                0.41332935
              19.53830123                6.79181553               91.90088263                1.00000000               -0.03324389               -0.02488306                0.10498501               -0.00640240               -0.62903517                0.06297609
              20.53786276                6.24683339               91.49587207                1.00000000               -0.05808828               -0.05611536                0.19888886               -0.00295128               -0.66994709               -0.04605704
              21.53713946                5.70197979               91.09294981                0.69446902               -0.11492701               -0.06525871                0.26134498               -0.00905901               -0.64192841               -0.25797711
              22.53556422                5.15698052               90.68781366                0.69185004               -0.17011123               -0.05960070                0.34465948               -0.01346333               -0.48490737               -0.11956921
              23.53373724                4.61182958               90.28693903                0.70533720               -0.16687806               -0.06136846                0.34075665               -0.01495026               -0.07965497               -0.08991867
              24.53222666                4.06644190               89.88928261                0.74483708               -0.12574238               -0.04149549                0.24665335               -0.02801274                0.20124224               -0.08490397
              25.53122239                3.52100438               89.49401520                0.82891501               -0.06943041                0.00326238                0.07867447               -0.02745274                0.34585987               -0.07932585
              26.53083805                2.97579109               89.09978453                1.00000000                0.01385672                0.05768833               -0.16153230               -0.01800118                0.27555758               -0.06765828
              27.53149952                2.43067556               88.70342894                1.00000000                0.10724475                0.12160226               -0.39816794               -0.02536654                0.11644114               -0.02084611
              28.53298295                1.88559130               88.30646404                1.00000000                0.14834222                0.19276091               -0.65172859               -0.03123790                0.03036267               -0.13340199
              19.08339731                8.33678271               92.16192959                1.00000000               -0.02121845                0.02528649                0.00777627               -0.01817995               -0.12530735                0.55974341
              20.08318512                7.79156670               91.76022864                1.00000000               -0.03230954               -0.01757183                0.07541593               -0.02101785               -0.19584864                0.09343537
              21.08275112                7.24627223               91.35744241                1.00000000               -0.06049073               -0.05490556                0.15496517               -0.00599414               -0.22172915               -0.13290375
              22.08197531                6.70132721               90.95527957                1.00000000               -0.11232108               -0.04975139                0.22460288               -0.00892869               -0.15944507               -0.18475552
              23.08050469                6.15638451               90.55359551                1.00000000               -0.15591324               -0.05283448                0.28742004               -0.00721923               -0.01299956               -0.06990702
              24.07885704                5.61121590               90.15452106                1.00000000               -0.15727806               -0.05208691                0.28765902               -0.00713310                0.23150394               -0.04566249
              25.07735913                5.06602695               89.75796709                1.00000000               -0.12918871               -0.03254959                0.21568849               -0.00571824                0.44523608               -0.03631017
              26.07627327                4.52103700               89.36353786                1.00000000               -0.07683408                0.00840809                0.06884049                0.00111553                0.58077305               -0.03700002
              27.07582245                3.97636797               88.97025228                1.00000000                0.00362433                0.06029149               -0.14748927                0.01263768                0.53167714               -0.06056628
              28.07634575                3.43189158               88.57543189                1.00000000                0.09661868                0.12178890               -0.38627059                0.01019765                0.32097268               -0.03776285
              29.07775482                2.88751891               88.17848553                1.00000000                0.14090700                0.18900308               -0.61899053                0.00680593                0.16701287               -0.17866897
              19.62859608                9.33723495               92.02447871                1.00000000               -0.02047233                0.06421319               -0.03284454               -0.01513302               -0.04333127                0.72920020
              20.62839135                8.79146409               91.62030164                1.00000000               -0.03068537               -0.00654179                0.04166173               -0.00811756               -0.00534212                0.11555083
              21.62798237                8.24573527               91.21735701                0.00010000               -0.07713707               -0.07243979                0.11799455                0.06803681                0.25312460               -0.40578712
              22.62684861                7.70098476               90.81875666                0.00010000               -0.12256113               -0.07549592                0.18544359               -0.34803706                0.38433117               -0.14832527
              23.62553115                7.15592383               90.41979056                0.00010000               -0.14482367               -0.16065232                0.23089018               -1.19941095                0.36987180               -0.87162265
              24.62395214                6.61078784               90.02217178                0.00010000               -0.16199794               -0.43389473                0.23808385               -2.10291384                0.49071667               -2.76125435
              25.62229119                6.06579091               89.62671214                0.00010000               -0.15242324               -0.88854736                0.18436464               -2.75828906                0.66248373               -5.71431728
              26.62090367                5.52117254               89.23326495                0.00010000               -0.10274792               -1.49303339                0.05683448               -2.89191015                0.79501486               -9.46220212
              27.62023623                4.97699692               88.84078055                0.00010000               -0.01755651               -2.20202187               -0.13810885               -2.25911075                0.80776180              -13.54827011
              28.62055254                4.43311133               88.44772309                0.00010000                0.08140886               -2.90411211               -0.37660771               -0.62849198                0.57671476              -17.24000885
              29.62186441                3.88937136               88.05096359                0.36582867                0.13118631               -3.77202671               -0.59293981                2.25135277                0.35423852              -19.80026603
              20.17463637               10.33806698               91.88714982                1.00000000               -0.01139203                0.09106418               -0.06473879                0.00110521                0.01653399                0.71798107
              21.17452245                9.79143586               91.48004762                0.83432274               -0.00225951               -0.00917214                0.01348250                0.01104866                0.02626290                0.02242095
              22.17459118                9.24482344               91.07348134                0.00010000               -0.48482165               -0.11348486                0.07099016                0.11531235                0.77385808               -0.73138202
              23.16482601                8.69981729               90.68106313                0.00010000               -1.39388898               -0.11439670                1.61350344               -0.61547843                0.83069674                0.00040497
              24.14671340                8.15317146               90.26870314                0.00010000               -1.89471660               -0.25329174                2.03387217               -2.24439535               -1.47399540               -1.49491185
              25.12693168                7.60253800               89.83457266                0.00010000               -1.74523726               -0.67286262                1.47982010               -4.05826596               -3.92599470               -5.23837055
              26.11180865                7.04825600               89.38105193                0.00010000               -0.98513139               -1.38066966                0.05775513               -5.41010230               -5.95539675              -11.05070307
              27.10722905                6.49117634               88.91375833                0.00010000                0.34463951               -2.34224278               -2.09276491               -5.83140090               -7.09124023              -18.40958787
              28.11870144                5.93232754               88.44143370                0.00010000                2.20862104               -3.48698138               -4.74105699               -4.90890053               -6.82251708              -26.45806612
              29.15140147                5.37380934               87.97617243                0.00010000                4.57801922               -4.71836907               -7.46833661               -2.68001266               -4.61173330              -33.98028062
              30.21026183                4.81207837               87.53166102                0.36628822                5.88603520               -5.52376121               -9.61878715                0.55588332               -1.61270148              -39.76561785
              20.72188042               11.33905623               91.74920564                1.00000000               -0.00245482                0.09360080               -0.08503312                0.00527354               -0.00293104                0.66071660
              21.72185587               10.79128065               91.33818741                0.80966045                0.00133865               -0.01598979                0.01427027                0.00985845               -0.00555765               -0.08843056
              22.72190719               10.24346558               90.92730081                0.00010000               -0.78324257               -0.13065702                0.10646837                0.15250966                0.96384155               -0.86276661
              23.70619102                9.69869683               90.53552965                0.00010000               -2.19923319               -0.12908247                2.49967737               -0.32840952                0.74996188               -0.34153261
              24.67792253                9.15085799               90.10890507                0.00010000               -2.92443673               -0.22302207                3.14340835               -1.57650439               -2.99945355               -1.75047280
              25.64770228                8.59733059               89.64303300                0.00010000               -2.62358592               -0.39280450                2.11221726               -2.96987517               -7.07772985               -5.11933979
              26.62545081                8.03817752               89.14151787                0.00010000               -1.37490820               -0.65632400               -0.40560176               -4.04707761              -10.46745181              -10.22282131
              27.62020412                7.47432769               88.61461945                0.00010000                0.69872049               -1.01339754               -4.14214328               -4.50769132              -12.27423211              -16.63388430
              28.63942522                6.90725729               88.07892599                0.00010000                3.34986671               -1.44049646               -8.67169659               -4.19354985              -11.59114867              -23.69388588
              29.68720145                6.33874395               87.55721023                0.00010000                5.85093903               -1.84290405              -13.29277857               -2.81371343               -7.45354353              -30.54859839
              30.75644400                5.77889614               87.07897943                0.36649219                6.92425451               -1.57440186              -16.86953871               -1.36771862               -3.17670511              -35.82540121
              21.27029301               12.33993899               91.61054340                1.00000000                0.00172607                0.07955186               -0.09558618                0.00587604               -0.00843019                0.60384644
              22.27031027               11.79111606               91.19574529                0.82760721               -0.00339128               -0.01485562                0.02180723                0.00554406               -0.02295608               -0.12146439
              23.27022519               11.24221030               90.78079936                0.00010000               -0.97224320               -0.11114766                0.14488223                0.18495101                1.05072390               -0.84953070
              24.25086541               10.69723564               90.38735878                0.00010000               -2.68378180               -0.17455056                3.11757582               -0.09499425                0.62816203               -0.52662958
              25.21654955               10.14871102               89.94748040                0.00010000               -3.53253779               -0.21022665                3.85194015               -1.05104331               -4.13114292               -1.81399108
              26.18021465                9.59468191               89.45501532                0.00010000               -3.13397733               -0.14188348                2.40894286               -2.11872989               -9.26191248               -4.71774955
              27.15387000                9.03512952               88.91458562                0.00010000               -1.61096010                0.03551227               -0.98003761               -2.99248896              -13.49483821               -9.04400318
              28.14799545                8.47090838               88.34008917                0.00010000                0.82720867                0.30951982               -5.95285555               -3.48617252              -15.67353080              -14.45615791
              29.17041418                7.90351761               87.75408056                0.00010000                3.77464555                0.68107688              -11.94954550               -3.41364479              -14.64797659              -20.47527989
              30.22348836                7.33695126               87.18766784                0.00010000                6.60944544                1.23146386              -18.07438285               -2.43527864               -9.36725234              -26.40444547
              31.30260309                6.78059034               86.67933728                0.36701954                7.91147242                1.76893542              -22.99654140               -1.12299196               -4.16008629              -31.28301420
              21.81964380               13.34064727               91.47148372                1.00000000                0.00516513                0.06308951               -0.10326091                0.00480638               -0.00876293                0.56465777
              22.81969545               12.79098353               91.05310742                0.84912515               -0.00785799               -0.01192282                0.02926748                0.00423551               -0.02080876               -0.12518705
              23.81948664               12.24124262               90.63459065                0.00010000               -1.09525205               -0.08591956                0.16742381                0.17529663                1.15545582               -0.80284601
              24.79779041               11.69520582               90.23963788                0.00010000               -3.00156249               -0.22072308                3.56939358                0.01588948                0.63041346               -0.65488834
              25.75945539               11.14665346               89.78913213                0.00010000               -3.94406101               -0.19086108                4.34801739               -0.67415213               -4.83929860               -1.78424498
              26.71890919               10.59449292               89.27568655                0.00010000               -3.50404161                0.10228418                2.57400072               -1.44435145              -10.69562124               -4.15994379
              27.68937455               10.03888776               88.70480058                0.00010000               -1.84083033                0.68515548               -1.48580327               -2.10194651              -15.49682596               -7.62424097
              28.68209258                9.48051808               88.09316299                0.00010000                0.78674477                1.53369834               -7.40763112               -2.50930829              -17.92531179              -11.93566109
              29.70510945                8.92087883               87.46788952                0.00010000                3.96652852                2.60782908              -14.54163142               -2.48621529              -16.69692957              -16.73337544
              30.76142315                8.36337323               86.86585760                0.00010000                7.07982729                3.80058014              -21.88444099               -1.73515382              -10.63783397              -21.50312896
              31.84670599                7.81427485               86.33200608                0.36718177                8.52828453                4.79736712              -27.97555235               -0.83023415               -4.81532398              -25.53691941
              22.36971661               14.34120078               91.33217730                1.00000000                0.00830176                0.05033141               -0.11102775                0.00316991               -0.00773692                0.53108410
              23.36979963               13.79087761               90.91042997                0.86025765               -0.01038892               -0.00983378                0.03383780                0.00326692               -0.01498098               -0.11743398
              24.36950883               13.24049190               90.48860771                0.00010000               -1.20136335               -0.06918709                0.18334243                0.13001614                1.37009483               -0.76157301
              25.34577236               12.69282118               90.09444755                0.00010000               -3.28647135               -0.23218127                3.93232124                0.02319111                0.89884902               -0.73807812
              26.30377941               12.14489380               89.63734521                0.00010000               -4.33395216               -0.14528637                4.77209847               -0.41686920               -5.11605911               -1.67181932
              27.25909332               11.59672759               89.10898562                0.00010000               -3.89867479                0.33327981                2.77684911               -0.90003765              -11.53787305               -3.46035506
              28.22580591               11.04883263               88.51560265                0.00010000               -2.16375521                1.24795497               -1.76404531               -1.32202953              -16.80309246               -5.99589545
              29.21581822               10.50158235               87.87607559                0.00010000                0.60144057                2.54914238               -8.38540760               -1.59606763              -19.47375528               -9.11945707
              30.23783472                9.95567419               87.22110167                0.00010000                3.97855273                4.13109305              -16.37448157               -1.57188044              -18.13772575              -12.57329879
              31.29538927                9.41296286               86.59209809                0.00010000                7.31802249                5.82415920              -24.64905493               -1.07642578              -11.53251903              -15.94105935
              32.38419517                8.87653768               86.03879647                0.36746032                8.88059019                7.34308584              -31.65384294               -0.53535278               -5.28111148              -18.69460257
              22.92035355               15.34165390               91.19265583                1.00000000                0.01161187                0.04353958               -0.12065054                0.00106480               -0.00081309                0.48744794
              23.92046966               14.79078686               90.76780014                0.88641872               -0.01050778               -0.00850236                0.03353725                0.00161419               -0.01145084               -0.10805500
              24.92014339               14.23985888               90.34277714                0.00010000               -1.33086658               -0.06040354                0.19017870                0.07923975                1.79736538               -0.64521673
              25.89385233               13.69056219               89.95395298                0.00010000               -3.64659034               -0.19148847                4.29468773               -0.01644035                1.59239188               -0.72046380
              26.84721158               13.14374773               89.49539184                0.00010000               -4.84413649               -0.08661472                5.27403818               -0.24978944               -4.93925863               -1.40931969
              27.79696960               12.60115852               88.95843523                0.00010000               -4.45661886                0.52162543                3.19264283               -0.47267711              -11.90723686               -2.59103784
              28.75807921               12.06384686               88.34975516                0.00010000               -2.68199684                1.67455023               -1.65518521               -0.68146312              -17.69382989               -4.16750137
              29.74332967               11.53150093               87.69019828                0.00010000                0.21060634                3.28046730               -8.76374747               -0.83974849              -20.69137218               -6.10166044
              30.76229133               11.00350069               87.01355106                0.00010000                3.78507385                5.19477266              -17.36413904               -0.83563209              -19.34110247               -8.21987866
              31.81903114               10.47985641               86.36552179                0.00010000                7.32789820                7.22594715              -26.29297454               -0.56063276              -12.28954480              -10.14247328
              32.90884930                9.96113656               85.80016936                0.36764248                8.98181535                9.15924880              -33.90621430               -0.31634647               -5.70331488              -11.29769096
              23.47147199               16.34207158               91.05270939                1.00000000                0.01549422                0.04299722               -0.13315408               -0.00068200                0.03221240                0.37161432
              24.47162693               15.79070756               90.62519422                0.73394172               -0.00768476               -0.00737959                0.02738525                0.00032553                0.08153732               -0.11614268
              25.47131829               15.23928383               90.19869853                0.00010000               -1.50361123               -0.05516494                0.18300085                0.05609128                2.58109967               -0.49736305
              26.44155471               14.68899141               89.82100663                0.00010000               -4.15654991               -0.14314299                4.79430811               -0.00026190                2.85176246               -0.40208643
              27.38818730               14.14316150               89.36744827                0.00010000               -5.60070298               -0.07282076                6.07477398               -0.12608565               -4.18940605               -0.95296093
              28.32954065               13.60716010               88.82746489                0.00010000               -5.31765302                0.62674188                4.02745964               -0.17569361              -11.96692855               -1.48243992
              29.28183424               13.08232363               88.20944294                0.00010000               -3.50856158                1.91261085               -0.98806668               -0.24446470              -18.48233423               -2.16985743
              30.25936942               12.56719170               87.53581049                0.00010000               -0.45338200                3.67823618               -8.42761500               -0.32736783              -22.00091677               -3.03051978
              31.27276660               12.05956964               86.84301371                0.00010000                3.35856645                5.76761434              -17.46377812               -0.35119359              -20.78685742               -3.97791503
              32.32654075               11.55748180               86.18125864                0.00010000                7.12706757                7.97339900              -26.83603987               -0.23957325              -13.25377948               -4.75752999
              33.41530795               11.05972266               85.61163336                0.36762774                8.87672023               10.12147529              -34.73946973               -0.19317807               -6.27116295               -4.55233976
              24.02306794               17.34251384               90.91107992                1.00000000                0.01959816                0.04422686               -0.14752769               -0.02786313                0.19014229                0.27868467
              25.02326392               16.79063927               90.48230445                0.80870122               -0.00432826               -0.00682934                0.01550303               -0.02421455                0.28551018               -0.12483564
              26.02298137               16.23875558               90.05545898                0.36161921               -1.66472467               -0.05282504                0.17118573                0.01931088                4.10493400               -0.43847117
              26.98996942               15.68769933               89.70287757                0.36081783               -4.82300979               -0.12920725                5.80938970                0.01825824                5.69784417               -1.02934103
              27.92652117               15.14229132               89.25820622                0.36100341               -6.78379106               -0.08701892                7.47792487                0.13308877               -2.96444362               -1.28330695
              28.85429360               14.61369335               88.71955250                0.36079116               -6.66814283                0.65332508                5.54160641                0.46568358              -12.03029599               -1.37859537
              29.79315832               14.10209908               88.09594873                0.36148943               -4.73786507                1.97754449                0.41258171                0.70102313              -19.61492167               -1.43553082
              30.75953630               13.60506565               87.41168193                0.36195324               -1.40904805                3.78739556               -7.28895118                0.85438347              -23.88987117               -1.49498332
              31.76497736               13.11885298               86.70525808                0.36319424                2.72751820                5.92833361              -16.67732606                0.93401313              -23.10707892               -1.51153396
              32.81408667               12.63932439               86.02927080                0.36564695                6.77633353                8.18425928              -26.43853971                0.99024646              -15.30809129               -1.37198520
              33.90050403               12.16356607               85.45483782                0.68389725                8.64173623               10.38434124              -34.52496544                0.94377535               -7.98363815               -0.11768106
              18.93547683                7.48152300               93.30322253                1.00000000               -0.02551413               -0.00500845                0.08863362               -0.01692617               -0.42106558                0.39152169
              19.93522169                6.93323806               92.90201370                1.00000000               -0.02198763               -0.03046936                0.11663252               -0.02156282               -0.57497682                0.06020452
              20.93503708                6.38504862               92.49775820                0.97666963               -0.02723285               -0.06173706                0.18026588               -0.01341988               -0.61987280               -0.04421217
              21.93467704                5.83740885               92.09518583                0.70162671               -0.06510675               -0.05367892                0.19741191                0.01551496               -0.59025963               -0.22545777
              22.93373495                5.29039221               91.69080690                0.70889521               -0.11577308               -0.03795717                0.26017735                0.01628623               -0.44180500               -0.10032758
              23.93236157                4.74373054               91.28978960                0.72978224               -0.13428621               -0.03055476                0.24085404                0.01852504               -0.09707042               -0.06853302
              24.93104922                4.19720887               90.89122962                0.77177469               -0.11431147               -0.00797767                0.15621766                0.01443355                0.14780926               -0.05890472
              25.93007534                3.65084480               90.49449445                0.84807911               -0.06351452                0.02309688                0.02405960                0.01127139                0.27440426               -0.06169831
              26.92977893                3.10460543               90.09817371                1.00000000                0.00965835                0.05704073               -0.14616312               -0.00071736                0.21132061               -0.05375021
              27.93026851                2.55838473               89.69999782                1.00000000                0.07516392                0.09363137               -0.29351873               -0.01312087                0.07194033               -0.02091574
              28.93128221                2.01216848               89.30118547                1.00000000                0.10136985                0.13215974               -0.43960884               -0.01500780                0.00067998               -0.12489116
              19.48359251                8.48147292               93.16231485                1.00000000               -0.03492563                0.02302812                0.06120591               -0.02736459               -0.10899678                0.53498192
              20.48324325                7.93293337               92.76106596                1.00000000               -0.03875095               -0.01930360                0.08858974               -0.03384220               -0.16669809                0.08893685
              21.48281749                7.38443125               92.35889132                1.00000000               -0.05414322               -0.05861646                0.13515174               -0.00481529               -0.18417189               -0.12993904
              22.48216039                6.83687206               91.95724218                1.00000000               -0.10402663               -0.02778246                0.17239315                0.01051312               -0.11856924               -0.16055937
              23.48073696                6.29001264               91.55610799                1.00000000               -0.15109481               -0.02432328                0.21702738                0.01693967                0.01876318               -0.06377777
              24.47913849                5.74342500               91.15696541                1.00000000               -0.15502642               -0.01819405                0.20511340                0.01880817                0.22640540               -0.03955677
              25.47763643                5.19712910               90.75971216                1.00000000               -0.13243559                0.00015893                0.13903172                0.02142481                0.40604859               -0.03034713
              26.47648978                4.65107577               90.36397649                1.00000000               -0.08173206                0.02764279                0.02161328                0.02197468                0.51296251               -0.03785271
              27.47600179                4.10517583               89.96878612                1.00000000               -0.00670023                0.06008624               -0.13946166                0.01516789                0.46287065               -0.05543039
              28.47635578                3.55932105               89.57204697                1.00000000                0.06733000                0.09562257               -0.29609661                0.00540027                0.27239914               -0.03558658
              29.47734839                3.01349007               89.17333094                1.00000000                0.09926120                0.13231849               -0.43485777                0.00555250                0.13746374               -0.15886637
              20.03200864                9.48198357               93.02444119                1.00000000               -0.04221228                0.07400624                0.01843290               -0.01777610               -0.03562328                0.70294028
              21.03158651                8.93285199               92.62078111                1.00000000               -0.05032741               -0.00353981                0.05229262               -0.00613896                0.00976339                0.10995332
              22.03100209                8.38387629               92.21841608                0.00010000               -0.11403032               -0.08424346                0.09437624                0.12996218                0.27821023               -0.40951632
              23.02930591                7.83685320               91.82041991                0.00010000               -0.17406450                0.31459337                0.14478645                0.03401232                0.41941121                0.74988324
              24.02752080                7.28990575               91.42182805                0.00010000               -0.18423136                0.27792514                0.17393744               -0.84532242                0.40296874                0.26487485
              25.02562128                6.74336666               91.02424433                0.00010000               -0.18469256               -0.10552138                0.17349069               -1.88573302                0.51232872               -1.92199125
              26.02382695                6.19721205               90.62825871                0.00010000               -0.15765900               -0.79313254                0.12328728               -2.70108803                0.65649737               -5.64258001
              27.02246810                5.65139765               90.23364130                0.00010000               -0.09949704               -1.73659497                0.01813315               -2.93799934                0.75387234              -10.54660305
              28.02183701                5.10580715               89.83945107                0.00010000               -0.02029126               -2.89603110               -0.13158858               -2.23461488                0.73524501              -16.04708961
              29.02206228                4.56029719               89.44434534                0.00010000                0.06091000               -4.16907551               -0.30339361               -0.15893810                0.51172637              -21.21101919
              30.02305521                4.01481485               89.04585234                0.36381817                0.09929314               -6.01213558               -0.43896808                3.86684395                0.31236844              -24.95119934
              20.58150013               10.48295304               92.88675716                1.00000000               -0.02723878                0.10236438               -0.01908274                0.00967838                0.01319839                0.70056713
              21.58122775                9.93286257               92.48021262                0.87962141               -0.00423019               -0.00753381                0.01927187                0.02384379                0.01559743                0.03377366
              22.58141553                9.38274638               92.07399763                0.00010000               -0.22082823               -0.12394631                0.03759232                0.58383254                1.65846378               -0.69859874
              23.57681118                8.84316392               91.70010243                0.00010000               -1.20492435                0.36979576                2.27356681                0.43066188                2.40930937                1.82650839
              24.55731704                8.29557114               91.29308865                0.00010000               -2.13468271                0.32792372                2.94505837               -1.55128652               -0.86620489                0.77681730
              25.53411753                7.74131457               90.85314298                0.00010000               -2.08666822               -0.27221544                2.34299351               -3.68462906               -4.18567855               -3.57555762
              26.51558368                7.18126645               90.38396777                0.00010000               -1.24914160               -1.35244309                0.63643964               -5.35938464               -7.00782373              -10.89064509
              27.50913470                6.61634387               89.89265475                0.00010000                0.34131398               -2.85646131               -2.03621302               -6.02231588               -8.82756768              -20.49600725
              28.52240996                6.04725521               89.39027178                0.00010000                2.75173117               -4.73023495               -5.47394887               -5.10408741               -8.93471347              -31.35208326
              29.56416932                5.47593954               88.89335721                0.00010000                6.16199939               -6.95175371               -9.23160547               -2.69957473               -6.35858862              -41.93412478
              30.64564995                4.89324736               88.42310964                0.36407128                8.14806271               -8.96633597              -12.44616826                1.33703981               -2.37995571              -50.83834101
              21.13238314               11.48403085               92.74856838                1.00000000               -0.01130917                0.09736295               -0.04609261                0.01364307               -0.00278809                0.65282396
              22.13227005               10.93270132               92.33832265                0.85433039               -0.00028759               -0.01373539                0.01414213                0.02595898               -0.00595816               -0.05690318
              23.13237739               10.38139737               91.92817452                0.00010000               -0.35878331               -0.12343581                0.07274262                0.72383894                2.37047332               -0.78294891
              24.12509439                9.84424911               91.56536727                0.00010000               -1.70164836               -0.07057817                3.58842645                0.75658349                3.25934078                1.08619432
              25.09834442                9.29646422               91.14715768                0.00010000               -2.94304935               -0.15071026                4.66104336               -0.80519341               -1.90220796               -0.00071644
              26.06623340                8.73792235               90.67047670                0.00010000               -2.83672333               -0.43189199                3.53583611               -2.38293858               -7.32301629               -3.93783796
              27.04160996                8.17016319               90.14120653                0.00010000               -1.51001900               -0.89491856                0.49903517               -3.60583691              -11.92313692              -10.34259391
              28.03603302                7.59426843               89.57241155                0.00010000                0.92748155               -1.53553978               -4.18166426               -4.21948963              -14.71884819              -18.67429211
              29.06015959                7.01120245               88.98502350                0.00010000                4.30228062               -2.35124324              -10.11656382               -4.09159568              -14.49047291              -28.16570329
              30.12207863                6.42126211               88.40931356                0.00010000                7.75103829               -3.26174058              -16.54949614               -2.87754737               -9.63326380              -37.86560933
              31.21518035                5.83548813               87.88767938                0.36444185                9.31017236               -3.25265709              -22.02120892               -1.48940238               -4.21432533              -46.19827283
              21.68443207               12.48490030               92.60976791                1.00000000               -0.00516574                0.07537015               -0.06184737                0.01366263               -0.00730859                0.60317374
              22.68438041               11.93258787               92.19594056                0.86401690               -0.00437777               -0.00904270                0.01883051                0.01958614               -0.01783625               -0.08677303
              23.68434451               11.38027767               91.78202883                0.00010000               -0.37522074               -0.09516624                0.10561795                0.69543236                2.80998326               -0.77906092
              24.67687600               10.84175236               91.42466994                0.00010000               -1.84022906               -0.40383107                4.48389951                0.89124625                3.79297811                0.56106349
              25.64753993               10.29255694               90.99458621                0.00010000               -3.20581048               -0.58365431                5.74103573               -0.32472975               -2.65282267               -0.54690499
              26.61275979                9.73267673               90.48695257                0.00010000               -3.02095324               -0.59208612                4.14883837               -1.48745172               -9.35980392               -3.96631660
              27.58712087                9.16336807               89.90916082                0.00010000               -1.45270731               -0.44986398                0.05369918               -2.42090197              -14.99698699               -9.38893315
              28.58370564                8.58563307               89.27888676                0.00010000                1.32317462               -0.18496015               -6.18144541               -3.05349755              -18.29626621              -16.40714105
              29.61358436                8.00023035               88.62439637                0.00010000                4.93135277                0.19284359              -14.04072950               -3.23815885              -17.75221123              -24.51021357
              30.68233270                7.41070473               87.98633541                0.00010000                8.69127537                0.82408145              -22.57010498               -2.53469149              -11.68693677              -32.96461141
              31.78740987                6.82819422               87.41802156                0.36445128               10.50771711                1.54095057              -30.14117803               -1.21914008               -5.27662385              -40.72274104
              22.23728127               13.48553826               92.47061275                1.00000000                0.00031428                0.05434448               -0.07250544                0.01036209               -0.00733954                0.56673311
              23.23728441               12.93252046               92.05336803                0.87516420               -0.00798612               -0.00578047                0.02441673                0.01495612               -0.01581834               -0.09467855
              24.23712154               12.37949404               91.63604230                0.00010000               -0.33221858               -0.06680091                0.12717716                0.48967772                3.16444683               -0.74728171
              25.23064004               11.83617249               91.28231612                0.00010000               -1.80980422               -0.67928717                5.10947470                0.66142710                4.28050849                0.07951457
              26.20092546               11.28479114               90.84231327                0.00010000               -3.24834052               -0.92102809                6.45789306               -0.14686768               -3.04641478               -0.99467599
              27.16567323               10.72608063               90.31015766                0.00010000               -3.03449422               -0.68668729                4.48103998               -0.89423358              -10.59849403               -3.81614983
              28.14023558               10.16116591               89.69452447                0.00010000               -1.37862161                0.01443796               -0.42721559               -1.53371082              -16.89286956               -8.15110357
              29.13810080                9.59056922               89.01649803                0.00010000                1.50445903                1.11701713               -7.84605539               -2.04628794              -20.50973638              -13.73418741
              30.17032476                9.01505932               88.30979002                0.00010000                5.26600655                2.56550085              -17.18117665               -2.26674536              -19.81343014              -20.20688013
              31.24342093                8.43774374               87.62186246                0.00010000                9.27469035                4.25083826              -27.39044678               -1.76034289              -12.98339870              -27.05310884
              32.35581856                7.86630714               87.01377198                0.36488590               11.23976369                5.80411371              -36.73403264               -0.89606054               -5.95538568              -33.48709011
              22.79067490               14.48598719               92.33121749                1.00000000                0.00488491                0.03930666               -0.08211986                0.00663071               -0.00575614                0.53302639
              23.79072375               13.93247226               91.91072820                0.87421490               -0.00944293               -0.00465009                0.02731071                0.01035477               -0.01017321               -0.09392481
              24.79048604               13.37894165               91.49021345                0.00010000               -0.29581509               -0.04956523                0.14182868                0.14252045                3.57449025               -0.71921872
              25.78480745               12.82816662               91.14131755                0.00010000               -1.78958012               -0.88749050                5.57952492                0.14565160                4.94028884               -0.35262345
              26.75469444               12.27413638               90.69550773                0.00010000               -3.31535526               -1.17360748                7.01752816               -0.20379616               -3.03493640               -1.33792447
              27.71850034               11.71894298               90.14607616                0.00010000               -3.13681892               -0.71797247                4.78435111               -0.48492046              -11.22482980               -3.47531474
              28.69195806               11.16365683               89.50267280                0.00010000               -1.48069357                0.46411336               -0.70109733               -0.79651791              -18.04715925               -6.63254598
              29.68888647               10.60797341               88.78897349                0.00010000                1.45584385                2.24071696               -8.98281441               -1.12805508              -21.97192611              -10.66220269
              30.72107494               10.05154036               88.04287291                0.00010000                5.34957773                4.46989965              -19.41490819               -1.29988506              -21.22753382              -15.32713298
              31.79587802                9.49572149               87.31712777                0.00010000                9.56434624                6.95628169              -30.89123851               -1.02153797              -13.88439924              -20.20088265
              32.91236186                8.94427649               86.67853820                0.36491424               11.64838373                9.34152716              -41.58508422               -0.55579810               -6.43236641              -24.68590527
              23.34444375               15.48632439               92.19158945                1.00000000                0.00932981                0.03256597               -0.09360992                0.00241762                0.00155075                0.48758379
              24.34453705               14.93242746               91.76808500                0.88819650               -0.00830782               -0.00418188                0.02489745                0.00544404               -0.00727892               -0.09290496
              25.34427759               14.37850274               91.34444740                0.00010000               -0.30893535               -0.04229860                0.14777333               -0.30339183                4.19659384               -0.61885576
              26.33835834               13.81842268               91.00489551                0.00010000               -1.91022116               -1.06840235                6.02179652               -0.55038800                6.03070032               -0.63467936
              27.30607317               13.26131899               90.55924605                0.00010000               -3.59519900               -1.40853901                7.63856066               -0.33434363               -2.53765641               -1.44000835
              28.26645436               12.71172118               90.00035027                0.00010000               -3.53991921               -0.71022797                5.31658161               -0.17437572              -11.35150968               -2.85580153
              29.23527479               12.17044818               89.33832348                0.00010000               -1.93990987                0.84503001               -0.52726589               -0.21029455              -18.80029517               -4.78802635
              30.22765616               11.63538356               88.59921788                0.00010000                1.06520954                3.08250071               -9.39812865               -0.39965051              -23.14897795               -7.26004693
              31.25657898               11.10445732               87.82456812                0.00010000                5.12989359                5.81981906              -20.59963935               -0.54801804              -22.45632517              -10.11776134
              32.33025404               10.57686937               87.07223018                0.00010000                9.55068086                8.83659790              -32.94974990               -0.45326696              -14.67813607              -12.94507832
              33.44759259               10.05313768               86.41423670                0.36549164               11.73385587               11.86178623              -44.53428065               -0.31260427               -6.88427187              -15.06719248
              23.89851711               16.48663851               92.05150880                1.00000000                0.01371713                0.03347494               -0.10778613               -0.00087824                0.03320275                0.37017188
              24.89865428               15.93238862               91.62539607                0.72800610               -0.00470626               -0.00300429                0.01473197                0.00142968                0.08168171               -0.10878072
              25.89842298               15.37809568               91.20028838                0.00010000               -0.38354211               -0.03926812                0.13915349               -0.84743468                5.25856126               -0.48367900
              26.89098344               14.80679857               90.87756816                0.00010000               -2.18569603               -1.50299342                6.63928258               -0.87291742                7.84045004               -0.42650362
              27.85470906               14.24596560               90.44038066                0.00010000               -4.25499018               -1.59802860                8.64687790               -0.32932946               -1.31634974               -1.17033028
              28.80588364               13.70473842               89.87892210                0.00010000               -4.53096379               -0.68417837                6.38382477                0.03590739              -11.16610921               -1.77585609
              29.76408979               13.18055743               89.20577612                0.00010000               -2.94996571                1.08569293                0.35387297                0.08214351              -19.54564910               -2.58669612
              30.74688432               12.66962343               88.44898752                0.00010000                0.22694883                3.55623923               -8.90524474               -0.02688737              -24.57300983               -3.66770109
              31.76862876               12.16793674               87.65335901                0.00010000                4.56239997                6.55138823              -20.63602164               -0.14974949              -24.09819725               -4.94189668
              32.83813232               11.67245345               86.88224795                0.00010000                9.24721987                9.83454923              -33.55612778               -0.15159548              -15.79013837               -6.11488646
              33.95357316               11.18151222               86.21639789                0.36504164               11.54408419               13.21132157              -45.57997244               -0.20941092               -7.54363543               -6.18156460
              24.45292597               17.48699389               91.90973175                1.00000000                0.01825082                0.03553767               -0.12251522               -0.02176542                0.18758961                0.27693714
              25.45310848               16.93236737               91.48236914                0.80445030               -0.00035093               -0.00212452               -0.00027222               -0.01840600                0.28206592               -0.12167416
              26.45291895               16.37771738               91.05692564                0.36099417               -0.00392022               -0.03783011                0.12662252               -1.75063154                7.37388979               -0.43072777
              27.45303007               15.78836281               90.77121662                0.36059514               -2.56861112               -1.84357581                8.00540995               -1.21328467               12.01162636               -1.57648324
              28.40154673               15.22935841               90.34734917                0.36061779               -6.02247005               -1.66071830               10.51179234                0.16750656                0.50610132               -1.87643694
              29.33258067               14.69803761               89.78849033                0.36099810               -6.47570377               -0.67008089                8.38702412                0.80988482              -11.12110761               -1.93123008
              30.27203265               14.19216204               89.10853487                0.36102046               -4.64207829                1.16046023                2.22254882                1.21782309              -20.90462166               -1.94665445
              31.23973911               13.70650835               88.33827269                0.36143514               -1.06393431                3.68849197               -7.34002656                1.45163076              -26.89486371               -1.99805396
              32.25075397               13.23548508               87.52519877                0.36227361                3.69537728                6.75483366              -19.47786122                1.56512073              -26.97304830               -2.02795665
              33.31364665               12.77356036               86.73560949                0.36377988                8.72664349               10.11069097              -32.85634023                1.64538472              -18.35422901               -1.89238464
              34.42528684               12.31736411               86.06283935                0.68271816               11.16401846               13.58518935              -45.12292058                1.55174279               -9.69145780               -0.37717910
              19.33252399                7.62637502               94.30432913                1.00000000               -0.02579759               -0.01113314                0.12413658               -0.02687594               -0.38605442                0.36905711
              20.33226601                7.07491510               93.90321528                1.00000000               -0.01154095               -0.03370814                0.12059784               -0.03373740               -0.51709695                0.05735698
              21.33229317                6.52368292               93.49947738                0.95238185                0.00097785               -0.06673450                0.15884284               -0.01802930               -0.57083358               -0.05092081
              22.33228557                5.97335794               93.09689805                0.71654918               -0.00844105               -0.04760073                0.15147204                0.04461048               -0.54231980               -0.19723425
              23.33212435                5.42437178               92.69301721                0.72754284               -0.04562313               -0.02839793                0.19000049                0.04070533               -0.40175914               -0.08750396
              24.33137311                4.87610730               92.29175611                0.74498860               -0.08231775               -0.01372729                0.16306034                0.03713492               -0.11362736               -0.05828856
              25.33047799                4.32829873               91.89240697                0.77529039               -0.08033571                0.00921893                0.09037325                0.03405596                0.09763122               -0.04676941
              26.32976639                3.78080635               91.49449639                0.83024880               -0.04584479                0.03267532               -0.01346023                0.02884329                0.20963328               -0.05154668
              27.32956110                3.23349126               91.09686127                0.97019454                0.00800876                0.04907444               -0.12077310                0.01245826                0.14895537               -0.04776803
              28.32992657                2.68615894               90.69755856                1.00000000                0.05300724                0.06733856               -0.20756011               -0.00220159                0.02791270               -0.02132123
              29.33062124                2.13880253               90.29767186                1.00000000                0.06946744                0.08721776               -0.28909271               -0.00414998               -0.02863320               -0.11560599
              19.88371515                8.62626369               94.16315371                1.00000000               -0.04404615                0.02382141                0.09876443               -0.03457794               -0.09087558                0.50855300
              20.88327469                8.07457802               93.76200044                1.00000000               -0.04118476               -0.01993044                0.09497224               -0.04511971               -0.13326918                0.08351635
              21.88289146                7.52301557               93.36014544                1.00000000               -0.04437226               -0.06221441                0.11475542               -0.00407397               -0.14162268               -0.13260089
              22.88238724                6.97288193               92.95872744                1.00000000               -0.08673657               -0.01178827                0.12940382                0.03057611               -0.07329830               -0.13814495
              23.88115672                6.42408780               92.55793606                1.00000000               -0.13031307               -0.00655588                0.15359292                0.03649215                0.05190316               -0.06015862
              24.87978098                5.87597003               92.15862332                1.00000000               -0.13438465                0.00315764                0.13310910                0.03490344                0.22171076               -0.03843276
              25.87846903                5.32839092               91.76074773                1.00000000               -0.11612103                0.01924828                0.07547992                0.03546234                0.36987221               -0.02989538
              26.87745856                4.78113310               91.36397013                1.00000000               -0.07298239                0.03779358               -0.01498794                0.03067258                0.45254734               -0.03601887
              27.87700938                4.23398201               90.96746305                1.00000000               -0.01048224                0.05391013               -0.12492944                0.01876124                0.39575337               -0.04999779
              28.87724892                3.68683233               90.56950996                1.00000000                0.04633850                0.07108843               -0.21859885                0.00759678                0.22296425               -0.03415702
              29.87793615                3.13967471               90.16978838                1.00000000                0.06872360                0.08830724               -0.29375884                0.00806460                0.10742176               -0.14047968
              20.43520377                9.62685145               94.02484737                1.00000000               -0.05920397                0.08437260                0.05573841               -0.01978324               -0.02549266                0.67176253
              21.43461173                9.07451649               93.62134749                1.00000000               -0.06479995               -0.00041095                0.05889290               -0.00467931                0.02954741                0.10069106
              22.43390777                8.52243863               93.21924453                0.00010000               -0.13934341               -0.09612758                0.07284877                0.17924392                0.31487494               -0.41875540
              23.43182486                7.97312218               92.82165239                0.00010000               -0.20708362                0.92590817                0.10165588                0.66679860                0.46736770                2.03783859
              24.42976610                7.42424066               92.42326931                0.00010000               -0.20284024                0.96451920                0.11491028               -0.08798464                0.44298611                1.93384055
              25.42776806                6.87617045               92.02564159                0.00010000               -0.18709658                0.44122298                0.10688832               -1.14994800                0.53230857               -0.56924037
              26.42602417                6.32868370               91.62917788                0.00010000               -0.14896490               -0.54478230                0.06329919               -2.04684296                0.64178533               -5.19835441
              27.42478876                5.78156222               91.23362762                0.00010000               -0.08935370               -1.93235813               -0.01606142               -2.35995517                0.70007523              -11.53040474
              28.42423709                5.23456946               90.83814877                0.00010000               -0.02014809               -3.71342811               -0.12250308               -1.58430874                0.65587360              -18.89495047
              29.42438580                4.68758071               90.44165522                0.00010000                0.04303377               -5.83368581               -0.23569182                1.00710741                0.44506375              -26.15853475
              30.42509777                4.14056868               90.04218423                0.36176788                0.07119708               -9.30950983               -0.30681972                6.55988170                0.26850954              -31.75624530
              20.98798940               10.62795114               93.88676817                1.00000000               -0.03954823                0.11252590                0.01556615                0.01748263                0.01206709                0.67521313
              21.98759392               10.07456980               93.48043305                0.92636439               -0.00593773               -0.00509195                0.02420224                0.03303557                0.00847959                0.03935527
              22.98787065                9.52109302               93.07423318                0.00010000                0.31636319               -0.13316123                0.01454482                1.25972816                2.94793294               -0.66997770
              23.99392118                8.99140010               92.72653447                0.00010000               -0.57609453                1.13655155                3.08038076                2.14274895                4.80976417                4.44802466
              24.97634875                8.44337819               92.32760431                0.00010000               -2.07910960                1.25527194                4.02534735               -0.08013856                0.39208520                4.10138417
              25.95233899                7.88479449               91.88143253                0.00010000               -2.21041744                0.42968914                3.38564208               -2.32289346               -3.83619555               -0.90576677
              26.93214041                7.31749528               91.39378073                0.00010000               -1.39826489               -1.12755539                1.42946217               -4.16397534               -7.51480252               -9.99656133
              27.92437369                6.74248594               90.87303407                0.00010000                0.35821542               -3.34761914               -1.75349041               -5.02802015              -10.23320161              -22.37249721
              28.93930471                6.15971344               90.33195472                0.00010000                3.35090794               -6.23754109               -6.10059164               -4.19253356              -11.08811599              -36.89512839
              29.99139185                5.57015861               89.79154032                0.00010000                8.19265692               -9.95635736              -11.23605203               -1.93672171               -8.43950693              -51.79252328
              31.10315785                4.95348451               89.28273766                0.36226148               11.17660023              -14.02749627              -16.06129620                2.84899494               -3.36651055              -65.65433283
              21.54231611               11.62910196               93.74828379                1.00000000               -0.01855477                0.10034764               -0.01505069                0.02187544               -0.00177315                0.63682245
              22.54213056               11.07441465               93.33847025                0.89580886               -0.00220362               -0.01172871                0.01567303                0.03860760               -0.00302652               -0.03180028
              23.54227203               10.51977541               92.92875566                0.00010000                0.51320594               -0.11658612                0.04689774                1.56316909                4.41778563               -0.70797329
              24.55239468                9.99585321               92.60729818                0.00010000               -0.37515471                0.00539815                4.88621972                2.49085505                7.10271347                3.10754938
              25.53476894                9.44934610               92.20212594                0.00010000               -2.26007881               -0.03804311                6.41161286                0.68863702                0.35495023                2.53597336
              26.50719310                8.88476424               91.71374972                0.00010000               -2.48578646               -0.45599338                5.19523363               -0.85542696               -6.40727244               -2.02337302
              27.48505321                8.30613259               91.15149858                0.00010000               -1.25914560               -1.17311769                1.68052687               -2.01493633              -12.25518654               -9.95705775
              28.48201019                7.71460984               90.53098617                0.00010000                1.38302684               -2.19034247               -3.93985019               -2.69265287              -16.31069071              -20.63152304
              29.51271375                7.10981864               89.87659471                0.00010000                5.49350520               -3.55833161              -11.48174032               -2.87698424              -17.03558181              -33.25255166
              30.59188029                6.48845356               89.22622031                0.00010000               10.13560580               -5.25242425              -20.28819007               -2.25336532              -11.84466213              -46.91751126
              31.71542586                5.86001875               88.63855525                0.36241753               12.35455704               -5.67208005              -28.56584238               -1.31645881               -5.31744064              -60.04717502
              22.09780154               12.62995809               93.60930645                1.00000000               -0.01089100                0.07151918               -0.03354517                0.02123040               -0.00514789                0.59623399
              23.09769263               12.07433522               93.19612190                0.89375646               -0.00530340               -0.00561618                0.01810201                0.03110926               -0.01135742               -0.05753837
              24.09769547               11.51876130               92.78291172                0.00010000                0.82374789               -0.08315202                0.07494743                1.43641451                5.35792457               -0.71400330
              25.11416759               10.99150806               92.47703677                0.00010000                0.17574990               -0.78523511                6.07575360                2.42954750                8.63091234                2.06430085
              26.10121047               10.44261732               92.06230111                0.00010000               -1.78618106               -1.17538413                7.86079015                1.00415845                0.33973304                1.25851866
              27.07844396                9.87567462               91.53799209                0.00010000               -1.96071937               -1.28589503                6.10412781               -0.05246966               -7.86868758               -2.72770810
              28.06199608                9.29403292               90.91565960                0.00010000               -0.58046911               -1.18894385                1.33780887               -0.84359763              -14.88188109               -9.42357897
              29.06683458                8.69867909               90.21646026                0.00010000                2.29626104               -0.94311185               -6.16511469               -1.54320013              -19.55662158              -18.37500945
              30.10792130                8.08854681               89.47326597                0.00010000                6.46449257               -0.57769748              -16.13928866               -2.14031484              -20.04178624              -29.12922962
              31.19612443                7.46511013               88.73626574                0.00010000               11.28884994                0.15325638              -27.77097241               -2.13054877              -13.73954482              -41.05575935
              32.33369830                6.84004291               88.07651372                0.36243403               13.75738661                1.19988265              -39.19364106               -1.08905208               -6.30492035              -53.19708176
              22.65398645               13.63053235               93.47003361                1.00000000               -0.00369159                0.04632647               -0.04575819                0.01592521               -0.00470375                0.56441281
              23.65394953               13.07430233               93.05359575                0.89231488               -0.00794823               -0.00265385                0.02199936                0.02437996               -0.00929659               -0.06901988
              24.65382749               12.51811237               92.63713419                0.00010000                1.15900339               -0.05294369                0.09521409                0.92799998                6.05127487               -0.69567725
              25.67712960               11.98014850               92.34182738                0.00010000                0.84290325               -1.41593750                6.86402424                1.64211655                9.81463186                1.05552764
              26.67068555               11.42583842               91.91829000                0.00010000               -1.12007454               -2.07073983                8.76273354                0.80047146                0.49604167                0.09895377
              27.65472811               10.85904633               91.36530735                0.00010000               -1.27543809               -1.93229688                6.55054947                0.27514910               -8.60984725               -3.20833328
              28.64517679               10.28235371               90.69625627                0.00010000                0.09520926               -1.08251135                0.82179221               -0.16647105              -16.30626970               -8.53590450
              29.65663230                9.69574760               89.93624188                0.00010000                2.91498110                0.34696782               -8.10773466               -0.73720054              -21.34295856              -15.62953035
              30.70347641                9.09826469               89.12426599                0.00010000                7.05704593                2.29033103              -19.92706255               -1.35102190              -21.77242012              -24.20986814
              31.79777322                8.49151869               88.31804867                0.00010000               12.01514191                4.67336824              -33.78660899               -1.41683641              -14.85368209              -33.86703209
              32.94377925                7.88401641               87.59732543                0.36295660               14.60060341                7.11559704              -47.76773767               -0.79879441               -6.90817242              -43.83091630
              23.21058008               14.63088462               93.33053490                1.00000000                0.00201240                0.02909627               -0.05650035                0.01010292               -0.00240869                0.53150849
              24.21060021               14.07428215               92.91097619                0.87902560               -0.00853974               -0.00207191                0.02337391                0.01672002               -0.00347625               -0.07491188
              25.21040929               13.51770243               92.49144428                0.00010000                1.43418263               -0.03527641                0.10904244                0.11722153                6.70841167               -0.68016099
              26.23928386               12.96318931               92.20603805                0.00010000                1.39563886               -1.92652552                7.41470517                0.30190942               10.99487429                0.11251590
              27.23832207               12.40120253               91.77769577                0.00010000               -0.59261034               -2.78818926                9.40940176                0.20787567                0.95430297               -0.91357457
              28.22743165               11.83702868               91.20467264                0.00010000               -0.81783357               -2.39248957                6.89561695                0.36570186               -8.81007236               -3.42048086
              29.22196540               11.27238269               90.50158071                0.00010000                0.43739686               -0.86853488                0.49202223                0.33093341              -17.05782618               -7.26463569
              30.23617959               10.70561844               89.69641930                0.00010000                3.15821866                1.52691805               -9.46603688               -0.02780446              -22.46116972              -12.35097796
              31.28512977               10.13435343               88.83280350                0.00010000                7.29282001                4.61973345              -22.63998513               -0.51824143              -22.94345979              -18.52215974
              32.38203599                9.55857749               87.97427332                0.00010000               12.37986073                8.21579879              -38.14767265               -0.69859764              -15.63983349              -25.40630370
              33.53272698                8.98235485               87.20709478                0.36318322               15.06909918               11.89583101              -54.00923238               -0.45368549               -7.34123086              -32.38166112
              23.76739346               15.63111427               93.19078363                1.00000000                0.00726710                0.02240445               -0.06930530                0.00373228                0.00538491                0.48487808
              24.76746613               15.07426089               92.76829809                0.88013476               -0.00643534               -0.00171722                0.01881157                0.00866690               -0.00041099               -0.08273234
              25.76726475               14.51740684               92.34573261                0.00010000                1.61007798               -0.02852063                0.11329010               -0.93673759                7.56194440               -0.59533796
              26.79966769               13.94161799               92.07438891                0.00010000                1.68694714               -2.45245409                7.90405639               -1.41723164               12.57805047               -0.60449390
              27.80100369               13.37007464               91.64816306                0.00010000               -0.44028528               -3.47753725               10.10043500               -0.41185796                1.89973861               -1.54718162
              28.79086198               12.81119654               91.06476686                0.00010000               -0.88989997               -2.67628772                7.49350493                0.41498640               -8.53420183               -3.19593368
              29.78320569               12.26498302               90.33920985                0.00010000                0.16217436               -0.60021867                0.68499535                0.69899268              -17.50322343               -5.49409583
              30.79410547               11.72628596               89.50223570                0.00010000                2.84734199                2.45822118               -9.95869527                0.49115439              -23.43656805               -8.57484471
              31.84015253               11.19065936               88.60155827                0.00010000                7.08471849                6.28738119              -24.06113890                0.09805827              -24.07029146              -12.33961196
              32.93579984               10.65583467               87.70652679                0.00010000               12.34991402               10.66136328              -40.67853164               -0.15316131              -16.40220347              -16.36584426
              34.08715081               10.12193303               86.90948374                0.36312188               15.13509751               15.25669273              -57.75439308               -0.21974511               -7.79184970              -19.89554020
              24.32436150               16.63133271               93.05055367                1.00000000                0.01194816                0.02462028               -0.08453560               -0.00091653                0.03432581                0.36735228
              25.32448098               16.07424780               92.62548886                0.71347820               -0.00220346               -0.00006259                0.00515833                0.00222589                0.08544196               -0.10624586
              26.32431743               15.51713201               92.20148160                0.00010000                1.68952242               -0.02701672                0.10362143               -2.28803167                8.96033564               -0.47280428
              27.35827143               14.91414023               91.95379228                0.00010000                1.80944642               -3.63726233                8.61225077               -2.26847473               15.06432122               -0.54215873
              28.36050636               14.33165178               91.54038583                0.00010000               -0.87242137               -3.96245397               11.28442069               -0.61357526                3.74449933               -1.53116974
              29.34082300               13.78350293               90.95514138                0.00010000               -1.98252629               -2.76321232                8.76173355                0.42751520               -7.98122980               -2.18337655
              30.32085583               13.26037832               90.21652040                0.00010000               -1.02483349               -0.36672624                1.75602212                0.66788844              -18.10345285               -3.09659586
              31.32032633               12.75478287               89.35770560                0.00010000                1.83431959                3.01241391               -9.32109446                0.52961959              -24.89179010               -4.41537900
              32.35754222               12.26010106               88.43029327                0.00010000                6.36863838                7.19774798              -24.03441133                0.25244722              -25.84821537               -6.08548175
              33.44769910               11.77180476               87.51013608                0.00010000               11.92965697               11.94594733              -41.34430290                0.04746573              -17.62969497               -7.77832366
              34.59613536               11.28748871               86.70003391                0.36354854               14.84362640               17.06032616              -59.02322998               -0.17838826               -8.52662057               -8.29891147
              24.88154494               17.63160668               92.90862961                1.00000000                0.01663993                0.02739692               -0.09861393               -0.01635989                0.18380767                0.27498982
              25.88171134               17.07425964               92.48229901                0.79762765                0.00333735                0.00118347               -0.01173174               -0.01397266                0.28320745               -0.12253862
              26.88161169               16.51686650               92.05799143                0.36063526                2.90335410               -0.02655106                0.09146807               -4.53991843               11.85838722               -0.42609606
              27.93977842               15.86887275               91.86298577                0.36077834                1.88789005               -4.52674809               10.36905293               -3.15134788               20.95968709               -2.39068575
              28.91936949               15.29082556               91.46844207                0.36076802               -3.45463373               -4.08262271               13.64105732                0.23929064                6.30550593               -2.72329411
              29.87068575               14.75593230               90.88729298                0.36086285               -4.70429840               -2.75706301               11.26830782                1.32742143               -7.80207765               -2.69234510
              30.82528352               14.25764849               90.14039971                0.36089684               -3.28553113               -0.27298305                4.10369272                1.97286600              -19.69825522               -2.63471044
              31.80497513               13.78653424               89.26488140                0.36033460                0.14480330                3.17513695               -7.30468887                2.31317097              -27.66060712               -2.67471948
              32.82817959               13.33461432               88.31570085                0.36121670                5.21931871                7.45132652              -22.45932037                2.47470527              -29.30340874               -2.73296922
              33.90936150               12.89475361               87.37214399                0.36216432               11.20177791               12.29488566              -40.28407415                2.59250150              -20.74146277               -2.62345822
              35.05221515               12.46313955               86.55237941                0.68166057               14.28536459               17.56508401              -58.26748815                2.44657177              -11.15047347               -0.84818403
              19.72998345                7.77125498               95.30570526                1.00000000               -0.02519481               -0.01292420                0.14270739               -0.03419863               -0.34906134                0.34496213
              20.72973150                7.21681489               94.90442565                1.00000000               -0.00229044               -0.03434053                0.11781032               -0.04258055               -0.45727640                0.05295956
              21.72993764                6.66269409               94.50093506                0.94810416                0.02796589               -0.06820022                0.12896323               -0.01843486               -0.51152412               -0.05552132
              22.73029081                6.10980539               94.09821527                0.74240770                0.04520327               -0.04505751                0.11560531                0.06681713               -0.48532828               -0.16882809
              23.73084170                5.55880444               93.69460691                0.74780280                0.02042266               -0.02470719                0.13684762                0.05499120               -0.36642675               -0.07748969
              24.73069927                5.00883035               93.29305081                0.75153071               -0.02900667               -0.00594889                0.10719063                0.04555322               -0.13417522               -0.05402371
              25.73026157                4.45959196               92.89303709                0.76050068               -0.04427797                0.01683098                0.04743154                0.04435157                0.04308245               -0.04311245
              26.72981371                3.91086638               92.49422525                0.78551213               -0.02828517                0.03577807               -0.03163299                0.04389636                0.14237413               -0.04459134
              27.72969587                3.36244650               92.09575824                0.87589055                0.01012307                0.04418728               -0.11122459                0.02757265                0.09393122               -0.05176612
              28.73001617                2.81405551               91.69584661                1.00000000                0.03935418                0.04857423               -0.15303272                0.00619764               -0.00741088               -0.02565878
              29.73048295                2.26562332               91.29540361                1.00000000                0.04667782                0.05447870               -0.18404936                0.00248517               -0.04571805               -0.10128621
              20.28408155                8.77112574               95.16429013                1.00000000               -0.04954120                0.02746888                0.12094501               -0.03967077               -0.07214866                0.47943246
              21.28358614                8.21647148               94.76296540                1.00000000               -0.04117562               -0.01908473                0.09468556               -0.05324254               -0.09855412                0.07611704
              22.28325804                7.66201208               94.36118643                1.00000000               -0.03411634               -0.06403214                0.09318823               -0.00298092               -0.09485664               -0.13352893
              23.28290381                7.10935481               93.95983025                1.00000000               -0.06894515               -0.00012280                0.09476270                0.04414751               -0.02559523               -0.11533253
              24.28187913                6.55855737               93.55917985                1.00000000               -0.10713867                0.00549337                0.10148213                0.04828324                0.08106996               -0.05520522
              25.28076104                6.00877086               93.15962759                1.00000000               -0.10960333                0.01711509                0.07521446                0.04312603                0.21436661               -0.03870074
              26.27968707                5.45976027               92.76122176                1.00000000               -0.09678162                0.03100010                0.02741345                0.04341827                0.33336772               -0.03155695
              27.27882541                4.91122416               92.36367673                1.00000000               -0.06550211                0.04296187               -0.03479854                0.04065516                0.39417114               -0.03356271
              28.27837703                4.36288837               91.96628753                1.00000000               -0.01678354                0.04849850               -0.10806250                0.02740541                0.33686125               -0.04635925
              29.27848973                3.81454125               91.56767499                1.00000000                0.02814823                0.05203116               -0.15826303                0.00958307                0.17909646               -0.03293854
              30.27893999                3.26616811               91.16745576                1.00000000                0.04502560                0.05586684               -0.19010361                0.00690629                0.07842968               -0.11699360
              20.83849854                9.77180436               95.02555596                1.00000000               -0.07182392                0.09475757                0.07929282               -0.02060847               -0.01475392                0.63568979
              21.83778030                9.21643319               94.62195897                1.00000000               -0.07519258                0.00277189                0.06149114               -0.00223635                0.05008069                0.08893038
              22.83699469                8.66141344               94.21987306                0.00010000               -0.15759073               -0.10881929                0.05481660                0.21922382                0.35163951               -0.42733631
              23.83462848                8.10980293               93.82245303                0.00010000               -0.23016826                1.85619066                0.06179850                1.71161954                0.51375434                3.78557904
              24.83239132                7.55891430               93.42412626                0.00010000               -0.21348016                2.00924151                0.06035690                1.38756361                0.48065689                4.20878869
              25.83035888                7.00917265               93.02638210                0.00010000               -0.18573450                1.31601234                0.04491844                0.58769116                0.54816357                1.37561229
              26.82867663                6.46021197               92.62952469                0.00010000               -0.14300835               -0.03728752                0.01026152               -0.17240062                0.62548796               -4.27352200
              27.82749871                5.91172562               92.23332007                0.00010000               -0.08748759               -1.98443947               -0.03829905               -0.46621183                0.65096317              -12.28718308
              28.82692688                5.36341647               91.83700101                0.00010000               -0.02853109               -4.59908319               -0.09764920                0.35674426                0.58064579              -22.01625960
              29.82692809                4.81509614               91.43963150                0.00010000                0.02202424               -7.95086383               -0.16534512                3.47153517                0.37952024              -32.19283242
              30.82736736                4.26674066               91.03971594                0.36061543                0.04392722              -14.11892106               -0.19626819               11.01370534                0.22459005              -40.64224068
              21.39441171               10.77302089               94.88706848                1.00000000               -0.04793826                0.12123312                0.03899718                0.02441384                0.01165544                0.64360279
              22.39393232               10.21652692               94.48069667                0.97344197               -0.00694662               -0.00283639                0.02797240                0.03860778                0.00327808                0.03991823
              23.39427277                9.65983570               94.07428853                0.00010000                1.28515086               -0.14270389                0.00278492                2.24310959                4.69823779               -0.64310095
              24.41963534                9.14647863               93.76171005                0.00010000                0.79939577                2.30474318                3.97986858                4.90281933                8.20985643                8.00770886
              25.41026069                8.59874220               93.37359560                0.00010000               -1.42090703                2.67862892                5.13555904                2.76065240                2.59363618                8.61121714
              26.39121720                8.03509111               92.92085582                0.00010000               -1.82873010                1.58613421                4.44518620                0.93143791               -2.33730348                2.90420780
              27.37368609                7.45901452               92.41255702                0.00010000               -1.24602674               -0.55344031                2.36178472               -0.64812929               -6.70084168               -8.17275612
              28.36629667                6.87153537               91.85758494                0.00010000                0.42276530               -3.67569226               -1.15544772               -1.54417288              -10.49788566              -23.77385956
              29.38214139                6.27090671               91.26825995                0.00010000                3.91497901               -7.92881456               -6.41489136               -0.93622324              -12.71867341              -42.88039415
              30.44459625                5.65552398               90.66863617                0.00010000               10.68918281              -13.84548354              -13.35301298                0.45898691              -10.69490396              -63.69144295
              31.59592505                4.98378969               90.10188371                0.36019049               15.13288037              -21.29860487              -20.64337871                5.66628583               -4.57789475              -85.22690834
              21.95197475               11.77422902               94.74826736                1.00000000               -0.02371061                0.10271326                0.00775622                0.02907028               -0.00061546                0.61466727
              22.95173764               11.21637647               94.33863611                0.93300722               -0.00347892               -0.01076617                0.01699592                0.04730097                0.00066027               -0.01400447
              23.95190517               10.65855937               93.92911248                0.00010000                2.10203651               -0.11083136                0.02577793                2.79183446                7.18429583               -0.64140521
              24.99377837               10.15589780               93.66309167                0.00010000                2.35433594                0.10152777                6.27104708                5.21985126               12.56501866                5.79785605
              25.99899189                9.61248688               93.27538993                0.00010000               -0.25315309                0.14105309                8.11992945                3.40580632                4.28268070                5.91804744
              26.98871531                9.04089533               92.77438137                0.00010000               -0.98610554               -0.42630832                6.77134288                2.37333119               -3.39519196                0.68050983
              27.97926978                8.44914316               92.17481707                0.00010000               -0.19961201               -1.44378592                2.95631844                1.73227109              -10.13498943               -8.95706972
              28.98472307                7.83821177               91.49361455                0.00010000                2.24720145               -2.93291041               -3.34123746                1.21835992              -15.62471713              -22.32360122
              30.02421381                7.20484018               90.75538869                0.00010000                6.92508882               -5.04661156              -12.49689313                0.53882302              -18.11896594              -38.77550060
              31.12322485                6.53818647               90.00354976                0.00010000               12.99739259               -7.88813988              -24.32797340               -0.21869086              -13.54306602              -57.76513637
              32.28416166                5.84076856               89.31636253                0.36105134               16.09368120               -8.91536401              -36.78566435               -0.49726834               -6.27545283              -78.15883181
              22.51069822               12.77507515               94.60909700                1.00000000               -0.01502220                0.06845225               -0.01176107                0.02805269               -0.00232257                0.58399686
              23.51054800               12.21631160               94.19630260                0.91646033               -0.00550430               -0.00453454                0.01797217                0.04020872               -0.00457455               -0.03543146
              24.51058813               11.65761907               93.78352778                0.00010000                2.97784265               -0.07557176                0.05167041                2.51039156                8.77209321               -0.65758081
              25.57010485               11.14850918               93.54618501                0.00010000                4.13955731               -1.38080156                7.70632161                4.79713405               15.46380439                4.00502531
              26.59337928               10.60156326               93.15180202                0.00010000                1.59613497               -2.05556658                9.82182423                3.32150945                5.47162224                3.61014033
              27.60202755               10.02656494               92.60903513                0.00010000                0.88178961               -2.28309636                7.82932789                2.76851214               -3.62504080               -0.98273850
              28.61101507                9.43013880               91.93591700                0.00010000                1.64696487               -2.23082225                2.59027847                2.51090440              -11.49007307               -9.07171653
              29.63496685                8.81287716               91.15558446                0.00010000                4.09640455               -2.00960959               -5.87491137                1.91722522              -17.64360819              -20.20692051
              30.69294316                8.16997448               90.30161060                0.00010000                8.46635984               -1.67578764              -17.96657591                0.68698892              -20.03245459              -34.15076821
              31.80429404                7.49776118               89.43091596                0.00010000               14.39361635               -0.78954744              -33.45760916               -0.72145344              -14.72277358              -50.63163121
              32.98081549                6.80548241               88.63414874                0.36093139               17.65214456                0.91695941              -50.45120849               -0.48088042               -6.89400888              -69.13129330
              23.07006292               13.77559806               94.46969759                1.00000000               -0.00650155                0.03960953               -0.02448671                0.02106761               -0.00105877                0.55758833
              24.06999790               13.21628578               94.05380802                0.90150943               -0.00737493               -0.00199598                0.02070774                0.03233538               -0.00172306               -0.04978669
              25.06991542               12.65704793               93.63794658                0.00010000                3.78894845               -0.04395305                0.07073379                1.55001356                9.87941468               -0.65095263
              26.14577687               12.12828177               93.41959660                0.00010000                5.87254526               -2.53268917                8.59249723                3.13381078               17.54866595                2.25880315
              27.18736632               11.57137555               93.01756794                0.00010000                3.48665696               -3.77857166               10.78926214                2.43591317                6.45336369                1.47698148
              28.21551001               10.99523341               92.44116865                0.00010000                2.79046604               -3.77455439                8.25107603                2.47687863               -3.46342790               -2.32547221
              29.24317564               10.40452671               91.71096031                0.00010000                3.38609482               -2.73641308                1.91361689                2.54129934              -11.92245525               -8.70299650
              30.28323191                9.79801958               90.85434334                0.00010000                5.49469634               -0.89585656               -8.19711245                2.01355725              -18.42924799              -17.47013915
              31.35306957                9.17132442               89.91124877                0.00010000                9.50279709                1.69152056              -22.49480309                0.78922465              -20.91094223              -28.54595642
              32.47328785                8.52239552               88.94613028                0.00010000               15.30160131                5.06780575              -40.80473263               -0.38603224              -15.33094670              -41.80039323
              33.65910160                7.85910775               88.05841723                0.36134312               18.58137499                8.95012731              -61.28918172               -0.37483538               -7.26614935              -56.64816830
              23.62974415               14.77586734               94.33008749                1.00000000                0.00006885                0.02025567               -0.03578675                0.01341381                0.00226196                0.52603329
              24.62974484               14.21627168               93.91119567                0.87113720               -0.00758679               -0.00128189                0.02109039                0.02273084                0.00535388               -0.06206838
              25.62959241               13.65674001               93.49239430                0.00010000                4.43543036               -0.02446355                0.08535080                0.05469838               10.81463627               -0.64832595
              26.71845344               13.09785540               93.28961165                0.00010000                7.27767437               -3.48515992                9.15793582                0.54819230               19.35064615                0.61861884
              27.77514590               12.52599182               92.88369577                0.00010000                4.99802574               -5.18451279               11.41992044                0.97710619                7.52080128               -0.43353479
              28.81841396               11.95107385               92.28398850                0.00010000                4.19544915               -4.89498192                8.52993883                1.93161218               -2.99249451               -3.28645272
              29.85905488               11.37541054               91.51251325                0.00010000                4.50131610               -2.94500745                1.43528314                2.42260043              -11.96472158               -7.81595671
              30.90844028               10.79496003               90.59965275                0.00010000                6.26484182                0.22903937               -9.84858338                2.08694094              -18.88122346              -14.04037581
              31.98435172               10.20380489               89.59007320                0.00010000               10.01748953                4.44254404              -25.74447203                1.09848788              -21.56417572              -21.96412396
              33.10879007                9.59911730               88.55417432                0.00010000               15.77712966                9.56471050              -46.08850876                0.08383569              -15.85032866              -31.36443879
              34.29989431                8.98448495               87.59835355                0.36125576               19.11042412               15.15900005              -69.01553392               -0.12622943               -7.58809995              -41.66812188
              24.18952253               15.77600318               94.19020334                1.00000000                0.00573264                0.01361155               -0.04923243                0.00515067                0.01034214                0.47896996
              25.18957985               15.21626014               93.76846123                0.85698832               -0.00484305               -0.00044472                0.01457125                0.01229165                0.00888713               -0.07910511
              26.18942566               14.65655866               93.34671321                0.00010000                4.89545255               -0.01796215                0.08803612               -1.89738531               11.91355906               -0.57898012
              27.28748890               14.05857857               93.16297664                0.00010000                8.21321652               -4.52484342                9.63237721               -2.69805863               21.48989799               -0.68835377
              28.35368999               13.46768530               92.76125475                0.00010000                5.86173161               -6.54643167               12.09485948               -0.40703752                9.03612625               -1.77908051
              29.40472353               12.89733377               92.15022037                0.00010000                4.70257388               -5.62645425                9.11193271                1.48258873               -2.14185512               -3.60968038
              30.44774147               12.34562656               91.35202339                0.00010000                4.59264226               -2.89874435                1.58370020                2.28341171              -11.91234936               -6.22415254
              31.49657638               11.80260037               90.40004398                0.00010000                6.15702967                1.18550597              -10.45868651                2.06920534              -19.47061904               -9.93078532
              32.57088207               11.26017530               89.34334534                0.00010000                9.88540566                6.41398198              -27.41889244                1.29858054              -22.43974428              -14.72941127
              33.69428449               10.71368973               88.25865955                0.00010000               15.74798126               12.60762375              -49.09085340                0.45600797              -16.50147586              -20.22966382
              34.88584169               10.16228775               87.25914884                0.36147253               19.15571973               19.40766859              -73.55098462                0.02734147               -8.00048950              -25.63137035
              24.74933324               16.77613958               94.04981808                1.00000000                0.01019453                0.01693127               -0.06436371               -0.00063923                0.03508940                0.36297165
              25.74943519               16.21626278               93.62549924                0.68796665               -0.00034829                0.00180838               -0.00207281                0.00360740                0.09259945               -0.10929881
              26.74932628               15.65638077               93.20236081                0.00010000                5.19652240               -0.01914309                0.07728513               -4.44649926               13.68647034               -0.46692961
              27.85336564               15.00735853               93.04981317                0.00010000                8.94618357               -6.82082272               10.37401228               -4.35166506               24.74743534               -0.80840550
              28.92824995               14.39506319               92.66606907                0.00010000                5.83794144               -7.44526198               13.38294264               -0.95770609               11.65227955               -2.08461140
              29.97012447               13.83854477               92.05415677                0.00010000                3.56032847               -5.87231283               10.51178309                1.11152040               -1.09349904               -2.71065280
              30.99945652               13.31743566               91.24089656                0.00010000                3.25755916               -2.69586730                2.79237609                1.64315222              -12.24826327               -3.66547351
              32.03527565               12.81867015               90.26256563                0.00010000                4.98887276                1.80309911               -9.69967642                1.46491549              -20.84418745               -5.21083771
              33.09923397               12.33208453               89.17267078                0.00010000                9.02610682                7.49176174              -27.31482705                0.95703760              -24.25825501               -7.32356782
              34.21579778               11.85126977               88.05536189                0.00010000               15.20055597               14.16928222              -49.76738623                0.42040748              -17.78523632               -9.64525236
              35.40324509               11.37263833               87.03593329                0.36149862               18.74473079               21.67108446              -74.98130294               -0.06490190               -8.77739657              -10.80487165
              25.30926332               17.77634180               93.90775947                1.00000000                0.01474832                0.02022278               -0.07634377               -0.01154173                0.17864591                0.27266870
              26.30941081               17.21629631               93.48213451                0.78487804                0.00683037                0.00335214               -0.01944298               -0.01073837                0.28897919               -0.12766728
              27.30939993               16.65617580               93.05875501                0.36012308                7.61811855               -0.02049695                0.06667835               -8.69934419               17.57243478               -0.42595792
              28.46177318               15.92216211               92.97859768                0.36063475                9.69748526               -8.51964182               12.52767876               -6.02903291               32.77200101               -3.55987110
              29.50334964               15.31878006               92.62017032                0.36106184                2.14041500               -7.62831347               16.20089438                0.39623876               15.04727924               -3.88108752
              30.50458148               14.77988751               92.01385649                0.36066371               -0.14352525               -5.86572547               13.46100464                2.09215942               -0.78331736               -3.68467625
              31.50047913               14.29170922               91.19060873                0.36056019                0.33221703               -2.57264367                5.56173050                3.04100327              -14.07163326               -3.50897796
              32.51122582               13.83866235               90.19217891                0.36015459                2.84720337                1.99921989               -7.25002198                3.51008308              -24.01948127               -3.53782375
              33.55742320               13.41001054               89.07601236                0.35981799                7.54565120                7.79260131              -25.28448626                3.73957355              -28.26178487               -3.64924810
              34.66213884               12.99707537               87.92992801                0.36074885               14.21916710               14.58056002              -48.26527444                3.91905086              -21.45135027               -3.58581101
              35.84180654               12.59570944               86.89748959                0.68084181               17.96676980               22.30711142              -73.83486552                3.71955180              -11.91205343               -1.54255532
              20.12810198                7.91610451               96.30718328                1.00000000               -0.02112923               -0.01028763                0.14371244               -0.03900463               -0.30863424                0.31859950
              21.12789068                7.35889479               95.90557148                1.00000000                0.00855474               -0.03277542                0.10652127               -0.05007382               -0.39673586                0.04647995
              22.12827307                6.80206977               95.50205665                0.97853287                0.05082352               -0.06627667                0.09741091               -0.02152905               -0.43802523               -0.04891211
              23.12890715                6.24675141               95.09921016                0.78183386                0.08436038               -0.04138899                0.08380754                0.07779294               -0.41080823               -0.13586779
              24.12996028                5.69367611               94.69575416                0.76745868                0.06761372               -0.02117568                0.10086422                0.05814276               -0.32784362               -0.06724830
              25.13025943                5.14187326               94.29389992                0.74888930                0.01024637               -0.00085359                0.07404315                0.04624953               -0.14917000               -0.05406060
              26.13016520                4.59106714               93.89335560                0.73095661               -0.01833529                0.02050398                0.02926843                0.04912005               -0.00566301               -0.04716688
              27.12989272                4.04101156               93.49386373                0.72529508               -0.01734246                0.03554587               -0.03227599                0.05486070                0.07187590               -0.04232748
              28.12981836                3.49139737               93.09463678                0.77234518                0.01201300                0.04146925               -0.10802150                0.04187177                0.03533981               -0.04469863
              29.13013298                2.94198902               92.69449791                0.85301207                0.03872640                0.03996551               -0.15435135                0.01672045               -0.03334286               -0.04373104
              30.13059288                2.39267251               92.29399087                0.98822122                0.04599019                0.03499972               -0.17774844                0.00338107               -0.04035762               -0.12896495
              20.68492164                8.91600163               96.16557261                1.00000000               -0.05143290                0.03411938                0.12761778               -0.04342445               -0.05347007                0.44709578
              21.68440732                8.35856704               95.76389415                1.00000000               -0.03960881               -0.01654823                0.08799496               -0.05945331               -0.06385481                0.06685211
              22.68412947                7.80140700               95.36200921                1.00000000               -0.02627025               -0.06399834                0.07254976               -0.00280411               -0.04433040               -0.12842166
              23.68388191                7.24633752               94.96062269                1.00000000               -0.05743424                0.01012760                0.06630186                0.04984741                0.02511069               -0.09019949
              24.68298078                6.69346435               94.55996570                1.00000000               -0.09277519                0.01622911                0.06220930                0.05085435                0.10965696               -0.04699540
              25.68202641                6.14186472               94.16012761                1.00000000               -0.09467658                0.02906097                0.03207385                0.04406496                0.20913316               -0.03930976
              26.68108725                5.59127218               93.76129600                1.00000000               -0.08750959                0.04054298               -0.00190843                0.04665260                0.29859604               -0.03575090
              27.68027622                5.04136702               93.36327416                1.00000000               -0.06694537                0.04493912               -0.03492190                0.04894341                0.32585689               -0.03319827
              28.67974834                4.49181206               92.96530180                1.00000000               -0.03068008                0.04372419               -0.08000981                0.03709406                0.26415743               -0.03556941
              29.67966261                3.94238867               92.56634470                1.00000000                0.00974275                0.03869347               -0.11669692                0.01693667                0.13522046               -0.03664386
              30.67994320                3.39302251               92.16598631                0.97115804                0.02805862                0.03117019               -0.13663796                0.00477355                0.05928252               -0.11408597
              21.24210267                9.91678690               96.02643323                1.00000000               -0.08064246                0.10550805                0.08981382               -0.02008255               -0.00421383                0.59510173
              22.24129625                9.35856383               95.62257731                1.00000000               -0.08280860                0.00619918                0.06037563                0.00175078                0.06968136                0.07563234
              23.24044650                8.80078980               95.22034086                0.00010000               -0.17247507               -0.12077073                0.04081424                0.25413462                0.38345219               -0.43078146
              24.23784675                8.24695397               94.82288836                0.00010000               -0.24981669                3.22890590                0.03133131                3.40701108                0.55268863                6.01550395
              25.23545017                7.69400069               94.42447645                0.00010000               -0.22569247                3.54372522                0.01643178                4.07977164                0.51278800                7.05143361
              26.23333290                7.14245447               94.02653996                0.00010000               -0.19271061                2.65073275               -0.00845989                4.12412020                0.56199756                3.86020749
              27.23159596                6.59187800               93.62938311                0.00010000               -0.15005941                0.87377981               -0.03012224                3.98815339                0.61191400               -2.83193271
              28.23033171                6.04191034               93.23286164                0.00010000               -0.10286863               -1.73263757               -0.04126168                3.94153409                0.59818460              -12.64073044
              29.22953858                5.49227185               92.83619579                0.00010000               -0.05352225               -5.40470915               -0.05936187                4.74921098                0.49986996              -25.20097648
              30.22926127                4.94276289               92.43834831                0.00010000               -0.00589509              -10.49885918               -0.09219105                8.26157313                0.30697052              -39.33664362
              31.22942068                4.39329592               92.03825887                0.35903406                0.01594164              -21.03613740               -0.10738614               18.31138614                0.17676989              -52.15029892
              21.80096613               10.91811179               95.88754811                1.00000000               -0.05267020                0.12899446                0.05183397                0.03110420                0.01187171                0.60794971
              22.80043943               10.35869102               95.48099250                1.00000000               -0.00720535               -0.00175987                0.03093438                0.04410960                0.00071198                0.03507082
              23.80082202                9.79899158               95.07428888                0.00010000                2.91859057               -0.15408712                0.00281412                3.66402569                6.92498031               -0.61934909
              24.85881124                9.31091564               94.80613184                0.00010000                3.41268419                4.01906984                4.84174510                9.24590591               12.76020563               12.56207073
              25.86907571                8.76433886               94.43031549                0.00010000                0.39101311                4.77499727                5.92962202                7.88232075                6.11804838               14.22157259
              26.86663150                8.19487937               93.97033625                0.00010000               -0.38406283                3.38703240                5.09116414                7.54690746                1.23435147                7.73836410
              27.86139445                7.60874778               93.44101642                0.00010000               -0.39592282                0.58766061                3.16141372                7.16795897               -3.12101464               -5.36109331
              28.85871305                7.00671427               92.84992512                0.00010000                0.62427848               -3.58860277               -0.17601729                6.67913079               -7.96897377              -24.34578154
              29.87388002                6.38371788               92.20365690                0.00010000                4.25784826               -9.56569330               -6.02769964                6.82789270              -12.55206099              -48.81032676
              30.94387001                5.73241149               91.52448006                0.00010000               13.56124223              -18.59459226              -15.25264922                5.96828756              -12.66203113              -77.46787722
              32.14510487                4.97229976               90.86987008                0.35897211               20.12348539              -31.43594148              -26.48260623               10.73235677               -5.95290426             -110.75672217
              22.36156630               11.91936678               95.74843891                1.00000000               -0.02676508                0.10480033                0.02250649                0.03507277               -0.00005519                0.58857749
              23.36129865               11.35852863               95.33881017                0.96822933               -0.00319524               -0.01181681                0.01747291                0.05361032                0.00279551               -0.00443450
              24.36150240               10.79770806               94.92927122                0.00010000                4.80594720               -0.11080028                0.00883158                4.56198136               10.66051442               -0.59077599
              25.45741759               10.32733536               94.73271912                0.00010000                7.38152271                0.20939943                7.46872523                9.40753865               19.85110463                9.13068260
              26.50913285                9.78950064               94.36452453                0.00010000                4.12222668                0.41516324                9.15168694                8.07884254               10.53577083               10.01200461
              27.53986213                9.21019512               93.84917658                0.00010000                2.69936956               -0.28234011                7.49584414                8.46636181                3.23516942                4.02448832
              28.56312024                8.60363121               93.21062495                0.00010000                2.45410490               -1.61462140                3.79254323                9.20969993               -3.21173478               -7.34761506
              29.58894423                7.97013829               92.46416142                0.00010000                3.86394874               -3.64511885               -2.40685512                9.34412751               -9.96319662              -23.51388984
              30.64039922                7.30095799               91.62665685                0.00010000                8.55504530               -6.70232552              -12.68401251                7.93967222              -15.49794237              -44.30565923
              31.76004513                6.57087104               90.73966084                0.00010000               16.19460284              -11.12572541              -28.20083200                4.44399532              -13.55831406              -70.10797876
              32.96429127                5.76457709               89.90284196                0.35954654               20.42461414              -12.84687054              -47.04141156                1.58298908               -6.60822275             -101.14087316
              22.92334390               12.92020780               95.60907123                1.00000000               -0.01735319                0.06634227                0.00315475                0.03359448                0.00105946                0.56720182
              23.92317036               12.35845469               95.19648134                0.93588425               -0.00444883               -0.00575573                0.01708484                0.04676059                0.00232931               -0.02066229
              24.92325492               11.79677558               94.78394513                0.00010000                6.59995345               -0.07406341                0.03318807                4.03868722               12.99765041               -0.61039281
              26.05516943               11.31510363               94.63116320                0.00010000               11.22689394               -2.27187157                8.97583371                8.34652540               24.47262108                6.30705589
              27.14779280               10.77264212               94.25873760                0.00010000                8.33293650               -3.30081684               10.78216386                7.15884367               13.50179440                6.36486889
              28.22182816               10.18923257               93.69457864                0.00010000                6.89262429               -3.63058017                8.33543819                7.80091434                5.16905004                1.15911376
              29.28564528                9.57645535               92.96746517                0.00010000                6.32203302               -3.59668375                3.10682995                8.75060359               -2.06163921               -8.30103283
              30.34826882                8.93381189               92.09896204                0.00010000                7.31477136               -3.39308825               -5.42798137                8.60153350               -9.37789086              -21.65691118
              31.43194071                8.24967137               91.11393445                0.00010000               11.04309963               -3.10375138              -19.05401857                6.45782461              -14.99007473              -39.12825580
              32.56913082                7.50989698               90.06711355                0.00010000               17.87059235               -1.93092857              -39.06925888                2.48158382              -13.10538861              -61.20683258
              33.78935256                6.71536235               89.06748955                0.35974481               22.02217419                1.11355712              -64.12359407                1.02609221               -6.36041025              -88.41803070
              23.48574442               13.92069363               95.46954388                1.00000000               -0.00783364                0.03458682               -0.00963636                0.02524108                0.00332211                0.54623964
              24.48566608               13.35841352               95.05400991                0.90657692               -0.00586117               -0.00335591                0.01936690                0.03816327                0.00649062               -0.03690821
              25.48562720               12.79622679               94.63854887                0.00010000                8.14077383               -0.04031481                0.05242405                2.42577677               14.54434306               -0.61290200
              26.64848156               12.28189793               94.51367732                0.00010000               14.62767928               -4.14609908                9.80091789                5.35416983               27.59417788                3.59442270
              27.77818078               11.72348430               94.13407524                0.00010000               12.17928139               -6.18985498               11.56661428                5.11270173               15.58215176                3.02694355
              28.89206719               11.13758352               93.53032887                0.00010000               10.76861063               -6.34923365                8.48259996                6.25746792                6.70107727               -1.20997399
              29.99355299               10.53169754               92.73452861                0.00010000                9.78458453               -5.07274332                2.07226873                7.30272145               -0.88133978               -8.54966615
              31.08775888                9.90227652               91.77229963                0.00010000                9.99588123               -2.73508023               -8.25572087                6.99558814               -8.47441539              -18.96180753
              32.19347062                9.23888296               90.67436993                0.00010000               12.81134729                0.66515078              -24.38344498                4.86799640              -14.38542930              -32.72694987
              33.34398582                8.53225247               89.50195401                0.00010000               19.02058799                5.44312374              -47.76014531                1.77917620              -12.81907460              -50.24091327
              34.57388238                7.78684823               88.37154179                0.35985292               22.98965545               11.64492273              -77.21466545                0.62227350               -6.31850458              -71.34017213
              24.04840895               14.92089954               95.32981916                1.00000000               -0.00084754                0.01347216               -0.02103100                0.01580830                0.00795500                0.51627342
              25.04840047               14.35838757               94.91139799                0.85615917               -0.00614538               -0.00191456                0.01941092                0.02688351                0.01638999               -0.05552980
              26.04828604               13.79596928               94.49315130                0.00010000                9.32974231               -0.01830315                0.06890759               -0.04062973               15.74382207               -0.62241809
              27.23499532               13.23218165               94.38919676                0.00010000               17.30376023               -5.71242677               10.25790527                0.96591397               30.04475553                1.08485842
              28.39436124               12.64884502               94.00609418                0.00010000               15.18844830               -8.56822910               12.01380200                2.31839782               17.38221371                0.03441895
              29.53876428               12.06224790               93.37527142                0.00010000               13.63227322               -8.43744289                8.54393824                4.56722600                8.06704885               -3.05217411
              30.66700671               11.47500048               92.53028637                0.00010000               12.11154412               -5.97904452                1.33980818                5.92222486                0.06912003               -8.13637469
              31.78099517               10.87911029               91.49944763                0.00010000               11.61589914               -1.87595755              -10.24832279                5.67930797               -7.96862066              -15.42745524
              32.89932469               10.26297438               90.31791406                0.00010000               13.78769511                3.72952993              -28.15506503                3.94603162              -14.28324918              -25.19239045
              34.05674907                9.61875946               89.05250314                0.00010000               19.66409101               10.89006727              -53.88300145                1.56337118              -12.95973597              -37.47997324
              35.29260651                8.94826081               87.82678411                0.35988176               23.58574431               19.24388277              -86.24131206                0.56413793               -6.48990959              -51.85654664
              24.61108452               15.92096307               95.18979898                1.00000000                0.00494833                0.00682370               -0.03448022                0.00581702                0.01586147                0.46988684
              25.61113401               15.35837522               94.76858952                0.82204094               -0.00320015                0.00004893                0.01143916                0.01437122                0.02116263               -0.08257425
              26.61102052               14.79586073               94.34749333                0.00010000               10.18950467               -0.01088306                0.07221371               -3.26394849               17.06305137               -0.56990972
              27.81492410               14.16764940               94.26703645                0.00010000               19.17309835               -7.49152827               10.62606968               -4.46122262               32.73917890               -0.96216680
              28.99448249               13.55211972               93.89006025                0.00010000               17.11660736              -10.89005146               12.55899216               -0.19838135               19.55615688               -2.17247258
              30.15725625               12.96883466               93.24700551                0.00010000               15.03263083               -9.82970700                9.01527109                3.26790884                9.63674447               -4.04525779
              31.29513510               12.41211665               92.37088385                0.00010000               12.80574452               -6.32584846                1.38412729                4.81988547                0.77301175               -6.82699508
              32.41337114               11.86475737               91.29306197                0.00010000               11.88034890               -1.03395546              -10.99111059                4.60150542               -8.02579777              -11.07958585
              33.53274208               11.31347356               90.05318042                0.00010000               13.82978433                5.89941467              -30.04286144                3.27763097              -14.78890828              -16.93892953
              34.68996682               10.75005382               88.72470972                0.00010000               19.67101782               14.44358950              -57.25145386                1.51175647              -13.44039417              -24.09267249
              35.92616244               10.17172588               87.43846405                0.35988013               23.61956140               24.23948587              -91.37949511                0.50911334               -6.83418220              -31.76101245
              25.17370099               16.92103601               95.04926640                1.00000000                0.00892589                0.01071014               -0.04800463               -0.00058312                0.03461336                0.35753359
              26.17379024               16.35838855               94.62544741                0.64971230                0.00159566                0.00302600               -0.00742505                0.00384988                0.10336932               -0.11834242
              27.17373290               15.79575162               94.20302731                0.00010000               10.78608140               -0.01508858                0.06051401               -7.52303834               19.21203790               -0.46714476
              28.38951187               15.08235108               94.16127253                0.00010000               20.77377261              -11.37715384               11.31353600               -7.29142979               36.80524209               -1.29258170
              29.58920835               14.43104399               93.80804468                0.00010000               17.73068295              -12.35591991               13.84675829               -1.30617714               23.06846939               -2.85850037
              30.74412553               13.86565376               93.16537705                0.00010000               13.91366778              -10.29976576               10.45024396                2.23821336               11.29047135               -3.31139378
              31.86748171               13.34848351               92.27236793                0.00010000               11.37714168               -6.20360196                2.65768537                3.15853721                0.81764443               -4.19079628
              32.97166836               12.85843118               91.16371207                0.00010000               10.60495800               -0.41030852              -10.13665910                2.91449443               -9.18729270               -5.91190898
              34.07958087               12.38096268               89.88399673                0.00010000               12.85317520                7.07363199              -29.82436330                2.08263912              -16.51408922               -8.47412216
              35.22873187               11.90763125               88.51478836                0.00010000               18.99318874               16.19256705              -57.82605903                1.04891454              -14.67758182              -11.48294628
              36.45944464               11.43305052               87.20040785                0.35995109               23.07127722               26.87249741              -92.81815141                0.17635146               -7.58430594              -13.44626888
              25.73636779               17.92117728               94.90710274                1.00000000                0.01276035                0.01412664               -0.05595855               -0.00747285                0.17187109                0.27061550
              26.73649539               17.35843574               94.48191015                0.76611485                0.01147135                0.00471988               -0.02332156               -0.01040134                0.30004230               -0.13746630
              27.73659722               16.79555895               94.05932500                0.35995680               14.86538701               -0.01926679                0.05369057              -14.63003958               24.28525417               -0.43308783
              29.03380313               15.94010632               94.11353935                0.36097482               22.42295260              -14.22447644               13.81671745              -10.09875567               47.29851499               -5.18208923
              30.18505627               15.30500132               93.79245995                0.36055257               12.53889305              -12.60426729               16.99934713                0.72144308               27.29474128               -5.37445613
              31.28458099               14.76283935               93.15651308                0.36042649                9.02360807              -10.28144130               13.67057602                3.19771062               11.67898055               -4.88379736
              32.36552843               14.28804461               92.25163432                0.36004898                7.73004348               -6.04389053                5.69370452                4.49026506               -1.18086374               -4.52746770
              33.43918186               13.85655120               91.11988096                0.35955914                7.98331830               -0.18799755               -7.33227283                5.09642924              -12.60976259               -4.56903687
              34.52519480               13.45494620               89.81001113                0.35935896               10.98377020                7.39835206              -27.29613553                5.42909063              -20.89785738               -4.78343335
              35.65885727               13.07390516               88.40683850                0.35889495               17.68280592               16.62739111              -55.72958293                5.72402165              -18.82165679               -4.79546794
              36.87885091               12.70917583               87.07568210                0.67989571               21.99936465               27.61253100              -91.09944983                5.46769480              -11.23797559               -2.43996261
              20.52703434                8.06084830               97.30857951                1.00000000               -0.01109360               -0.00305955                0.12614471               -0.04144019               -0.26651108                0.29064092
              21.52692341                7.50109916               96.90655608                1.00000000                0.02520580               -0.02964684                0.08523420               -0.05697495               -0.33709864                0.04000595
              22.52753846                6.94181073               96.50288328                1.00000000                0.07268655               -0.06512904                0.07364131               -0.03136715               -0.36406345               -0.03485787
              23.52837714                6.38426297               96.09989142                0.83082144                0.10283012               -0.03903491                0.05877163                0.06852308               -0.32489952               -0.09600599
              24.52959506                5.82903640               95.69662420                0.77929093                0.08686467               -0.01412258                0.07693397                0.04876848               -0.27293810               -0.05465349
              25.53011443                5.27529376               95.29453167                0.73053822                0.02947207                0.00508676                0.06143006                0.03646874               -0.13811859               -0.05502897
              26.53018450                4.72276783               94.89362246                0.68787078               -0.00721915                0.02499123                0.03554739                0.02805446               -0.02186136               -0.04821325
              27.52997005                4.17119897               94.49357973                0.65774734               -0.02080105                0.03633196               -0.00878090                0.00940132                0.02405815               -0.02616834
              28.52976848                3.62022247               94.09359781                0.67434186                0.00125825                0.03954938               -0.08930777               -0.00346809               -0.03311485               -0.01947432
              29.52999521                3.06948731               93.69275959                0.72106694                0.04606913                0.04706661               -0.20086801               -0.00702328               -0.09418480               -0.04675690
              30.53068986                2.51905316               93.29184865                0.90300030                0.06946510                0.05652363               -0.30483033               -0.02815821               -0.07286255               -0.18704583
              21.08636908                9.06081770               97.16684249                1.00000000               -0.04966327                0.04412952                0.11883199               -0.04691391               -0.03565839                0.41258641
              22.08587244                8.50080270               96.76472530                1.00000000               -0.03630958               -0.01258392                0.07566337               -0.06576945               -0.03103860                0.05787286
              23.08564289                7.94115944               96.36263742                1.00000000               -0.02114550               -0.06462926                0.05565322               -0.00579268                0.00548478               -0.11948717
              24.08544953                7.38387262               95.96115629                1.00000000               -0.05377676                0.01704468                0.04445552                0.04526345                0.07689023               -0.06155909
              25.08456735                6.82889517               95.56042404                1.00000000               -0.09180657                0.02783953                0.03330323                0.04362150                0.14580749               -0.03462781
              26.08361340                6.27534463               95.16026907                0.96980588               -0.10274543                0.04372006                0.00057244                0.03501537                0.22630844               -0.03975021
              27.08251244                5.72301774               94.76118359                0.89784886               -0.11383323                0.05425300               -0.01037521                0.03131995                0.29906101               -0.03682687
              28.08133674                5.17156229               94.36297829                0.84783878               -0.09614044                0.05305411               -0.02502385                0.01399544                0.30476506               -0.02143277
              29.08058963                4.62061797               93.96468733                0.83194980               -0.04135503                0.04096840               -0.05577563                0.00324010                0.23122826               -0.01918839
              30.08050964                4.06995797               93.56534105                0.77464994                0.01263985                0.03703002               -0.10149309                0.00048197                0.12236754               -0.03988816
              31.08084243                3.51961840               93.16472300                0.82685977                0.03327922                0.03988711               -0.16483429               -0.01436835                0.07627577               -0.15015467
              21.64612608               10.06173089               97.02735224                1.00000000               -0.08597958                0.11782472                0.08770583               -0.01877623                0.00553995                0.55183346
              22.64526629                9.50084749               96.62316648                1.00000000               -0.08867002                0.00963943                0.05606272                0.00603001                0.08701802                0.06155159
              23.64435268                8.94051814               96.22068934                0.00010000               -0.18598068               -0.13205369                0.03211673                0.28732659                0.40974180               -0.42799947
              24.64154667                8.38460386               95.82307966                0.00010000               -0.26785996                5.20083318                0.01224963                6.12191787                0.58297724                8.65773534
              25.63899548                7.82959319               95.42445490                0.00010000               -0.24272521                5.71151979               -0.01460438                8.77070978                0.54050760               10.17551561
              26.63669217                7.27616816               95.02621290                0.00010000               -0.22011223                4.59385730               -0.05542360               10.79247990                0.59730007                6.51900572
              27.63459324                6.72385289               94.62892225                0.00010000               -0.20212200                2.37665408               -0.04830360               12.26281912                0.63603175               -1.04805152
              28.63264973                6.17226005               94.23249484                0.00010000               -0.15778185               -0.91211656               -0.03964078               13.00644652                0.60900436              -12.39698586
              29.63143760                5.62104184               93.83581377                0.00010000               -0.08226524               -5.81894271               -0.03476263               13.69617272                0.49833528              -27.97951898
              30.63100442                5.07022791               93.43778768                0.00010000               -0.01779747              -13.25520338               -0.05198656               17.17209288                0.31844895              -47.38394654
              31.63108165                4.51985090               93.03756822                0.35814966                0.00772276              -30.77731226               -0.10337897               30.22452333                0.22937222              -67.05741328
              22.20776036               11.06317420               96.88810516                1.00000000               -0.05545680                0.13732812                0.05431338                0.03738091                0.01398396                0.57065729
              23.20720579               10.50099548               96.48131536                1.00000000               -0.00636604               -0.00242739                0.03293651                0.05195603                0.00312345                0.02488125
              24.20763304                9.93851836               96.07434481                0.00010000                5.58035262               -0.17152692                0.00928366                5.68738109                9.55731164               -0.60588040
              25.31881285                9.48788928               95.85854495                0.00010000                8.03921025                6.44381130                5.38832364               15.93038438               18.47817323               17.97810713
              26.36841725                8.94312557               95.49218804                0.00010000                4.31952266                7.73558404                5.64306470               16.67934311               11.59234499               20.37217373
              27.40520330                8.36722177               95.02267910                0.00010000                3.16298425                6.04872739                4.39004866               19.90256859                8.44651747               12.89255288
              28.43167693                7.77055082               94.47578529                0.00010000                1.95367070                2.59446097                3.10175087               22.57775965                5.90026712               -1.89343025
              29.44427671                7.15331996               93.85406459                0.00010000                1.24341508               -2.66814984                1.09392706               23.52329018                0.62594361              -23.71894320
              30.45654523                6.50423911               93.14770596                0.00010000                4.04328606              -10.62962004               -4.26360795               22.94259413               -7.69752921              -53.65156715
              31.52514244                5.80485391               92.36358318                0.00010000               16.47708373              -23.84172576              -16.10203458               17.23510331              -13.02701954              -92.23926859
              32.78608691                4.90407215               91.57223159                0.35828278               26.09444725              -44.97596361              -34.25806869               19.64949011               -7.20251357             -143.53617386
              22.77123113               12.06447745               96.74871749                1.00000000               -0.02698857                0.10700115                0.02847130                0.03908964                0.00036604                0.56121741
              23.77096124               11.50079894               96.33898557                1.00000000               -0.00123120               -0.01484345                0.01779664                0.05625208                0.00306194               -0.00331431
              24.77120651               10.93708760               95.92928911                0.00010000                9.22929565               -0.11923957                0.00350934                7.04536937               14.65197681               -0.55870434
              25.95554716               10.51348009               95.81246617                0.00010000               16.10216741                0.29014112                7.91842257               15.65846088               28.97915363               12.88043303
              27.09324985                9.98430487               95.45842367                0.00010000               12.58855639                0.80921813                8.20118846               15.76225504               20.11064672               14.29910775
              28.20731828                9.39714271               94.92429825                0.00010000               10.34001954                0.06865762                5.81254804               19.14574588               15.97567379                7.47730895
              29.30005024                8.77574211               94.25066793                0.00010000                8.10544777               -1.51681669                2.97822529               22.77381564               12.53910718               -5.37362829
              30.36942724                8.11889706               93.44547745                0.00010000                6.93526464               -4.08596187               -1.50314119               24.46851870                5.53200964              -23.93447700
              31.43875554                7.40844944               92.50170844                0.00010000               10.32231064               -8.22714167              -11.38646028               22.14706259               -4.72427444              -49.01363206
              32.57587345                6.59339339               91.43953312                0.00010000               19.34397130              -14.67612751              -30.86159324               13.76854594               -9.26135500              -82.86844194
              33.82563496                5.62033163               90.37553430                0.35838129               24.97615105              -16.78250931              -59.81513857                6.03224263               -5.18943318             -128.77113476
              23.33589918               13.06531422               96.60916010                1.00000000               -0.01784992                0.06487359                0.01107732                0.03674815                0.00445212                0.54754832
              24.33572069               12.50069861               96.19664429                0.96079175               -0.00199531               -0.00839896                0.01456979                0.04904157                0.00841841               -0.01217470
              25.33585928               11.93613357               95.78419154                0.00010000               12.45220569               -0.07519422                0.01623359                6.14609246               17.71533087               -0.57194546
              26.58476480               11.49369210               95.72570169                0.00010000               23.20702234               -3.56717139                9.08927068               13.48816280               35.52046166                8.67878225
              27.79999973               10.95930993               95.36744529                0.00010000               20.59580889               -4.98735133                9.09949617               13.20053897               25.49658338                9.11463762
              28.99668098               10.36859493               94.77574389                0.00010000               18.26995853               -5.34007790                5.79430966               16.13322305               21.24586297                3.37672719
              30.16539890                9.74021449               93.99805360                0.00010000               15.21293878               -5.25149576                1.48502364               19.32668161               17.74278320               -7.14660048
              31.30093975                9.07160072               93.04702483                0.00010000               12.97956264               -5.02996105               -5.30371965               20.19784157               10.41059928              -22.31599753
              32.42499015                8.33969628               91.92053022                0.00010000               14.38457059               -4.78218146              -18.79545997               16.83408506               -0.14157465              -43.12729873
              33.58863116                7.51133136               90.64953078                0.00010000               21.39325678               -3.06028660              -43.43726062                8.62933610               -5.99807009              -71.39340630
              34.85285528                6.56842197               89.35167686                0.35873634               26.42241197                2.63390622              -80.08183352                4.10511031               -3.41094973             -109.50448319
              23.90119731               14.06577492               96.46950486                1.00000000               -0.00745789                0.03117446               -0.00123118                0.02792349                0.00789323                0.53126348
              24.90112273               13.50063096               96.05419536                0.91117044               -0.00312201               -0.00585718                0.01696999                0.04143040                0.01443502               -0.02892877
              25.90113487               12.93558372               95.63899506                0.00010000               15.05056645               -0.03931924                0.03733006                3.61582539               19.61721166               -0.58089935
              27.20213406               12.44213666               95.61561496                0.00010000               29.06114735               -6.37493354                9.53244112                8.53074987               39.63566405                4.83058760
              28.48235781               11.88455784               95.24890023                0.00010000               27.34720653               -9.43073659                9.30092914                9.24601418               28.84305249                4.48861860
              29.74907819               11.29034115               94.61082064                0.00010000               25.06101341               -9.76206012                5.32958200               12.25180606               24.52475382                0.02666855
              30.98357808               10.67071219               93.75240568                0.00010000               21.24120463               -8.19433412               -0.11560200               14.94094324               21.01484191               -7.91857323
              32.17390228               10.01829784               92.68922892                0.00010000               17.60642625               -5.29760673               -8.69933944               15.12970227               13.48746752              -19.56316868
              33.33570661                9.31280581               91.42357987                0.00010000               17.29161059               -0.92748487              -24.83387417               11.72654494                2.33862091              -35.73596533
              34.51973449                8.53218766               89.99092738                0.00010000               22.89246728                5.77153846              -53.19658556                5.61490427               -4.65515658              -57.66996897
              35.79355595                7.67300975               88.51412392                0.35846559               27.38214608               15.60048986              -94.78309870                2.51615499               -2.91818569              -85.88985239
              24.46674559               15.06593771               96.32966687                1.00000000               -0.00050864                0.00893787               -0.01235617                0.01744500                0.01372005                0.50288208
              25.46674050               14.50058147               95.91158389                0.83406040               -0.00377508               -0.00358584                0.01754927                0.02977521                0.02855342               -0.05466490
              26.46667009               13.93534719               95.49377245                0.00010000               16.98325872               -0.01496282                0.05688057               -0.16415741               20.98857034               -0.60167280
              27.80640567               13.36619343               95.49476975                0.00010000               33.50227163               -8.74385957                9.68836998                1.64597600               42.60830758                1.35915967
              29.13671552               12.77069520               95.12397181                0.00010000               32.45785364              -13.11362483                9.34249458                4.48232755               31.37593827                0.38345370
              30.45556275               12.17335372               94.45486726                0.00010000               29.97727790              -13.20090809                5.01399259                8.65946214               26.85940151               -2.67584429
              31.73626108               11.57632781               93.53930941                0.00010000               25.29387150              -10.18535416               -1.16875533               11.29310148               23.04719662               -7.97087209
              32.96144018               10.96564859               92.39468630                0.00010000               20.46850735               -5.07768114              -10.99046534               11.23401770               15.02235902              -15.97353690
              34.14563122               10.32114658               91.02697190                0.00010000               18.96425651                2.12541149              -28.94280816                8.44315431                3.22074483              -27.30869694
              35.34072531                9.62676212               89.47651429                0.00010000               23.79514867               11.86817013              -59.77014905                3.98718346               -4.46254553              -42.45877486
              36.62153420                8.88043176               87.87352731                0.35849816               28.08088886               24.02170011             -104.40768860                1.77163547               -2.98769712              -61.24864574
              25.03225868               16.06595368               96.18951374                1.00000000                0.00500720                0.00243916               -0.02493708                0.00645122                0.02101937                0.45804905
              26.03230876               15.50055924               95.76869001                0.76989482               -0.00094647               -0.00030847                0.00866463                0.01659730                0.03608333               -0.09322926
              27.03223975               14.93528446               95.34815748                0.00010000               18.36984044               -0.00704899                0.06333754               -5.11139725               22.45104546               -0.56845917
              28.39970556               14.26725947               95.37549803                0.00010000               36.63021595              -11.55947155                9.83800416               -6.74758456               45.77143030               -1.49543673
              29.76484407               13.62228534               95.01243460                0.00010000               35.84646275              -16.76008604                9.64398835                0.39314110               34.23493554               -2.71504559
              31.11663482               13.02632299               94.33052580                0.00010000               32.61505861              -15.52721977                5.30747738                6.03838332               29.19697810               -4.35314423
              32.41714525               12.46700511               93.37970593                0.00010000               26.85645174              -11.17292713               -1.25134599                8.58172661               24.42674106               -7.02735826
              33.65376385               11.91674421               92.18022177                0.00010000               21.31554546               -4.60178007              -11.82724650                8.33848715               15.50864959              -11.59487086
              34.84345615               11.35531404               90.74248811                0.00010000               19.32145629                4.23123967              -30.90878097                6.25257642                3.09219153              -18.35552219
              36.04019298               10.76955106               89.11363047                0.00010000               23.90966154               15.63599679              -63.23847653                3.16197187               -4.77499533              -27.13658180
              37.32164939               10.15344376               87.43155894                0.35881185               28.14564053               29.30315708             -109.72011784                1.32855878               -3.25575613              -37.30521696
              25.59766349               17.06598649               96.04885799                1.00000000                0.00781748                0.00638770               -0.03539515                0.00024243                0.03182430                0.35135728
              26.59774167               16.50057530               95.62535073                0.59295044                0.00392110                0.00311243               -0.01096927                0.00501739                0.11727884               -0.13320751
              27.59774191               15.93520621               95.20357109                0.00010000               19.33557174               -0.01829019                0.05062084              -11.71676184               24.92799347               -0.47433368
              28.98445310               15.13500400               95.27608389                0.00010000               39.38864525              -17.66363909               10.37666391              -11.24048868               50.61400871               -2.05628785
              30.38551482               14.43549348               94.94300424                0.00010000               37.35787739              -18.99124771               10.84412852               -1.53840065               38.72803805               -3.79730945
              31.73161065               13.86280933               94.26316165                0.00010000               31.59797826              -16.31917427                6.69418658                3.98638468               31.51590619               -3.83327092
              33.01747438               13.35286926               93.29405027                0.00010000               25.41451688              -11.21890142                0.02407058                5.35761929               24.91248376               -4.47186906
              34.23990099               12.87361299               92.05983245                0.00010000               20.02007585               -4.09001917              -10.90973753                4.98960085               14.67257836               -6.26959358
              35.41787590               12.40577138               90.57618352                0.00010000               18.29670217                5.34995209              -30.53039548                3.74607139                1.62700906               -9.24786929
              36.60583503               11.93948206               88.89884071                0.00010000               23.12220418               17.37573269              -63.58851558                2.02826431               -5.80567207              -12.94640756
              37.88031998               11.46649490               87.17957026                0.35891254               27.44849544               32.14589716             -110.98507516                0.58680736               -3.83482232              -15.84824100
              26.16308592               18.06608144               95.90664030                1.00000000                0.01034760                0.00949420               -0.03768229               -0.00375217                0.16303270                0.26889675
              27.16318939               17.50062149               95.48166808                0.73652000                0.01949505                0.00461880               -0.02134698               -0.01336640                0.31713065               -0.15169869
              28.16347582               16.93491866               95.05982882                0.35932114               25.57095648               -0.02875481                0.05510430              -22.75834988               31.35616025               -0.45509640
              29.67460852               15.91398669               95.25493203                0.36042774               42.13974591              -22.10173165               13.11394107              -15.60737141               63.77741809               -7.34256384
              31.00627073               15.24246039               94.96015726                0.36120234               30.21891024              -19.30330859               14.08714447                1.37323248               43.58739751               -7.14824467
              32.27898673               14.69993950               94.28726801                0.36089184               25.36116190              -16.28698246                9.88632679                4.74594222               31.88426233               -6.14125282
              33.51349397               14.24262708               93.30448282                0.36029705               21.08335157              -11.02421827                3.06176032                6.35217521               22.86978602               -5.57842987
              34.70065376               13.83494383               92.04553346                0.35927004               16.95072676               -3.86691567               -7.91626020                7.05957728               11.37309365               -5.68084492
              35.85250851               13.46231308               90.53008965                0.35838869               15.96904909                5.65417072              -27.48733881                7.56935508               -2.67458161               -6.14800902
              37.02003474               13.11706572               88.81533635                0.35827036               21.34256691               17.75836564              -60.61741924                8.12240172              -10.12174014               -6.31086515
              38.27935985               12.79636170               87.07550060                0.67917620               25.93251072               32.98667962             -108.36027305                7.83358449               -7.90838559               -3.64667017
              20.92681861                8.20539136               98.30970617                1.00000000                0.00263252                0.00892682                0.09082337               -0.04106486               -0.22375412                0.25942734
              21.92684494                7.64335647               97.90727617                1.00000000                0.04189223               -0.02423780                0.05479144               -0.06168407               -0.27595975                0.03585717
              22.92765646                7.08186433               97.50352947                1.00000000                0.09116535               -0.06531349                0.05543733               -0.03757411               -0.29583047               -0.02179099
              23.92866824                6.52230155               97.10038559                0.87464680                0.11024045               -0.03834483                0.04437509                0.05243667               -0.24890595               -0.05901848
              24.92986127                5.96498336               96.69729284                0.76633446                0.09152755               -0.00422584                0.05822098                0.04210509               -0.20144444               -0.03875790
              25.93049880                5.40929788               96.29512853                0.68680878                0.04093279                0.00906058                0.05970196                0.02928527               -0.08253390               -0.05420113
              26.93067992                4.85498061               95.89406654                0.62925102               -0.00501334                0.02552471                0.06189143               -0.01240694                0.02924149               -0.02114824
              27.93039853                4.30169107               95.49368811                0.58675199               -0.03518616                0.03321803                0.04451403               -0.06066365                0.04917192                0.01827640
              28.92997620                3.74882884               95.09285062                0.58534415               -0.02000369                0.03834969               -0.04064221               -0.08661106               -0.06665449                0.02161279
              29.92999845                3.19589095               94.69048055                0.61308566                0.04906594                0.06718660               -0.23796949               -0.07471408               -0.18625391               -0.05048754
              30.93095752                2.64318288               94.28789427                0.83412260                0.09590623                0.11169609               -0.49410602               -0.09607805               -0.17990787               -0.34682198
              21.48844286                9.20548063               98.16794925                1.00000000               -0.04512438                0.05847675                0.09627554               -0.04833553               -0.01959016                0.37424118
              22.48799161                8.64311409               97.76540741                1.00000000               -0.03173425               -0.00758324                0.05900431               -0.07074345               -0.00175962                0.05058505
              23.48780817                8.08121119               97.36312227                1.00000000               -0.01792585               -0.06709554                0.04365422               -0.00621383                0.04987919               -0.10856166
              24.48763310                7.52191811               96.96151180                1.00000000               -0.05120087                0.02092306                0.03112707                0.04012007                0.12286499               -0.03327842
              25.48678415                6.96494110               96.56063176                0.99513548               -0.09200368                0.03818224                0.00687123                0.03680934                0.18410823               -0.02075010
              26.48579302                6.40938848               96.16013906                0.80822970               -0.12124501                0.05633408               -0.02228887                0.03037547                0.27975365               -0.04015354
              27.48435925                5.85523585               95.76108849                0.68616458               -0.14626240                0.06673310               -0.01520603               -0.00052484                0.37809926               -0.01469991
              28.48286777                5.30202325               95.36277368                0.60049567               -0.11745536                0.05966244               -0.03364608               -0.04008839                0.41379471                0.01284654
              29.48201015                4.74921234               94.96418629                0.55359621               -0.03967399                0.04170028               -0.06934428               -0.06120911                0.38486568                0.00548855
              30.48207430                4.19656282               94.56431484                0.49739504                0.03473314                0.04754370               -0.11221651               -0.05175809                0.29301853               -0.08758503
              31.48270481                3.64429984               94.16268962                0.68355885                0.06305152                0.07280939               -0.28539963               -0.05182170                0.26444578               -0.39393871
              22.05058498               10.20656090               98.02818734                1.00000000               -0.08854765                0.13395275                0.07151747               -0.01648147                0.01451027                0.50591892
              23.04969951                9.64320480               97.62369857                1.00000000               -0.09284089                0.01277360                0.04942428                0.01160753                0.10178095                0.04678601
              24.04872816                9.08052242               97.22098320                0.00010000               -0.19793827               -0.14684909                0.03139798                0.32228521                0.42819157               -0.42112064
              25.04574074                8.52272002               96.82313336                0.00010000               -0.28005446                7.95865830                0.00489185               10.40614824                0.60243125               11.45243544
              26.04312707                7.96574700               96.42418436                0.00010000               -0.24645956                8.64362281               -0.04137994               16.88544222                0.55994032               12.77108998
              27.04081155                7.41042456               96.02543149                0.00010000               -0.25462098                7.26282999               -0.09006995               22.83699224                0.66856773                8.35482020
              28.03803466                6.85631527               95.62841704                0.00010000               -0.25956362                4.69488157               -0.06164270               27.80574039                0.75061974                0.38332268
              29.03562028                6.30288432               95.23206882                0.00010000               -0.19111027                0.86647714               -0.05907786               30.48955280                0.77448899              -11.45541677
              30.03421245                5.74966285               94.83550054                0.00010000               -0.08722426               -5.22102378               -0.05907370               31.11791038                0.73700676              -29.43588969
              31.03387579                5.19684183               94.43730858                0.00010000                0.01172955              -15.53410732               -0.10521553               33.58529584                0.60905943              -55.53966755
              32.03444704                4.64463907               94.03619129                0.35734925                0.05712495              -44.03448170               -0.49982192               49.83237256                0.75235972              -86.79648403
              22.61482541               11.20815968               97.88863438                1.00000000               -0.05631713                0.14876489                0.04434428                0.04361202                0.01875643                0.53336547
              23.61426224               10.64336956               97.48165123                1.00000000               -0.00433754               -0.00356987                0.03244559                0.06016471                0.00947863                0.01096833
              24.61473866               10.07827421               97.07447456                0.00010000                9.81346163               -0.19175858                0.02001371                8.50274387               12.33420207               -0.59888595
              25.81053148                9.68109127               96.91389831                0.00010000               16.10248956                9.75336345                5.05725557               26.08323532               25.88151332               23.81577830
              26.93678846                9.13781355               96.54317678                0.00010000               12.07165618               11.72392689                2.63906679               31.49702196               20.21319040               25.50930319
              28.05196460                8.55464508               96.05813723                0.00010000               10.56129224                9.81259759                0.44781752               41.88198628               22.79819273               16.65681571
              29.14801430                7.94913349               95.50305144                0.00010000                7.36733264                5.87875349                0.84678906               50.96981232               25.07408202                1.07708357
              30.19931125                7.31935280               94.87180366                0.00010000                3.11982744               -0.21979070                1.74525846               55.42910065               21.51668424              -21.66284936
              31.21041085                6.64479186               94.11838474                0.00010000                2.97463695              -10.09008849               -0.55861309               54.20867399                8.85684897              -55.61373926
              32.25880399                5.88588067               93.20243936                0.00010000               18.66734659              -28.46436126              -13.88358663               39.29673618               -7.30060658             -105.42464127
              33.58375778                4.76361021               92.18470871                0.35744053               32.49537892              -61.74649746              -45.79642725               35.47561420               -6.22211606             -184.58804546
              23.18103747               12.20953619               97.74900834                1.00000000               -0.02491953                0.11058552                0.02432375                0.04167759                0.00269842                0.53566567
              24.18078827               11.64313341               97.33916610                1.00000000                0.00119314               -0.01840789                0.01754802                0.05980500                0.00631641               -0.00884973
              25.18106133               11.07668724               96.92934141                0.00010000               16.35389148               -0.13217478                0.01023648               10.42096795               18.58835207               -0.54362395
              26.50786610               10.71778728               96.89108757                0.00010000               30.92261857                0.22196065                6.39473462               24.76658640               40.24392281               16.29034493
              27.79951370               10.20022554               96.52854830                0.00010000               27.96326204                1.33223811                2.57249582               27.98915165               35.07745997               17.62422601
              29.06713134                9.60667651               95.96542754                0.00010000               24.66047433                0.77998198               -0.91339490               36.89186575               39.70498267                9.90279863
              30.29272319                8.97389034               95.27018945                0.00010000               19.07062845               -0.86739495               -1.45541186               45.65088503               43.37294157               -3.67664763
              31.44854391                8.29848851               94.43409859                0.00010000               12.95674316               -3.78061631               -2.16834013               50.43318351               38.71621573              -23.29891618
              32.55185805                7.54786108               93.39892764                0.00010000               12.62241295               -8.97689512               -8.55817600               47.26292578               22.98251882              -51.32663689
              33.70099217                6.62755460               92.12242898                0.00010000               21.83211027              -17.76230366              -30.49470949               31.05334138                5.68147906              -93.35666992
              34.98850026                5.40970912               90.70653919                0.35766917               28.75080864              -18.84635693              -75.06199462               14.86963293                1.47477874             -157.70349574
              23.74846454               13.21037139               97.60929278                1.00000000               -0.01572515                0.06379689                0.01176861                0.03719231                0.00718064                0.52847155
              24.74830729               12.64300140               97.19677274                1.00000000                0.00198001               -0.01190314                0.01104061                0.04678157                0.01095527               -0.00778927
              25.74850414               12.07563072               96.78426980                0.00010000               21.70088086               -0.08296794                0.00701722                8.90097876               22.07574557               -0.54158422
              27.18232491               11.68553048               96.81294862                0.00010000               42.95890586               -5.41728348                6.29368810               20.61255864               48.64988085               10.50215333
              28.60768226               11.16445832               96.44072752                0.00010000               41.69061027               -7.17476905                1.77110512               22.25183409               43.45088175               11.08838728
              30.01613712               10.57024472               95.81046484                0.00010000               38.07688714               -7.38414965               -2.52322010               28.96263673               49.37402246                5.16708275
              31.36922000                9.93178559               94.99716564                0.00010000               30.89335346               -7.09100380               -4.18230735               35.81070579               53.69137948               -5.64471787
              32.63400418                9.24374047               93.99288764                0.00010000               22.86916328               -6.75684105               -6.86286323               38.56292524               48.65469466              -21.44481224
              33.82660327                8.46525396               92.73802525                0.00010000               19.20092970               -6.50695519              -16.85299162               33.67903275               32.02090907              -44.26090919
              35.01802278                7.53063460               91.19836834                0.00010000               24.51190686               -3.78425078              -44.39588227               19.03877898               11.56366100              -77.94281967
              36.31684141                6.38668307               89.46585288                0.35787371               29.88186284                6.87458060              -97.11200705                9.63611319                4.51399105             -127.46302903
              24.31652130               14.21081213               97.46951926                1.00000000               -0.00567133                0.02884549                0.00227434                0.02755860                0.01191247                0.51393345
              25.31646458               13.64289534               97.05434931                0.93120638                0.00152639               -0.01008953                0.01247152                0.03872078                0.02054828               -0.02170404
              26.31655183               13.07502789               96.63929547                0.00010000               25.74125449               -0.04286531                0.02119380                5.14568557               24.03895053               -0.54665105
              27.83128967               12.60944161               96.70432614                0.00010000               52.16421605               -9.30243590                5.90364540               12.81697386               53.24403473                5.46840653
              29.35983615               12.05673016               96.32009382                0.00010000               52.38835672              -13.57392948                0.91036069               15.18260717               47.76264094                5.39369439
              30.87905681               11.45899352               95.63692051                0.00010000               48.78027060              -14.06094300               -3.86939041               20.99088498               54.15747292                1.18295330
              32.33544156               10.83207026               94.73221657                0.00010000               40.36386174              -12.17513979               -6.38501561               26.16348853               58.75124896               -6.58283024
              33.68633404               10.16335169               93.59831285                0.00010000               30.15515093               -8.75468838              -10.63560263               27.27136903               53.52905602              -18.37065031
              34.93854458                9.41772197               92.17769244                0.00010000               23.70023003               -3.36808793              -23.12473409               22.19131142               35.93611148              -35.63907055
              36.16033864                8.55186959               90.43802230                0.00010000               26.52905042                5.81231349              -54.29850319               11.61993631               13.56473749              -60.88721287
              37.46912559                7.54720073               88.47587982                0.35812732               30.87869417               20.95849023             -111.71506666                5.63237006                5.21689425              -95.73569204
              24.88484929               15.21094830               97.32957204                1.00000000                0.00166591                0.00603987               -0.00739912                0.01668382                0.01799155                0.48625814
              25.88486595               14.64279961               96.91174898                0.81229924                0.00111445               -0.00757724                0.01445929                0.02862246                0.03889310               -0.05572396
              26.88487158               14.07477341               96.49428891                0.00010000               28.60480804               -0.01674911                0.04621079               -0.33181326               25.37480752               -0.58671584
              28.45696211               13.49948177               96.58296416                0.00010000               58.84554588              -12.65075463                5.46735551                2.64961162               56.38877357                1.22162854
              30.06178250               12.89297973               96.19294407                0.00010000               60.18262977              -18.89718928                0.27683047                7.69306938               50.80656486                0.45883800
              31.66061471               12.28902586               95.47555127                0.00010000               56.31745525              -19.27580649               -4.69746926               14.50853641               57.23082765               -2.09975103
              33.18813161               11.68828279               94.50691126                0.00010000               46.65825721              -15.76208212               -7.74191396               18.90766175               61.56254441               -6.98980060
              34.59377985               11.06864670               93.27963832                0.00010000               34.68899958               -9.78189426              -13.02508380               19.20186599               55.76061199              -14.90270124
              35.88191160               10.39789220               91.73905790                0.00010000               26.35814468               -1.02852379              -27.10158185               15.04334003               37.29173094              -26.82616487
              37.12094275                9.64688087               89.85710016                0.00010000               27.84574613               11.65630851              -60.42674820                7.65090594               13.86768305              -43.93154750
              38.43882652                8.80585287               87.73863033                0.35774940               31.78837724               28.61889337             -120.46796232                3.70043995                5.13689675              -66.62334337
              25.45315236               16.21093293               97.18930024                1.00000000                0.00595717               -0.00058573               -0.01735653                0.00622139                0.02384014                0.44304654
              26.45321193               15.64274380               96.76876281                0.70150964                0.00405245               -0.00266411                0.00544622                0.01583717                0.05236216               -0.10876096
              27.45323341               15.07469290               96.34876008                0.00010000               30.64318295               -0.00898992                0.05232659               -7.48146255               26.84683936               -0.58271999
              29.06607559               14.35642652               96.46379654                0.00010000               63.54600156              -16.88452161                5.26718801               -9.52548745               59.83397174               -2.34199425
              30.72415344               13.67878637               96.08294001                0.00010000               65.39244422              -24.28022930                0.29503910                1.59798594               54.28351123               -3.26455306
              32.37392447               13.07347739               95.35315506                0.00010000               60.49102583              -22.83898663               -4.57673542               10.04125805               60.20837072               -4.26481144
              33.93397395               12.51682862               94.34585693                0.00010000               49.34187396              -17.70067708               -7.92296153               13.75826943               63.40973943               -6.44293319
              35.36076195               11.96771380               93.05651704                0.00010000               36.36016278              -10.04595435              -13.86545152               13.47648551               56.59658303              -10.92128602
              36.66117721               11.39715150               91.43500480                0.00010000               27.23170700                0.52557727              -28.91564389               10.42415730               37.39393012              -18.07623293
              37.90539609               10.78499576               89.45994019                0.00010000               28.20065844               15.00581710              -63.53965414                5.53580184               13.59699208              -28.07063359
              39.22519038               10.11957860               87.24406169                0.35789445               31.97942866               33.31455857             -125.19372004                2.58141300                4.86169778              -40.64540101
              26.02135199               17.21093659               97.04855849                1.00000000                0.00707368                0.00288315               -0.02604706                0.00200076                0.02558977                0.34146597
              27.02142272               16.64274633               96.62522802                0.51128834                0.01038113                0.00116439               -0.01132513                0.00472907                0.13325791               -0.15116527
              28.02155961               16.07459361               96.20403972                0.00010000               32.04680871               -0.03756659                0.03192302              -17.18659659               29.57098113               -0.50006503
              29.66235890               15.16179133               96.36880581                0.00010000               67.75658727              -26.04338730                5.63885959              -16.21355029               65.42090279               -3.04914155
              31.37669135               14.40737514               96.02492725                0.00010000               68.05193634              -27.55279933                1.44161404               -1.46152013               59.84961453               -4.66652273
              33.02339762               13.83224613               95.29926078                0.00010000               59.61846140              -24.08379032               -3.16437294                6.54551598               63.06899443               -3.96266567
              34.56906058               13.33426925               94.27284934                0.00010000               47.97945318              -18.06088499               -6.68462400                8.30831144               64.24711584               -4.18379025
              35.98298669               12.86772762               92.94551732                0.00010000               35.20261033               -9.80907543              -12.95541108                7.72047227               56.10597207               -5.97081792
              37.27311279               12.40840375               91.27338882                0.00010000               26.31224990                1.35111221              -28.40017774                5.99963278               36.30276683               -9.23846328
              38.50923169               11.94699721               89.24301805                0.00010000               27.40881549               16.48504082              -63.63203040                3.46778633               12.95706703              -13.60224443
              39.82128910               11.47214404               86.98070635                0.35791251               31.20574132               36.24015793             -126.40663034                1.27289998                4.68233775              -17.84127233
              26.58957289               18.21099059               96.90634909                1.00000000                0.00765987                0.00540020               -0.02135781               -0.00026015                0.14903919                0.26293240
              27.58964949               17.64276709               96.48148321                0.68963210                0.04417900                0.00207546               -0.01191368               -0.02977430                0.33885336               -0.16628951
              28.59045647               17.07394157               96.06042708                0.35904401               40.96867809               -0.06520386                0.06735289              -33.47072921               37.49289116               -0.53349607
              30.40902305               15.83555878               96.37581817                0.36010987               71.70058839              -32.62325584                8.42036577              -22.64414383               81.03475806              -10.12851479
              32.02446824               15.12773039               96.07420284                0.36085693               58.44588161              -27.96447550                4.46407906                2.58982878               65.03982289               -8.80591977
              33.57794068               14.59180158               95.35423961                0.36071622               52.00952297              -24.04445487               -0.30835418                6.84833274               63.21705314               -7.22559486
              35.06465870               14.15561092               94.31286952                0.36009660               43.15481076              -17.86583289               -3.99435580                8.54634718               62.36656262               -6.38396739
              36.44103690               13.77153229               92.96155576                0.35893032               31.86207852               -9.61953225              -10.04171550                9.23316225               53.53611992               -6.73849800
              37.70190027               13.42417374               91.26026435                0.35796014               23.49873115                1.57699945              -24.98518102               10.03696203               33.01303369               -7.70644495
              38.91101152               13.11469657               89.19449012                0.35754985               24.92272225               16.76993612              -59.60138723               11.18838440                9.34462713               -8.50794319
              40.20035471               12.84438176               86.90847663                0.67871388               28.93431916               37.22377124             -122.44969116               10.87507986                0.85556413               -5.56555468
              21.32741926                8.34955069               99.31039597                1.00000000                0.01616436                0.02706707                0.04471776               -0.03551857               -0.17199662                0.21271093
              22.32758091                7.78555382               98.90765191                1.00000000                0.05465824               -0.01618209                0.01881427               -0.05973650               -0.20959731                0.03016893
              23.32851243                7.22218931               98.50399203                1.00000000                0.10273732               -0.06548329                0.03229998               -0.03381662               -0.22807963               -0.00759876
              24.32963565                6.66083018               98.10077892                0.87744092                0.11554038               -0.03708922                0.02929565                0.04587297               -0.19097789               -0.02575289
              25.33082324                6.10158339               97.69778862                0.71157487                0.10271973                0.00052555                0.04002113                0.04782615               -0.12686330               -0.02384199
              26.33169005                5.54418866               97.29572571                0.60981489                0.06932551                0.00499275                0.05715777                0.04204872                0.03143318               -0.03376316
              27.33220975                4.98830097               96.89486029                0.55146136                0.02396816                0.00722775                0.10059640               -0.01675944                0.19445934                0.06019679
              28.33216941                4.43339336               96.49447001                0.51491794               -0.02833958                0.00451567                0.11528333               -0.08133630                0.20939691                0.12573573
              29.33164296                3.87798339               96.09278497                0.50807750               -0.04714625                0.00944284                0.03386753               -0.11893560               -0.01107972                0.09460839
              30.33122649                3.32080898               95.68800020                0.52087086                0.03106566                0.05692643               -0.20542337               -0.10885001               -0.27195401               -0.01552328
              31.33226427                2.76252602               95.28196653                0.77496291                0.10377814                0.09165860               -0.60008011               -0.11654459               -0.34799096               -0.60106180
              21.89106095                9.34982136               99.16876800                1.00000000               -0.03967173                0.08067266                0.06078408               -0.04420761               -0.00518175                0.31887715
              22.89066423                8.78539200               98.76590539                1.00000000               -0.02624323               -0.00072147                0.03963174               -0.06808690                0.02161723                0.04159723
              23.89053608                8.22153448               98.36351050                1.00000000               -0.01334433               -0.07229330                0.03704165                0.00182933                0.08103525               -0.08933269
              24.89039734                7.66045928               97.96177883                1.00000000               -0.04569146                0.02179401                0.02347073                0.04063256                0.14724913               -0.00087690
              25.88962225                7.10158865               97.56056146                0.84364700               -0.08227982                0.04432869               -0.01755324                0.04261136                0.21349471               -0.01207711
              26.88875175                6.54423859               97.15982329                0.58968532               -0.10912237                0.05388681               -0.03860658                0.04626974                0.34343911               -0.03573081
              27.88743981                5.98837325               96.76087947                0.45027519               -0.11184554                0.06277136               -0.06096722               -0.00207608                0.51424794                0.05610728
              28.88651484                5.43343851               96.36230537                0.36170629               -0.03470081                0.03641933               -0.11534732               -0.07044118                0.69043375                0.14177236
              29.88674579                4.87807782               95.96330045                0.30161661                0.06759196                0.00711028               -0.14935906               -0.13826275                0.85398535                0.10935679
              30.88786668                4.32137824               95.56309672                0.24253875                0.13179963                0.02505278               -0.13910561               -0.16834230                0.76998024               -0.16461882
              31.88938178                3.76344260               95.15901501                0.55021064                0.15151070               -0.03119420               -0.37516935                0.01139432                0.68681038               -1.13325419
              22.45539383               10.35116414               99.02878259                1.00000000               -0.08877848                0.15995787                0.03557959               -0.01043319                0.02278204                0.44873690
              23.45450605                9.78553939               98.62415497                1.00000000               -0.09560530                0.01776614                0.03982551                0.02351336                0.11247744                0.02987329
              24.45348173                9.22074344               98.22131730                0.00010000               -0.20559559               -0.16760216                0.04442074                0.36302937                0.43194793               -0.40868189
              25.45039414                8.66126606               97.82317749                0.00010000               -0.27927859               11.78956726                0.01118472               17.95350308                0.59515966               13.77013701
              26.44789616                8.10246996               97.42362730                0.00010000               -0.22816461               12.36795217               -0.07291351               31.14101173                0.58553480               12.90977403
              27.44583084                7.54526640               97.02441150                0.00010000               -0.24639259               10.80617237               -0.09923884               44.98135921                0.74211411                7.11289764
              28.44296830                6.98955640               96.62768939                0.00010000               -0.23874159                8.09734172               -0.09710157               56.04538384                1.02721727               -0.04728387
              29.44105601                6.43412174               96.23131328                0.00010000               -0.10151647                4.22973425               -0.16224054               63.06657328                1.59968077              -10.48843330
              30.44093797                5.87812560               95.83463229                0.00010000                0.07194243               -2.47702990               -0.43863785               65.17445009                2.77912723              -28.43789018
              31.44249486                5.32131003               95.43568337                0.00010000                0.37127288              -15.50687770               -1.01267878               65.43580933                4.38110849              -61.69406182
              32.44836343                4.76190213               95.02757178                0.35700743                0.58685708              -61.07396307               -6.60410948               84.44541556               10.49328239             -119.84782960
              23.02210179               11.35302051               98.88899204                1.00000000               -0.05465956                0.16841156                0.01760382                0.05146722                0.02505933                0.49342123
              24.02155519               10.78574732               98.48196427                1.00000000               -0.00158930               -0.00194745                0.02700717                0.07051869                0.01794189               -0.00404030
              25.02207000               10.21818243               98.07474509                0.00010000               17.30928468               -0.21617822                0.04146406               12.40368289               14.61864524               -0.59454584
              26.36774088                9.89625063               97.95969006                0.00010000               30.31860711               13.94853133                1.38055438               42.07949199               34.54251257               28.18885491
              27.62844214                9.34894769               97.54496938                0.00010000               26.67758079               16.83843420               -8.18595483               56.83371729               40.23328402               26.36246983
              28.90129250                8.76036204               97.03163545                0.00010000               24.55249986               14.88023339               -8.53198985               80.76591655               52.75452509               15.23078469
              30.11949214                8.15032008               96.49272107                0.00010000               17.89922988               10.92692761               -5.91316355              100.67704385               63.25723243                0.86410910
              31.25927710                7.51803320               95.88896976                0.00010000                9.17771821                4.88565020               -2.18164181              112.60872487               66.67382813              -19.12719108
              32.30304650                6.82853722               95.13653370                0.00010000                2.67646156               -5.79247028                0.93972687              113.11725218               56.49510725              -51.76717544
              33.31280633                6.01124069               94.08591145                0.00010000               19.70296945              -29.54895068               -7.19749213               82.64113702               26.43222446             -110.66491224
              34.69710589                4.54196334               92.65630304                0.35689878               38.42995638              -78.83922938              -59.58516703               64.99959926                9.75443272             -228.42288280
              23.59096957               12.35453237               98.74920397                1.00000000               -0.02150667                0.11761096                0.00923892                0.04586126                0.00763822                0.50938728
              24.59075450               11.78550044               98.33933653                1.00000000                0.00412531               -0.01938465                0.01425016                0.06475440                0.01389241               -0.01544520
              25.59105207               11.21641988               97.92949384                0.00010000               28.52321099               -0.14173044                0.01615969               14.69322772               21.05296943               -0.53243195
              27.16121872               10.94023668               97.94036086                0.00010000               56.47035084               -0.28770128               -2.21066142               37.81912886               55.20405061               18.02234835
              28.72045909               10.43923865               97.50987359                0.00010000               54.92790322                2.02922311              -13.33108738               47.28466916               66.46091731               18.16748295
              30.25977679                9.84287107               96.90603035                0.00010000               48.91894653                2.00407862              -14.21358733               64.76435514               84.77392599               10.01050084
              31.69883802                9.20809495               96.22155970                0.00010000               37.76182905                0.74864680              -11.42849988               81.31376101               97.65097482               -2.80936998
              33.01501337                8.53183475               95.40211065                0.00010000               25.56187548               -1.97714873               -7.74679441               91.40390948               98.04216882              -21.03634472
              34.21007553                7.76227619               94.33054492                0.00010000               18.34390595               -7.64119640               -7.49836791               87.76886983               79.71547266              -48.27497134
              35.38189149                6.73033102               92.82963893                0.00010000               23.84172891              -18.71795253              -24.73427072               60.10558853               43.21185055              -94.25232880
              36.68691011                5.18511754               90.87429441                0.35721225               30.50186239              -14.60712911              -88.57640907               31.03165906               18.87946361             -174.89648853
              24.16108288               13.35537273               98.60939547                1.00000000               -0.01201072                0.06209799                0.00611858                0.03898363                0.00984940                0.50547643
              25.16096277               12.78535963               98.19686511                1.00000000                0.00577171               -0.01399017                0.00760137                0.04890362                0.01547704               -0.00593458
              26.16119831               12.21534783               97.78433188                0.00010000               37.01709623               -0.08941483                0.00541895               12.30109719               24.00751903               -0.51304847
              27.90130469               11.89049660               97.85157545                0.00010000               75.51514148               -7.93737197               -4.52701112               29.95910011               63.20660047               10.26349518
              29.67150114               11.38953215               97.40286740                0.00010000               76.32093057               -9.95117360              -16.49954208               34.72520925               75.93937765               11.09885546
              31.42772330               10.80044361               96.72527949                0.00010000               69.26512708               -9.69786438              -17.34840826               46.80444887               96.35733839                5.84808289
              33.05680368               10.16529302               95.91440745                0.00010000               55.27253686               -8.93924906              -14.97836700               58.82096557              110.16278709               -3.64747869
              34.53317404                9.47849022               94.90976757                0.00010000               40.15619748               -8.38502996              -12.63786040               64.72072184              109.85892444              -17.68189197
              35.85992763                8.67571330               93.58347039                0.00010000               27.94513538               -8.16422213              -15.45126740               58.15176290               89.93860712              -38.83186718
              37.09207675                7.63688164               91.76161314                0.00010000               27.41191956               -3.73097180              -38.27556421               34.25289213               49.34400309              -73.21001416
              38.40816602                6.24982076               89.40943672                0.35738996               31.60892727               15.02004594             -109.51209789               18.05734714               22.37573416             -131.03545297
              24.73177545               14.35577433               98.46955035                1.00000000               -0.00179746                0.02545782                0.00294741                0.02806357                0.01223018                0.48798218
              25.73175748               13.78522063               98.05444479                1.00000000                0.00807922               -0.01530686                0.00736487                0.03479877                0.02097613               -0.01499646
              26.73193704               13.21463158               97.63941894                0.00010000               42.72294581               -0.05997852                0.00977834                6.90106752               25.49510330               -0.48372209
              28.58621640               12.78148924               97.73368787                0.00010000               88.65396139              -12.96704971               -6.57698977               17.99024425               67.21509365                4.82780110
              30.50501627               12.24021518               97.26710744                0.00010000               91.69442511              -18.62531939              -18.95655919               22.80915519               80.28951600                5.13449270
              32.42010490               11.64891378               96.53343284                0.00010000               84.60972265              -19.26597317              -19.71822978               32.37917972              101.41623349                1.96540295
              34.19721072               11.02930997               95.62470537                0.00010000               68.94513124              -17.12007934              -17.64011840               41.09207998              115.48607525               -4.33308894
              35.79900752               10.36413415               94.47651687                0.00010000               50.87543289              -13.45499303              -16.25666598               44.05067626              114.92612752              -14.32110332
              37.21471938                9.59899175               92.96108519                0.00010000               34.69171710               -7.42011843              -20.93105923               37.28269020               93.90989004              -29.67078969
              38.49284187                8.65571158               90.90495731                0.00010000               30.37297145                4.46658264              -46.39350980               20.64782474               51.13375838              -54.27898997
              39.82217881                7.48551846               88.27982259                0.35701584               32.93369416               26.49811304             -120.69494512               10.63297640               22.88172124              -92.92498777
              25.30275154               15.35588189               98.32951888                1.00000000                0.00499527                0.00269145               -0.00068747                0.01890454                0.01929674                0.46104504
              26.30280149               14.78505349               97.91187308                0.82804743                0.00997572               -0.01578265                0.00977578                0.02025222                0.04299317               -0.05793263
              27.30295105               14.21414826               97.49469667                0.00010000               46.63622475               -0.03761660                0.02685765               -0.58460519               26.40532434               -0.51058982
              29.23552599               13.63115561               97.60411687                0.00010000               97.86543269              -17.34556515               -7.91254942                3.94330901               69.80836831                0.41786756
              31.26025971               13.01702576               97.12950842                0.00010000              102.53430622              -25.76020371              -20.45113037               12.00540236               83.36789044                0.18268129
              33.28621211               12.41512415               96.36091788                0.00010000               95.15826042              -26.57982627              -21.08450371               22.18230415              104.60950235               -1.32377250
              35.16342491               11.82289143               95.38447113                0.00010000               77.91468366              -22.85507976              -19.21031786               28.95167727              118.35956919               -4.98509001
              36.84450578               11.20939036               94.13418462                0.00010000               57.52895441              -16.58473254              -18.45003783               30.09798094              117.20993434              -11.51261058
              38.31400400               10.52731093               92.48494026                0.00010000               38.70003750               -6.97666464              -24.14582259               24.50075794               95.31894539              -21.95442496
              39.61850653                9.72621329               90.26797932                0.00010000               32.36038932                8.32544637              -50.92613244               13.13530778               51.37325851              -38.29914209
              40.96121179                8.77978302               87.46416806                0.35714493               34.27052558               30.64706299             -126.67519645                6.78004930               22.71274988              -62.93272185
              25.87381035               16.35582816               98.18916661                1.00000000                0.00858108               -0.00574629               -0.00394578                0.01191709                0.02434740                0.42078280
              26.87389616               15.78490498               97.76879894                0.64136909                0.01662332               -0.01109464                0.00035346                0.00875998                0.06284202               -0.12918285
              27.87414281               15.21387925               97.34920401                0.00010000               49.41544546               -0.03051764                0.02784478              -10.38471712               27.68561064               -0.55033260
              29.86220507               14.43457794               97.48084180                0.00010000              104.35064805              -23.45780353               -8.43532390              -12.62052539               73.22525054               -3.39351562
              31.96115577               13.72501110               97.01833538                0.00010000              109.78401245              -33.30627871              -20.62110023                3.72658741               87.20875462               -3.53925620
              34.05788532               13.11731726               96.23899109                0.00010000              101.04111375              -31.63263428              -21.09055746               15.30268063              107.76070598               -3.38557927
              35.98197805               12.57220837               95.22124670                0.00010000               81.93311640              -26.03552826              -19.47355829               20.39287438              120.19764318               -4.80943689
              37.69654764               12.03243950               93.90291274                0.00010000               60.29667813              -18.01162240              -19.21259277               20.21126228              118.03224264               -8.62141528
              39.18791161               11.45945846               92.16417523                0.00010000               40.32641426               -6.57841829              -25.55659944               16.11037599               95.43835063              -15.08694641
              40.50307593               10.82222051               89.84283739                0.00010000               33.13643600               10.33369769              -53.14356851                8.90767888               51.06685237              -24.89493396
              41.85064033               10.09845972               86.92768454                0.35697134               34.75644029               33.27357491             -129.84285208                4.49283858               22.42602777              -39.22273408
              26.44483623               17.35576696               98.04833705                0.97742251                0.00893634               -0.00346337               -0.01747451                0.00586868                0.02261155                0.32196404
              27.44492560               16.78483159               97.62512423                0.40293817                0.03737587               -0.00598316               -0.00769930               -0.01183767                0.13973019               -0.16802824
              28.44558375               16.21353790               97.20420955                0.00010000               51.35290150               -0.12026191               -0.02020013              -23.89880948               30.64598782               -0.52958379
              30.47198363               15.16199954               97.38886109                0.00010000              110.32341938              -36.85931394               -8.23737746              -22.16574289               79.99171402               -4.40225933
              32.65205214               14.35090019               96.97183652                0.00010000              113.65424134              -37.86101454              -18.90017485               -0.60190498               93.63796811               -4.98979628
              34.74506845               13.78247146               96.19987419                0.00010000              100.20540107              -33.59236599              -19.47155626                9.90282331              110.74607744               -3.06473866
              36.65616016               13.30218086               95.16035779                0.00010000               80.82062440              -26.86505067              -18.33548599               11.91087421              120.95996033               -3.05383173
              38.36148094               12.84915792               93.80072423                0.00010000               59.51351755              -18.21712526              -18.45763386               11.04976908              117.71403679               -4.81742925
              39.84643051               12.39574256               92.00817996                0.00010000               39.80889522               -6.25126643              -25.11500476                8.78262664               94.68799590               -8.05693696
              41.15765885               11.93288724               89.62620010                0.00010000               32.60798112               11.08710977              -53.04614193                5.25755122               50.45978351              -12.62473063
              42.49859013               11.44525452               86.65143765                0.35654998               34.09312873               36.55251558             -130.91417586                2.12961579               22.19081005              -18.81955395
              27.01579846               18.35575889               97.90621314                0.94767287                0.00900084               -0.00080719                0.00059906               -0.00113488                0.12899614                0.23962783
              28.01588847               17.78478532               97.48142980                0.61742153                0.16001117               -0.00462766               -0.00840148               -0.11795700                0.36037529               -0.16865377
              29.01899868               17.21147401               97.06117587                0.35886576               63.28197283               -0.20638891                0.01765286              -47.02818985               40.61458542               -1.08815845
              31.28152792               15.69739166               97.42333934                0.36008634              115.48235351              -46.46078771               -5.68775984              -31.22973053               99.07966266              -12.87515491
              33.32864575               14.96779081               97.04943884                0.36076405              101.15665931              -38.31093783              -15.52784339                5.06327499               98.23455863              -10.29319256
              35.30466111               14.44546994               96.28110092                0.36056305               91.24316650              -33.70015268              -17.06018106                9.31509279              110.14503761               -7.18728082
              37.15350908               14.03490736               95.22459570                0.35998184               75.96601102              -26.72735064              -16.31377891               10.86624494              119.43941940               -6.57057794
              38.82398133               13.66809699               93.84469915                0.35895408               56.31628691              -18.10609235              -16.00353466               11.22632732              116.57998991               -7.63913705
              40.27983482               13.33443313               92.03038603                0.35765795               36.73668348               -6.13094317              -21.72541947               12.13371645               93.48132188               -9.41940463
              41.55871500               13.04396270               89.62330861                0.35680454               29.43316399               11.10754624              -48.69256418               14.85946050               49.08027834              -11.20179708
              42.86849810               12.82951003               86.62650677                0.67846096               30.97831006               38.42555176             -126.41030149               15.54552956               21.01531690              -11.84639246
              21.72886682                8.49290153              100.31060053                1.00000000                0.01901237                0.05700320                0.00527745               -0.02510037               -0.09618163                0.12789036
              22.72905694                7.92745289               99.90765245                1.00000000                0.05505158               -0.00099161               -0.00963732               -0.04885510               -0.12170530                0.01671001
              23.72996785                7.36267540               99.50417547                1.00000000                0.09975779               -0.05761329                0.00272612               -0.02455223               -0.13982905                0.00329441
              24.73105210                6.79978668               99.10097150                0.81416970                0.12046827               -0.02846806                0.00388408                0.06177388               -0.11631237                0.00299846
              25.73237721                6.23896082               98.69809326                0.61179845                0.15018473               -0.00999476                0.00578781                0.09527625               -0.02071725               -0.00534496
              26.73405579                5.68042745               98.29627168                0.50256609                0.17237992               -0.04393762                0.02510068                0.08806816                0.22158118                0.03621832
              27.73582481                5.12414617               97.89607847                0.45964569                0.13029969               -0.06172790                0.09863443                0.03911388                0.46934001                0.16933402
              28.73666178                4.56853507               97.49599378                0.44500815                0.01998014               -0.05196435                0.12596700                0.03656295                0.45100834                0.19046055
              29.73622441                4.00969005               97.09352797                0.44186223               -0.06419817               -0.01379024                0.05667637                0.05002724                0.15680159                0.10584161
              30.73537782                3.44538744               96.68637208                0.43888725               -0.00796851                0.01998313               -0.10621108                0.00688268               -0.17382216                0.07995560
              31.73606504                2.87706467               96.27589267                0.72090366                0.06872237               -0.10351727               -0.44136882                0.02166237               -0.33779112               -0.51776407
              22.29406445                9.49347156              100.16916493                1.00000000               -0.03829977                0.12050312                0.01570946               -0.03140665                0.01310980                0.20652479
              23.29368145                8.92744297               99.76620005                1.00000000               -0.02545109                0.01452492                0.01908023               -0.05074484                0.03722792                0.02216601
              24.29355543                8.36209926               99.36386311                1.00000000               -0.00771673               -0.07805998                0.03112018                0.02178875                0.07196972               -0.05873106
              25.29352712                7.79950200               98.96198122                1.00000000               -0.02729206                0.02124256                0.01373216                0.05217286                0.11056159                0.02445059
              26.29300959                7.23886088               98.56028070                0.56838014               -0.05916613                0.02868722               -0.02671042                0.08563126                0.19978954               -0.00531776
              27.29234380                6.67998807               98.15936693                0.28581119               -0.04237246                0.02214524               -0.07441376                0.11019812                0.42117011                0.05333394
              28.29216214                6.12352889               97.75986915                0.17796328                0.09558380               -0.03090918               -0.20300019                0.19398824                0.74665283                0.31076461
              29.29425547                5.56801543               97.36046674                0.13698896                0.30681803               -0.10419052               -0.27901085                0.50162317                1.13391437                0.39857318
              30.29829850                5.00955215               96.96119911                0.10100764                0.37519322               -0.10091286               -0.25946592                1.33861707                1.49872195               -0.02570200
              31.30175934                4.44558727               96.56153273                0.04249100                0.31529686               -0.26207890               -0.19998460                2.98290002                1.43933760               -0.94487648
              32.30460444                3.87602950               96.15518623                0.44019592                0.28451000               -6.33351136               -0.38512899                9.26776333                1.27991148               -7.14909867
              22.86029586               10.49531159              100.02889893                1.00000000               -0.08815199                0.20675847               -0.01344629                0.00906470                0.03275149                0.31765722
              23.85941434                9.92774339               99.62449508                1.00000000               -0.09756310                0.03321118                0.02790329                0.04945954                0.10568284                0.01868352
              24.85834460                9.36111420               99.22187161                0.00010000               -0.20402004               -0.19462522                0.07692558                0.41492447                0.35812618               -0.33882465
              25.85533394                8.80021153               98.82335705                0.00010000               -0.23704180               16.40915028                0.02871336               30.80253454                0.45576302               12.86231779
              26.85360376                8.23953457               98.42272609                0.00010000               -0.18711017               16.99778912               -0.08077774               62.85789910                0.52880514                4.68258117
              27.85159174                7.68087035               98.02344671                0.00010000               -0.09632690               14.88269270               -0.26340169               87.54765139                1.20512169               -0.00023500
              28.85167722                7.12352799               97.62647501                0.00010000                0.45396277               12.45082355               -2.18011559              107.46217010                7.79161802               -5.37958582
              29.86067099                6.56645126               97.22882401                0.00010000                1.68738427                9.89980922               -6.79228649              123.94317630               33.76436351              -11.57664176
              30.88542491                6.00767180               96.82672778                0.00010000                3.39437409                5.19917894              -12.85091678              135.93837063               72.95865611              -23.12020805
              31.92855847                5.44014586               96.41705501                0.00010000                8.75554750               -8.34802053              -16.45848541              135.43212233              115.50353233              -51.34009495
              33.06053586                4.75039444               95.90410910                0.35655609               13.19773863              -76.37997862              -63.01409061              147.69779858              160.89616608             -191.47834126
              23.42938215               11.49760673               99.88898646                1.00000000               -0.05141153                0.20044618               -0.02215687                0.08150907                0.03022993                0.37630537
              24.42886804               10.92810720               99.48219138                1.00000000                0.00018116                0.00901380                0.01357343                0.09809706                0.02862621               -0.00597710
              25.42938578               10.35820676               99.07530384                0.00010000               30.11446994               -0.23311925                0.05649586               17.11647983               13.68313441               -0.48438051
              27.03115744               10.12768500               98.94150940                0.00010000               62.00614839               19.30686668              -28.23451098               69.84216630               95.27609828               29.15079067
              28.66950875                9.57881666               98.37945769                0.00010000               56.40729834               23.30713052              -26.60845507              107.97078604              114.06170007               16.38193992
              30.15930340                8.97764193               97.88749743                0.00010000               44.31579458               21.61860675              -23.30709103              149.65303635              135.08124316                7.54142901
              31.55582464                8.37254537               97.38478817                0.00010000               36.48358943               18.62442853              -19.75875847              184.31774272              147.30019613               -3.29188428
              32.88897519                7.76601161               96.82817082                0.00010000               29.37733361               14.52562733              -16.07163043              209.03607194              154.35219171              -17.18747487
              34.14337131                7.11353573               96.13717927                0.00010000               18.93519713                6.38765794              -11.09475197              217.29147804              150.40598320              -38.19118674
              35.26767914                6.27862686               95.05848952                0.00010000               24.73459694              -18.66697631               -7.67312102              166.39077096              110.34721989              -87.71794339
              36.63806325                4.34842993               92.99300537                0.35668230               37.03841119              -79.58743871              -46.24459956              117.79244263               59.13008890             -215.20293409
              24.00092511               12.49932051               99.74919311                1.00000000               -0.01488578                0.12639057               -0.01461530                0.07732003                0.01274402                0.39662305
              25.00077625               11.92792366               99.33945110                1.00000000                0.00856391               -0.01663704                0.00855481                0.09718405                0.01939282               -0.01379741
              26.00109639               11.35645181               98.92966460                0.00010000               51.53955565               -0.13810568                0.01792372               20.14918030               16.37943654               -0.42473951
              28.03156736               11.18634886               98.84687435                0.00010000              108.09830851               -1.51058100              -37.20195878               57.29946679              106.31708349               13.02671953
              30.16306256               10.70567718               98.26192655                0.00010000              100.96781963                2.51924562              -34.86567990               75.50753284              134.99680195               12.85379404
              32.05092376               10.11324249               97.68115579                0.00010000               79.32999186                4.10809852              -30.00596630              103.13899008              160.96195423                6.68650254
              33.74966239                9.49601656               97.04161946                0.00010000               62.47391544                4.15724853              -24.77650261              128.79421727              174.49040455               -1.96481428
              35.30040207                8.85696381               96.27916270                0.00010000               48.44884115                2.48423991              -19.90212755              145.62764679              178.94345063              -13.67395762
              36.71863922                8.13542496               95.24896028                0.00010000               36.05388146               -2.77296908              -16.22700850              142.00005339              166.37014326              -32.40662828
              38.02147969                7.06680634               93.62774356                0.00010000               27.90696829              -14.37554637              -19.99650134               96.72390467              118.15347211              -65.66336100
              39.27677858                5.15864567               90.93501101                0.35674245               25.52988889                0.60079518              -77.62819960               50.71621717               78.29932703             -139.42181149
              24.57372226               13.50013454               99.60941515                1.00000000               -0.00418359                0.05639239               -0.00440998                0.06658732                0.01228494                0.39092122
              25.57368042               12.92777445               99.19692476                1.00000000                0.01109625               -0.01681102                0.00465967                0.07746861                0.01945338               -0.00495922
              26.57394418               12.35544465               98.78437818                0.00010000               62.71204914               -0.07315768                0.00112064               15.79066755               17.55956148               -0.39270589
              28.82792141               12.09747338               98.72240839                0.00010000              133.94107957              -11.64463210              -44.04014692               39.50463025              111.76962334                6.98640767
              31.25276577               11.62920157               98.11073668                0.00010000              130.19112101              -13.64490938              -40.63244363               48.25747279              141.29990033                7.62938708
              33.43174383               11.05980390               97.46349667                0.00010000              106.76109454              -12.52896506              -34.76417406               66.26742780              169.08378348                4.82819645
              35.38798767               10.45569034               96.69759830                0.00010000               86.51879544              -11.03358768              -28.78900609               85.41545752              182.82241052               -1.00561016
              37.16211973                9.81569641               95.74013043                0.00010000               69.27710898              -10.22256191              -23.98359696               97.52303622              186.40594343               -9.72705192
              38.77352985                9.05807635               94.42899990                0.00010000               50.84083896              -10.62943238              -21.74803406               92.25411191              172.01765647              -23.06342653
              40.17893651                7.99111594               92.43285706                0.00010000               34.75895400               -5.34413684              -29.48242397               57.25831011              122.08241373              -46.34754461
              41.46870893                6.36044583               89.27561093                0.35643045               28.97724117               23.76619794              -91.13831876               31.94553383               79.94110707              -97.07032993
              25.14697703               14.50044836               99.46957820                1.00000000                0.00384910                0.02092048               -0.00108267                0.05413709                0.01027931                0.37718060
              26.14701552               13.92758744               99.05449660                0.87633783                0.01168912               -0.02438220                0.00657549                0.07039535                0.01721706               -0.01830612
              27.14721081               13.35498866               98.63949103                0.00010000               70.04437619               -0.03340530                0.00390085                8.63294393               17.44916358               -0.36088579
              29.54790304               12.95345622               98.57278635                0.00010000              150.93353438              -16.83940959              -48.49770227               23.40933310              113.65648098                2.68123013
              32.16588150               12.43277899               97.94096264                0.00010000              150.09402531              -24.18980778              -44.60520751               31.43902457              144.29200975                3.21953996
              34.54978355               11.86266319               97.24255591                0.00010000              126.80987680              -25.14058675              -38.05606958               45.43320159              172.45310972                1.88445602
              36.70207903               11.27534481               96.37941420                0.00010000              104.93466146              -23.18253379              -31.74230230               59.19589803              186.25378622               -1.56438396
              38.64847678               10.65251257               95.27317953                0.00010000               84.31114479              -20.18488939              -27.07201650               66.14405868              189.63302860               -7.31649283
              40.38830193                9.92283631               93.75907126                0.00010000               60.78998183              -15.11813451              -25.67848701               59.41884960              174.85136737              -16.56138991
              41.86427641                8.95992360               91.51015211                0.00010000               39.43637703               -2.40489889              -34.66383068               35.06884636              123.33106661              -32.42595312
              43.17702947                7.63396963               88.06198092                0.35645586               31.27530555               26.94453274              -96.89268285               19.00435834               80.33397958              -64.44061910
              25.72052684               15.50055295               99.32955829                1.00000000                0.00211931                0.00410285                0.00141534                0.04326677                0.01804807                0.36647397
              26.72054803               14.92728681               98.91194450                0.68341744                0.01037218               -0.03392271                0.00796500                0.08197168                0.04184309               -0.07400796
              27.72073428               14.35477654               98.49482607                0.00010000               74.88848499               -0.04076441               -0.00819257               -0.94548347               17.44807443               -0.39711816
              30.21831773               13.76068519               98.42471318                0.00010000              162.58025070              -22.48221154              -50.90548086                5.20875329              114.88883842               -0.46620937
              32.97233930               13.14540542               97.78392147                0.00010000              163.97621548              -33.35529237              -46.70540977               17.03023566              146.42675593               -0.11087163
              35.49784204               12.55699216               97.05386120                0.00010000              140.48584743              -34.79268503              -39.85691250               31.15389819              174.72414165               -0.38231576
              37.78205625               11.99203966               96.12270491                0.00010000              116.98336824              -31.52957923              -33.49858288               41.34662972              188.20136393               -2.22994784
              39.83750941               11.41199862               94.91063757                0.00010000               93.62197790              -26.18833403              -29.00885578               44.68377471              191.24634416               -5.94676411
              41.65449580               10.75571366               93.25614145                0.00010000               66.58353556              -17.53317171              -27.99557867               38.63684899              175.96175369              -12.17704617
              43.16918012                9.94301796               90.83857751                0.00010000               42.31041152               -1.55236514              -37.34119435               22.12851250              123.62397964              -22.61207304
              44.50070403                8.89933649               87.20512641                0.35663948               33.15239162               25.69423498              -99.33245710               11.98121093               79.99604272              -42.77938940
              26.29437464               16.50053042               99.18922132                1.00000000                0.00567205               -0.01118096                0.00497959                0.02300759                0.01963941                0.33666463
              27.29443136               15.92690899               98.76876988                0.47795293                0.02640589               -0.02659556               -0.00436234                0.07198721                0.07140690               -0.14391994
              28.29490276               15.35417337               98.34931698                0.00010000               78.35089339               -0.13732337               -0.04445597              -13.65443857               18.50225842               -0.48987592
              30.86144923               14.50381199               98.29509006                0.00010000              170.76382390              -31.47182947              -51.25538336              -15.61258754              117.17411426               -3.93022851
              33.71017924               13.76567314               97.67051801                0.00010000              173.23890187              -43.44648310              -46.62954073                6.45479047              149.49796226               -2.36691035
              36.32622727               13.16680949               96.93134391                0.00010000              148.19129654              -41.40753203              -40.00187947               21.55179682              177.07730262               -1.62120280
              38.67400517               12.64475322               95.95638576                0.00010000              122.61255029              -36.10980212              -33.89005833               28.36449525              189.40901623               -2.34525230
              40.77847827               12.12874589               94.67226519                0.00010000               97.80072017              -29.12030013              -29.70485434               28.96777483              191.76955965               -4.72346280
              42.63001957               11.57217287               92.92387281                0.00010000               69.23727814              -18.73297245              -28.94045482               24.35157200              176.07337940               -8.83147326
              44.16322384               10.92887630               90.39706882                0.00010000               43.69985303               -1.44932899              -38.49630675               14.08355011              123.44637390              -15.23075151
              45.50401663               10.14785433               86.64720465                0.35628252               34.07927962               24.87971216             -100.55184100                7.59411140               79.81555728              -27.51855699
              26.86822985               17.50032933               99.04820900                0.76487434                0.01149723               -0.02497295               -0.01253707                0.00979954                0.03085222                0.27352743
              27.86834483               16.92675490               98.62507403                0.22115487                0.12563283               -0.00630604               -0.00802034               -0.04181782                0.12935311               -0.18026777
              28.87074251               16.35203007               98.20363572                0.00010000               81.31106904               -0.79638074               -0.39727514              -31.47852090               22.24077321               -0.68119718
              31.49456621               15.13124860               98.20405826                0.00010000              178.38475490              -49.73564121              -48.78113528              -26.73251051              124.15699985               -6.39398175
              34.43843761               14.27647575               97.64692376                0.00010000              177.76158470              -49.95056251              -44.29795387                0.94057571              155.64616228               -2.92073318
              37.04979790               13.72884152               96.90982965                0.00010000              147.44860714              -44.06034902              -38.24176939               13.64125859              179.03994592               -1.24923004
              39.38740975               13.26984362               95.90613962                0.00010000              121.98236758              -37.45148389              -33.01513913               15.82973943              189.67919505               -1.41937038
              41.48944525               12.82959262               94.57636464                0.00010000               97.69935410              -29.89730851              -29.19323158               14.97893406              191.23905985               -2.80266442
              43.34139683               12.38105421               92.77108873                0.00010000               69.28622060              -19.03996831              -28.54802996               12.36682165              175.50646113               -5.14006116
              44.87516966               11.91403138               90.18209521                0.00010000               43.66166834               -1.62163374              -38.17438593                7.45745160              122.95941508               -8.26114943
              46.21463020               11.39693073               86.36242283                0.35651887               33.94605356               25.47306689             -100.83126987                3.80233944               79.58547722              -14.48778473
              27.44171950               18.50003096               98.90636107                0.82325383                0.01747688               -0.02983714                0.02213659                0.02415498                0.13041537                0.23185800
              28.44189427               17.92678287               98.48131518                0.49977840                0.95595718                0.00279675               -0.02941301               -0.73431631                0.39213883               -0.19275156
              29.46083864               17.33824575               98.06078014                0.35869195               98.02295363               -1.37843171               -3.95512289              -61.87457211               45.97829183               -6.74059992
              32.40235334               15.50909917               98.26206297                0.35922617              183.52795954              -62.21494361              -43.24129037              -37.80047991              143.05126890              -18.87275571
              35.13139783               14.76666189               97.76364598                0.35963202              160.16656191              -50.98138600              -39.12756477                8.12118937              158.45576752               -8.24060271
              37.60568458               14.28560251               97.01303599                0.35971174              137.92255149              -44.32390150              -36.01176728               12.04175003              177.44063559               -6.07528006
              39.88984886               13.89572354               95.98659395                0.35923057              118.05808939              -37.41200734              -31.69854520               12.50377145              188.67679621               -6.24345154
              41.96684636               13.53079972               94.64148506                0.35905226               95.15341926              -29.87929016              -27.55549092               12.52260928              191.63826964               -8.26521096
              43.79291725               13.19137351               92.82575596                0.35794346               66.48249925              -18.96807019              -25.73933276               13.43423658              176.13109557              -12.05498141
              45.29649635               12.89644362               90.22063884                0.35680928               41.06737371               -1.75877548              -34.94156879               15.42977645              123.34709285              -13.85614363
              46.61426472               12.65731567               86.38027060                0.67842866               31.77683713               26.03849385              -97.76857437               16.05065642               80.76420630              -17.89655279
              22.13139177                8.63497968              101.31050152                1.00000000                0.01800785                0.06737646               -0.00990016               -0.03257157               -0.05174045                0.06588172
              23.13157185                8.06879283              100.90745916                1.00000000                0.05025124                0.01998631               -0.01932934               -0.09111090               -0.07125738                0.01677693
              24.13239680                7.50287994              100.50404655                1.00000000                0.09098828               -0.02162198               -0.01289253               -0.11635422               -0.08723256                0.02908993
              25.13339162                6.93887072              100.10085661                1.00000000                0.13559568               -0.03079721               -0.01148972               -0.00897940               -0.07315641                0.02809135
              26.13510871                6.37710162               99.69790437                1.00000000                0.23724216               -0.02521572               -0.01888884                0.10495228                0.04170598                0.02636767
              27.13813646                5.81872253               99.29622772                1.00000000                0.33828684               -0.05922937               -0.00439567                0.29525780                0.35449728                0.04023767
              28.14187445                5.26410630               98.89683298                1.00000000                0.28018097                0.00857026                0.07545029                0.41656671                0.64304504               -0.00533817
              29.14374008                4.70825665               98.49698935                1.00000000                0.12631173                0.03230949                0.09955696                0.44489100                0.56210586               -0.05426155
              30.14440068                4.14475795               98.09391850                1.00000000                0.08226335               -0.03939805                0.03905272                0.31686258                0.26195842               -0.07394680
              31.14538535                3.57208680               97.68587598                1.00000000                0.10332961               -0.02890104               -0.04961049                0.16937757               -0.03821465               -0.00795933
              32.14646728                2.99358360               97.27313915                1.00000000                0.10819282               -0.13394039               -0.27535173                0.27025254               -0.23345950               -0.53077905
              22.69725291                9.63565344              101.16908219                1.00000000               -0.05422953                0.13580396               -0.00827421                0.00716451                0.03932592                0.11879525
              23.69671062                9.06899269              100.76628699                1.00000000               -0.05292999                0.05644514                0.00869420               -0.04572778                0.05545202                0.01766557
              24.69619431                8.50266372              100.36413291                1.00000000               -0.02598164               -0.01768582                0.02698028               -0.05222310                0.05221234               -0.00309144
              25.69619098                7.93856275               99.96205348                1.00000000                0.00190093                0.00567527                0.00722612               -0.02754759                0.06110365                0.05083293
              26.69623233                7.37684946               99.56002726                1.00000000                0.06978588               -0.00785104               -0.02534427                0.14206869                0.13635109                0.00422697
              27.69758670                6.81813024               99.15833502                1.00000000                0.25203638               -0.07956650               -0.10319123                0.76952184                0.36390094               -0.03999613
              28.70127306                6.26419200               98.75681947                1.00000000                0.51382321               -0.35303195               -0.30496794                7.09992135                0.83059829               -1.57098399
              29.70786316                5.70857975               98.35672515                1.00000000                0.71905907                1.33140858               -0.37415865               32.62612004                1.42535223               -6.01965768
              30.71565424                5.14436397               97.95811113                1.00000000                0.74015682                4.74916586               -0.30879766               71.53487265                1.85416774              -12.33404482
              31.72266630                4.57179779               97.55909703                1.00000000                0.60093804               11.27322706               -0.24356983              118.88395315                1.75076138              -16.34706460
              32.72767300                3.99224419               97.15131243                1.00000000                0.50066983              -44.95337146               -0.38738024              169.33020545                1.52839640              -63.67098933
              23.26485657               10.63769576              101.02851366                1.00000000               -0.12095468                0.22994981               -0.03852719                0.17477904                0.07600854                0.21175263
              24.26364702               10.06992173              100.62471303                1.00000000               -0.15371458                0.08395302                0.02179556                0.19650910                0.14037612                0.01527168
              25.26178228                9.50252622              100.22285581                1.00000000               -0.24960521               -0.09809397                0.09841997                0.46414238                0.29570460               -0.27169287
              26.25865492                8.93898423               99.82375176                1.00000000               -0.16998421               25.85931992                0.03947115              107.36681986                0.28989459              -14.47541213
              27.25838260                8.37694460               99.42201174                1.00000000                0.37647198               23.02682818               -0.07143488              157.28013832                0.24746887              -13.62034600
              28.26618436                7.81713120               99.01914347                1.00000000                6.75203864               21.76756514               -0.43032424              189.00506227               -0.43697058              -16.01598455
              29.39342337                7.25704566               98.58408708                1.00000000               32.49530759               20.25729732               -4.23879280              217.06516176                7.99081860              -19.61191114
              30.91609051                6.73488482               98.09546755                1.00000000               65.92283654               20.76826292              -13.33564566              243.43811347               55.21829599              -22.61604332
              32.71188010                6.23974127               97.57761396                1.00000000               87.95468384               24.90585066              -24.91138216              271.39298709              133.19782444              -28.96667628
              34.67518419                5.79755134               97.10651366                1.00000000               99.01492339               23.71977385              -31.05413465              239.80166154              184.14637223              -45.59185272
              36.69217857                4.09451617               95.76728997                1.00000000              101.69943786              -39.26207233             -113.68191287              193.84663202              229.24190195             -236.58289655
              23.83629655               11.64025244              100.88854891                1.00000000               -0.04862123                0.21701907               -0.04375498                0.33452592                0.06012233                0.28447100
              24.83581034               11.07067175              100.48223574                1.00000000                0.00590576                0.02846854                0.00443609                0.37366219                0.06053452               -0.00381495
              25.83641466               10.50070184              100.07587500                1.00000000              106.66493324               -0.18377355                0.05711671               26.72563393              -13.65890624               -0.40066728
              28.96910900               10.45574915               99.39499984                1.00000000              156.36367275               24.04439275              -54.65095615              151.66638543              140.64141985                1.43491063
              30.96368812                9.83738603               99.01280028                1.00000000               81.42389422               29.40454685              -36.66574115              206.27317425              187.94262677               -4.61565089
              32.59758688                9.25348154               98.56549363                1.00000000               58.05672763               29.17353364              -32.20037984              263.25452643              198.06562949               -8.07766069
              34.12482267                8.66933795               98.09754590                1.00000000               49.81714697               29.94714323              -28.72422616              303.38396472              207.00197958              -13.22361362
              35.59392982                8.12394501               97.56753715                1.00000000               47.80123982               30.57555790              -26.06336667              322.17970381              211.35010074              -18.77663337
              37.08084747                7.64248099               96.91463866                1.00000000               53.49974039               29.12908666              -22.25406179              319.96328483              211.99320951              -25.68593490
              38.66392463                7.04619326               95.93244903                1.00000000               46.49142540               12.25724629              -12.60404945              247.41238880              180.46316931              -57.08359766
              40.01067597                5.20700275               93.73141105                1.00000000               34.67513431                0.97797950              -26.15943198              163.39010793              117.15747505             -136.42069564
              24.41070847               12.64203614              100.74891166                1.00000000               -0.00375970                0.12768139               -0.02814534                0.34613581                0.03793233                0.30948073
              25.41067087               12.07049110              100.33950763                1.00000000                0.02545476               -0.02284043                0.00565206                0.36965403                0.03649452               -0.00712796
              26.41121756               11.49885075               99.92985231                1.00000000              127.23137843               -0.15172813                0.01877107               24.99361132              -16.14717933               -0.33614175
              29.95529844               11.41987208               99.19632169                1.00000000              208.74480611               -7.57181949              -65.05526599               65.37072224              136.50849148                2.14095532
              32.58611368               10.96503554               98.81255999                1.00000000              137.20122638                1.28488910              -44.93665620               88.67262732              197.78457987                4.80674803
              34.69932297               10.40060188               98.30591103                1.00000000              100.22627569                4.10629397              -37.52447630              125.79517274              210.51340368                1.96105750
              36.59063920                9.85598852               97.72602964                1.00000000               84.36092918                6.90240605              -31.55898123              162.87947833              219.00553376               -1.94873223
              38.38654155                9.34639598               97.00406809                1.00000000               79.91291701                8.29936793              -27.50946102              195.11479845              222.61270382               -7.92885858
              40.18889754                8.82232300               96.00600475                1.00000000               83.61843255                3.09264025              -24.29555349              211.15034758              218.30787276              -19.61664249
              42.05891020                8.04269626               94.42970891                1.00000000               72.47321077              -10.93355323              -19.80346552              165.74710618              169.52933401              -40.43522599
              43.63836175                6.11407576               91.32173041                1.00000000               57.94515528               -1.27792474              -61.32805947              122.67817229              125.36046792             -111.69402644
              24.98630934               13.64280607              100.60930727                1.00000000                0.00794651                0.05693297               -0.01078776                0.31267622                0.02381135                0.29800443
              25.98638881               13.07021494              100.19695830                1.00000000                0.02982840               -0.03281599                0.00335358                0.31896639                0.02318963               -0.00251769
              26.98690591               12.49766727               99.78435429                1.00000000              141.19749255               -0.09423843               -0.00238837               19.27554093              -20.01311685               -0.29550493
              30.81033866               12.30431276               98.97077251                1.00000000              238.47524795              -14.35315074              -75.16358845               48.39962538              138.53493671               -0.94545580
              33.75641087               11.86308381               98.59021852                1.00000000              170.60993467              -16.68071728              -52.05181573               58.31339391              203.32568430                1.51038877
              36.22253735               11.33560742               98.02999601                1.00000000              134.01036309              -15.21817501              -43.35006649               83.78474125              216.49979300                0.90037321
              38.43661813               10.80738607               97.33862733                1.00000000              115.36769818              -14.15364201              -35.89709722              112.76742868              224.86802764               -1.63894253
              40.52989131               10.28993236               96.43009563                1.00000000              108.54680036              -14.95494113              -31.00348039              136.12086036              227.27127702               -6.02598235
              42.60755414                9.70433379               95.14850971                1.00000000              107.86113422              -19.08502986              -28.04901887              141.17332199              220.49588062              -13.29872079
              44.68711400                8.82752220               93.17196466                1.00000000               85.69631449              -22.06121003              -26.08923999              103.73769013              172.72578021              -27.26078397
              46.32148043                7.18144425               89.58667034                1.00000000               63.43664287                7.65574206              -68.89405811               69.73415694              126.74771894              -66.88823200
              25.56214424               14.64317480              100.46952870                1.00000000                0.00447485                0.03810901               -0.00495076                0.26753552                0.02148152                0.28463971
              26.56218899               14.06983478              100.05457630                1.00000000                0.02431622               -0.04574446                0.00796933                0.28864760                0.01576019               -0.02156220
              27.56263057               13.49696598               99.63949695                1.00000000              149.78427109               -0.06436624                0.00059206               10.76061179              -23.00014798               -0.29334163
              31.55787441               13.13280907               98.76373382                1.00000000              257.92281657              -20.23925236              -80.90525244               28.41619529              137.77245395               -1.30297857
              34.72108690               12.63142119               98.37500329                1.00000000              193.64205592              -28.89154240              -56.59593450               38.33326208              205.94942122                0.12330473
              37.43071553               12.09623838               97.77231145                1.00000000              158.52879654              -30.84587943              -47.02444656               58.04343222              218.83599998                0.04669971
              39.89166283               11.57291568               96.98985933                1.00000000              139.06477525              -30.30325811              -38.95548730               79.25582393              227.09663414               -1.44930515
              42.21201104               11.04729716               95.93507654                1.00000000              129.15556579              -29.92814729              -33.81029898               93.69057666              229.23623197               -4.32594706
              44.47477414               10.44062241               94.44751545                1.00000000              122.22712523              -29.26826706              -31.15558102               92.59599469              222.47742981               -9.39544112
              46.65655354                9.60147206               92.21168070                1.00000000               92.52133187              -22.02335415              -29.84714056               64.07276813              173.95038667              -18.38561488
              48.32520078                8.26719060               88.34196893                1.00000000               66.86472414                7.87636198              -72.00119869               41.89957547              127.84595394              -42.13547392
              26.13834009               15.64356825              100.32954719                1.00000000                0.00304891                0.03679695               -0.00111000                0.22126978                0.02984363                0.28840472
              27.13837058               15.06930005               99.91203238                1.00000000                0.04018863               -0.04688685                0.00878828                0.29256779                0.03153573               -0.09190611
              28.13914386               14.49637995               99.49453282                1.00000000              155.29183878               -0.08469507               -0.02932485               -0.72675545              -24.46029879               -0.39876211
              32.24420735               13.89952771               98.58600725                1.00000000              271.02514698              -27.80903884              -83.87059272                5.77424593              137.63233221               -1.51573287
              35.55964680               13.28525296               98.19540022                1.00000000              209.88520743              -40.83752926              -58.85212451               20.64681969              207.61936925               -0.47818197
              38.44191150               12.71868983               97.56377963                1.00000000              175.55145123              -43.36568142              -49.00815714               39.94580137              220.36190855               -0.49813037
              41.07067583               12.20132091               96.71449947                1.00000000              154.70423123              -41.55235349              -40.82054334               55.51269266              228.37335178               -1.39256482
              43.53599613               11.69136942               95.55400751                1.00000000              141.73116518              -38.75269961              -35.66300608               63.50441478              230.37513282               -3.37596464
              45.90529913               11.11896845               93.92502869                1.00000000              130.30025203              -33.63703475              -33.11127550               60.27435612              223.43772896               -6.78198641
              48.14200117               10.38705512               91.52115544                1.00000000               96.13678659              -21.36921380              -31.74220778               40.60605356              174.90661640              -12.53475679
              49.82803486                9.33897149               87.47751892                1.00000000               68.60336936                6.18007781              -72.76074824               26.26558928              128.36943124              -27.30255981
              26.71510603               16.64391074              100.18926620                1.00000000                0.01226173                0.02647587                0.00448722                0.16778694                0.01768774                0.26498782
              27.71522864               16.06889704               99.76871169                1.00000000                0.13808872               -0.03095580               -0.00581894                0.25383533                0.03216291               -0.15462209
              28.71786780               15.49527208               99.34831489                1.00000000              158.46288381               -0.39645776               -0.10020846              -15.99988117              -23.35237394               -0.80356754
              32.88448632               14.57662829               98.45573413                1.00000000              279.84966834              -41.61903598              -83.93559316              -20.64866197              139.17519262               -1.35681348
              36.31486117               13.81467061               98.08574456                1.00000000              221.45386459              -54.29477009              -58.47734438                7.59268233              209.62916148               -0.57639281
              39.31356361               13.22892475               97.43895350                1.00000000              185.71879641              -52.14475252              -49.23904138               27.59690090              221.61868300               -0.22551520
              42.02923710               12.74186861               96.54344554                1.00000000              162.54440886              -47.88678157              -41.29402284               37.79258337              229.01630030               -1.01068398
              44.56445179               12.27224317               95.30881565                1.00000000              147.76692371              -43.37423325              -36.34495406               40.56649987              230.69338156               -2.50766737
              46.98457557               11.76788171               93.58536614                1.00000000              134.21098892              -36.39551301              -33.85066757               37.36873290              223.66037989               -4.81958268
              49.24867157               11.17408779               91.07291125                1.00000000               98.10521205              -22.14804392              -32.41575688               25.32111620              175.10885203               -8.40100376
              50.94667981               10.39079216               86.91664772                1.00000000               69.80082438                4.17306883              -73.05569367               16.75091545              128.63996438              -17.84155062
              27.29172322               17.64409776              100.04808631                1.00000000                0.03627277                0.00905888               -0.01226949                0.12794301                0.03708771                0.24632734
              28.29208594               17.06868094               99.62496382                1.00000000                0.98458886               -0.02245253               -0.01102102               -0.07817209               -0.21700140               -0.20090360
              29.31141499               16.48845079               99.19626405                1.00000000              160.98748221               -6.64494533               -0.73716720              -28.07925118              -16.51902406               -4.67000151
              33.51183559               15.06714699               98.41323838                1.00000000              287.38944981              -68.63505874              -79.08198772              -36.69460459              146.20760777               -1.27119084
              37.05920399               14.19935756               98.08587744                1.00000000              227.74079616              -62.25681443              -56.10463130                2.02873542              213.16665926                1.34532947
              40.06665151               13.67579478               97.43503880                1.00000000              186.20025415              -55.56865450              -47.47908471               18.05949772              222.39423922                0.79092996
              42.78320907               13.24358528               96.50005501                1.00000000              162.73307584              -49.63694726              -40.60846085               20.87244038              228.67097167               -0.26687127
              45.32131303               12.82388475               95.21685960                1.00000000              148.38100480              -44.98456196              -35.95050429               20.03029148              230.04499512               -1.33210252
              47.75082917               12.39105819               93.43721936                1.00000000              135.21000087              -39.19413382              -33.38693662               17.94684354              223.23587272               -2.48793996
              50.02551304               11.94409424               90.86271238                1.00000000               98.94076303              -24.21676066              -31.93828224               12.69226628              174.91398262               -4.41541508
              51.72964443               11.42243287               86.63481225                1.00000000               70.41313836                2.25456372              -72.76105765                8.72580709              128.71140986               -9.72540739
              27.86849854               18.64409192               99.90665588                1.00000000                0.08136292               -0.00058493                0.02948050                0.11314059                0.09647131                0.26305233
              28.86931217               18.06844799               99.48084154                1.00000000               14.46590908               -0.02329435               -0.04736390               -6.36331419               -3.48733230               -0.24571555
              30.15781673               17.36237317               98.98207342                1.00000000              178.51876459              -12.60776223               -7.87067242              -58.58587071               23.58140805              -19.00632136
              34.43968746               15.20392711               98.55851353                1.00000000              279.44856793              -86.32198758              -70.35494393              -46.85675502              167.97411907              -15.98968967
              37.74678808               14.56953432               98.26688755                1.00000000              209.54191927              -62.98232420              -49.67584309               14.43963667              211.65662734               -1.61174751
              40.63052585               14.11755166               97.56086558                1.00000000              177.59039245              -55.82431255              -45.21704149               15.36720160              218.67098991               -4.22240790
              43.29859593               13.74912967               96.59062480                1.00000000              159.35294277              -49.44556060              -39.59691500               14.28869967              227.51089477               -5.60240877
              45.81758471               13.37255193               95.29358933                1.00000000              146.23535127              -45.13328253              -34.78957350               11.37063610              231.32256322               -8.15180583
              48.22330296               12.98399903               93.51559938                1.00000000              132.67787535              -40.70591544              -31.01565842               13.10741129              224.58296630              -12.89944569
              50.47114221               12.68975257               90.92447723                1.00000000               97.06078645              -25.43416636              -29.61616050               17.15713663              175.24138169              -14.49262031
              52.16451869               12.43588343               86.67113528                1.00000000               69.33764746                1.34505614              -70.91353199               18.10051170              129.69120206              -18.51092054
         1          2         13         12        122        123        134        133  
         2          3         14         13        123        124        135        134  
         3          4         15         14        124        125        136        135  
         4          5         16         15        125        126        137        136  
         5          6         17         16        126        127        138        137  
         6          7         18         17        127        128        139        138  
         7          8         19         18        128        129        140        139  
         8          9         20         19        129        130        141        140  
         9         10         21         20        130        131        142        141  
        10         11         22         21        131        132        143        142  
        12         13         24         23        133        134        145        144  
        13         14         25         24        134        135        146        145  
        14         15         26         25        135        136        147        146  
        15         16         27         26        136        137        148        147  
        16         17         28         27        137        138        149        148  
        17         18         29         28        138        139        150        149  
        18         19         30         29        139        140        151        150  
        19         20         31         30        140        141        152        151  
        20         21         32         31        141        142        153        152  
        21         22         33         32        142        143        154        153  
        23         24         35         34        144        145        156        155  
        24         25         36         35        145        146        157        156  
        25         26         37         36        146        147        158        157  
        26         27         38         37        147        148        159        158  
        27         28         39         38        148        149        160        159  
        28         29         40         39        149        150        161        160  
        29         30         41         40        150        151        162        161  
        30         31         42         41        151        152        163        162  
        31         32         43         42        152        153        164        163  
        32         33         44         43        153        154        165        164  
        34         35         46         45        155        156        167        166  
        35         36         47         46        156        157        168        167  
        36         37         48         47        157        158        169        168  
        37         38         49         48        158        159        170        169  
        38         39         50         49        159        160        171        170  
        39         40         51         50        160        161        172        171  
        40         41         52         51        161        162        173        172  
        41         42         53         52        162        163        174        173  
        42         43         54         53        163        164        175        174  
        43         44         55         54        164        165        176        175  
        45         46         57         56        166        167        178        177  
        46         47         58         57        167        168        179        178  
        47         48         59         58        168        169        180        179  
        48         49         60         59        169        170        181        180  
        49         50         61         60        170        171        182        181  
        50         51         62         61        171        172        183        182  
        51         52         63         62        172        173        184        183  
        52         53         64         63        173        174        185        184  
        53         54         65         64        174        175        186        185  
        54         55         66         65        175        176        187        186  
        56         57         68         67        177        178        189        188  
        57         58         69         68        178        179        190        189  
        58         59         70         69        179        180        191        190  
        59         60         71         70        180        181        192        191  
        60         61         72         71        181        182        193        192  
        61         62         73         72        182        183        194        193  
        62         63         74         73        183        184        195        194  
        63         64         75         74        184        185        196        195  
        64         65         76         75        185        186        197        196  
        65         66         77         76        186        187        198        197  
        67         68         79         78        188        189        200        199  
        68         69         80         79        189        190        201        200  
        69         70         81         80        190        191        202        201  
        70         71         82         81        191        192        203        202  
        71         72         83         82        192        193        204        203  
        72         73         84         83        193        194        205        204  
        73         74         85         84        194        195        206        205  
        74         75         86         85        195        196        207        206  
        75         76         87         86        196        197        208        207  
        76         77         88         87        197        198        209        208  
        78         79         90         89        199        200        211        210  
        79         80         91         90        200        201        212        211  
        80         81         92         91        201        202        213        212  
        81         82         93         92        202        203        214        213  
        82         83         94         93        203        204        215        214  
        83         84         95         94        204        205        216        215  
        84         85         96         95        205        206        217        216  
        85         86         97         96        206        207        218        217  
        86         87         98         97        207        208        219        218  
        87         88         99         98        208        209        220        219  
        89         90        101        100        210        211        222        221  
        90         91        102        101        211        212        223        222  
        91         92        103        102        212        213        224        223  
        92         93        104        103        213        214        225        224  
        93         94        105        104        214        215        226        225  
        94         95        106        105        215        216        227        226  
        95         96        107        106        216        217        228        227  
        96         97        108        107        217        218        229        228  
        97         98        109        108        218        219        230        229  
        98         99        110        109        219        220        231        230  
       100        101        112        111        221        222        233        232  
       101        102        113        112        222        223        234        233  
       102        103        114        113        223        224        235        234  
       103        104        115        114        224        225        236        235  
       104        105        116        115        225        226        237        236  
       105        106        117        116        226        227        238        237  
       106        107        118        117        227        228        239        238  
       107        108        119        118        228        229        240        239  
       108        109        120        119        229        230        241        240  
       109        110        121        120        230        231        242        241  
       122        123        134        133        243        244        255        254  
       123        124        135        134        244        245        256        255  
       124        125        136        135        245        246        257        256  
       125        126        137        136        246        247        258        257  
       126        127        138        137        247        248        259        258  
       127        128        139        138        248        249        260        259  
       128        129        140        139        249        250        261        260  
       129        130        141        140        250        251        262        261  
       130        131        142        141        251        252        263        262  
       131        132        143        142        252        253        264        263  
       133        134        145        144        254        255        266        265  
       134        135        146        145        255        256        267        266  
       135        136        147        146        256        257        268        267  
       136        137        148        147        257        258        269        268  
       137        138        149        148        258        259        270        269  
       138        139        150        149        259        260        271        270  
       139        140        151        150        260        261        272        271  
       140        141        152        151        261        262        273        272  
       141        142        153        152        262        263        274        273  
       142        143        154        153        263        264        275        274  
       144        145        156        155        265        266        277        276  
       145        146        157        156        266        267        278        277  
       146        147        158        157        267        268        279        278  
       147        148        159        158        268        269        280        279  
       148        149        160        159        269        270        281        280  
       149        150        161        160        270        271        282        281  
       150        151        162        161        271        272        283        282  
       151        152        163        162        272        273        284        283  
       152        153        164        163        273        274        285        284  
       153        154        165        164        274        275        286        285  
       155        156        167        166        276        277        288        287  
       156        157        168        167        277        278        289        288  
       157        158        169        168        278        279        290        289  
       158        159        170        169        279        280        291        290  
       159        160        171        170        280        281        292        291  
       160        161        172        171        281        282        293        292  
       161        162        173        172        282        283        294        293  
       162        163        174        173        283        284        295        294  
       163        164        175        174        284        285        296        295  
       164        165        176        175        285        286        297        296  
       166        167        178        177        287        288        299        298  
       167        168        179        178        288        289        300        299  
       168        169        180        179        289        290        301        300  
       169        170        181        180        290        291        302        301  
       170        171        182        181        291        292        303        302  
       171        172        183        182        292        293        304        303  
       172        173        184        183        293        294        305        304  
       173        174        185        184        294        295        306        305  
       174        175        186        185        295        296        307        306  
       175        176        187        186        296        297        308        307  
       177        178        189        188        298        299        310        309  
       178        179        190        189        299        300        311        310  
       179        180        191        190        300        301        312        311  
       180        181        192        191        301        302        313        312  
       181        182        193        192        302        303        314        313  
       182        183        194        193        303        304        315        314  
       183        184        195        194        304        305        316        315  
       184        185        196        195        305        306        317        316  
       185        186        197        196        306        307        318        317  
       186        187        198        197        307        308        319        318  
       188        189        200        199        309        310        321        320  
       189        190        201        200        310        311        322        321  
       190        191        202        201        311        312        323        322  
       191        192        203        202        312        313        324        323  
       192        193        204        203        313        314        325        324  
       193        194        205        204        314        315        326        325  
       194        195        206        205        315        316        327        326  
       195        196        207        206        316        317        328        327  
       196        197        208        207        317        318        329        328  
       197        198        209        208        318        319        330        329  
       199        200        211        210        320        321        332        331  
       200        201        212        211        321        322        333        332  
       201        202        213        212        322        323        334        333  
       202        203        214        213        323        324        335        334  
       203        204        215        214        324        325        336        335  
       204        205        216        215        325        326        337        336  
       205        206        217        216        326        327        338        337  
       206        207        218        217        327        328        339        338  
       207        208        219        218        328        329        340        339  
       208        209        220        219        329        330        341        340  
       210        211        222        221        331        332        343        342  
       211        212        223        222        332        333        344        343  
       212        213        224        223        333        334        345        344  
       213        214        225        224        334        335        346        345  
       214        215        226        225        335        336        347        346  
       215        216        227        226        336        337        348        347  
       216        217        228        227        337        338        349        348  
       217        218        229        228        338        339        350        349  
       218        219        230        229        339        340        351        350  
       219        220        231        230        340        341        352        351  
       221        222        233        232        342        343        354        353  
       222        223        234        233        343        344        355        354  
       223        224        235        234        344        345        356        355  
       224        225        236        235        345        346        357        356  
       225        226        237        236        346        347        358        357  
       226        227        238        237        347        348        359        358  
       227        228        239        238        348        349        360        359  
       228        229        240        239        349        350        361        360  
       229        230        241        240        350        351        362        361  
       230        231        242        241        351        352        363        362  
       243        244        255        254        364        365        376        375  
       244        245        256        255        365        366        377        376  
       245        246        257        256        366        367        378        377  
       246        247        258        257        367        368        379        378  
       247        248        259        258        368        369        380        379  
       248        249        260        259        369        370        381        380  
       249        250        261        260        370        371        382        381  
       250        251        262        261        371        372        383        382  
       251        252        263        262        372        373        384        383  
       252        253        264        263        373        374        385        384  
       254        255        266        265        375        376        387        386  
       255        256        267        266        376        377        388        387  
       256        257        268        267        377        378        389        388  
       257        258        269        268        378        379        390        389  
       258        259        270        269        379        380        391        390  
       259        260        271        270        380        381        392        391  
       260        261        272        271        381        382        393        392  
       261        262        273        272        382        383        394        393  
       262        263        274        273        383        384        395        394  
       263        264        275        274        384        385        396        395  
       265        266        277        276        386        387        398        397  
       266        267        278        277        387        388        399        398  
       267        268        279        278        388        389        400        399  
       268        269        280        279        389        390        401        400  
       269        270        281        280        390        391        402        401  
       270        271        282        281        391        392        403        402  
       271        272        283        282        392        393        404        403  
       272        273        284        283        393        394        405        404  
       273        274        285        284        394        395        406        405  
       274        275        286        285        395        396        407        406  
       276        277        288        287        397        398        409        408  
       277        278        289        288        398        399        410        409  
       278        279        290        289        399        400        411        410  
       279        280        291        290        400        401        412        411  
       280        281        292        291        401        402        413        412  
       281        282        293        292        402        403        414        413  
       282        283        294        293        403        404        415        414  
       283        284        295        294        404        405        416        415  
       284        285        296        295        405        406        417        416  
       285        286        297        296        406        407        418        417  
       287        288        299        298        408        409        420        419  
       288        289        300        299        409        410        421        420  
       289        290        301        300        410        411        422        421  
       290        291        302        301        411        412        423        422  
       291        292        303        302        412        413        424        423  
       292        293        304        303        413        414        425        424  
       293        294        305        304        414        415        426        425  
       294        295        306        305        415        416        427        426  
       295        296        307        306        416        417        428        427  
       296        297        308        307        417        418        429        428  
       298        299        310        309        419        420        431        430  
       299        300        311        310        420        421        432        431  
       300        301        312        311        421        422        433        432  
       301        302        313        312        422        423        434        433  
       302        303        314        313        423        424        435        434  
       303        304        315        314        424        425        436        435  
       304        305        316        315        425        426        437        436  
       305        306        317        316        426        427        438        437  
       306        307        318        317        427        428        439        438  
       307        308        319        318        428        429        440        439  
       309        310        321        320        430        431        442        441  
       310        311        322        321        431        432        443        442  
       311        312        323        322        432        433        444        443  
       312        313        324        323        433        434        445        444  
       313        314        325        324        434        435        446        445  
       314        315        326        325        435        436        447        446  
       315        316        327        326        436        437        448        447  
       316        317        328        327        437        438        449        448  
       317        318        329        328        438        439        450        449  
       318        319        330        329        439        440        451        450  
       320        321        332        331        441        442        453        452  
       321        322        333        332        442        443        454        453  
       322        323        334        333        443        444        455        454  
       323        324        335        334        444        445        456        455  
       324        325        336        335        445        446        457        456  
       325        326        337        336        446        447        458        457  
       326        327        338        337        447        448        459        458  
       327        328        339        338        448        449        460        459  
       328        329        340        339        449        450        461        460  
       329        330        341        340        450        451        462        461  
       331        332        343        342        452        453        464        463  
       332        333        344        343        453        454        465        464  
       333        334        345        344        454        455        466        465  
       334        335        346        345        455        456        467        466  
       335        336        347        346        456        457        468        467  
       336        337        348        347        457        458        469        468  
       337        338        349        348        458        459        470        469  
       338        339        350        349        459        460        471        470  
       339        340        351        350        460        461        472        471  
       340        341        352        351        461        462        473        472  
       342        343        354        353        463        464        475        474  
       343        344        355        354        464        465        476        475  
       344        345        356        355        465        466        477        476  
       345        346        357        356        466        467        478        477  
       346        347        358        357        467        468        479        478  
       347        348        359        358        468        469        480        479  
       348        349        360        359        469        470        481        480  
       349        350        361        360        470        471        482        481  
       350        351        362        361        471        472        483        482  
       351        352        363        362        472        473        484        483  
       364        365        376        375        485        486        497        496  
       365        366        377        376        486        487        498        497  
       366        367        378        377        487        488        499        498  
       367        368        379        378        488        489        500        499  
       368        369        380        379        489        490        501        500  
       369        370        381        380        490        491        502        501  
       370        371        382        381        491        492        503        502  
       371        372        383        382        492        493        504        503  
       372        373        384        383        493        494        505        504  
       373        374        385        384        494        495        506        505  
       375        376        387        386        496        497        508        507  
       376        377        388        387        497        498        509        508  
       377        378        389        388        498        499        510        509  
       378        379        390        389        499        500        511        510  
       379        380        391        390        500        501        512        511  
       380        381        392        391        501        502        513        512  
       381        382        393        392        502        503        514        513  
       382        383        394        393        503        504        515        514  
       383        384        395        394        504        505        516        515  
       384        385        396        395        505        506        517        516  
       386        387        398        397        507        508        519        518  
       387        388        399        398        508        509        520        519  
       388        389        400        399        509        510        521        520  
       389        390        401        400        510        511        522        521  
       390        391        402        401        511        512        523        522  
       391        392        403        402        512        513        524        523  
       392        393        404        403        513        514        525        524  
       393        394        405        404        514        515        526        525  
       394        395        406        405        515        516        527        526  
       395        396        407        406        516        517        528        527  
       397        398        409        408        518        519        530        529  
       398        399        410        409        519        520        531        530  
       399        400        411        410        520        521        532        531  
       400        401        412        411        521        522        533        532  
       401        402        413        412        522        523        534        533  
       402        403        414        413        523        524        535        534  
       403        404        415        414        524        525        536        535  
       404        405        416        415        525        526        537        536  
       405        406        417        416        526        527        538        537  
       406        407        418        417        527        528        539        538  
       408        409        420        419        529        530        541        540  
       409        410        421        420        530        531        542        541  
       410        411        422        421        531        532        543        542  
       411        412        423        422        532        533        544        543  
       412        413        424        423        533        534        545        544  
       413        414        425        424        534        535        546        545  
       414        415        426        425        535        536        547        546  
       415        416        427        426        536        537        548        547  
       416        417        428        427        537        538        549        548  
       417        418        429        428        538        539        550        549  
       419        420        431        430        540        541        552        551  
       420        421        432        431        541        542        553        552  
       421        422        433        432        542        543        554        553  
       422        423        434        433        543        544        555        554  
       423        424        435        434        544        545        556        555  
       424        425        436        435        545        546        557        556  
       425        426        437        436        546        547        558        557  
       426        427        438        437        547        548        559        558  
       427        428        439        438        548        549        560        559  
       428        429        440        439        549        550        561        560  
       430        431        442        441        551        552        563        562  
       431        432        443        442        552        553        564        563  
       432        433        444        443        553        554        565        564  
       433        434        445        444        554        555        566        565  
       434        435        446        445        555        556        567        566  
       435        436        447        446        556        557        568        567  
       436        437        448        447        557        558        569        568  
       437        438        449        448        558        559        570        569  
       438        439        450        449        559        560        571        570  
       439        440        451        450        560        561        572        571  
       441        442        453        452        562        563        574        573  
       442        443        454        453        563        564        575        574  
       443        444        455        454        564        565        576        575  
       444        445        456        455        565        566        577        576  
       445        446        457        456        566        567        578        577  
       446        447        458        457        567        568        579        578  
       447        448        459        458        568        569        580        579  
       448        449        460        459        569        570        581        580  
       449        450        461        460        570        571        582        581  
       450        451        462        461        571        572        583        582  
       452        453        464        463        573        574        585        584  
       453        454        465        464        574        575        586        585  
       454        455        466        465        575        576        587        586  
       455        456        467        466        576        577        588        587  
       456        457        468        467        577        578        589        588  
       457        458        469        468        578        579        590        589  
       458        459        470        469        579        580        591        590  
       459        460        471        470        580        581        592        591  
       460        461        472        471        581        582        593        592  
       461        462        473        472        582        583        594        593  
       463        464        475        474        584        585        596        595  
       464        465        476        475        585        586        597        596  
       465        466        477        476        586        587        598        597  
       466        467        478        477        587        588        599        598  
       467        468        479        478        588        589        600        599  
       468        469        480        479        589        590        601        600  
       469        470        481        480        590        591        602        601  
       470        471        482        481        591        592        603        602  
       471        472        483        482        592        593        604        603  
       472        473        484        483        593        594        605        604  
       485        486        497        496        606        607        618        617  
       486        487        498        497        607        608        619        618  
       487        488        499        498        608        609        620        619  
       488        489        500        499        609        610        621        620  
       489        490        501        500        610        611        622        621  
       490        491        502        501        611        612        623        622  
       491        492        503        502        612        613        624        623  
       492        493        504        503        613        614        625        624  
       493        494        505        504        614        615        626        625  
       494        495        506        505        615        616        627        626  
       496        497        508        507        617        618        629        628  
       497        498        509        508        618        619        630        629  
       498        499        510        509        619        620        631        630  
       499        500        511        510        620        621        632        631  
       500        501        512        511        621        622        633        632  
       501        502        513        512        622        623        634        633  
       502        503        514        513        623        624        635        634  
       503        504        515        514        624        625        636        635  
       504        505        516        515        625        626        637        636  
       505        506        517        516        626        627        638        637  
       507        508        519        518        628        629        640        639  
       508        509        520        519        629        630        641        640  
       509        510        521        520        630        631        642        641  
       510        511        522        521        631        632        643        642  
       511        512        523        522        632        633        644        643  
       512        513        524        523        633        634        645        644  
       513        514        525        524        634        635        646        645  
       514        515        526        525        635        636        647        646  
       515        516        527        526        636        637        648        647  
       516        517        528        527        637        638        649        648  
       518        519        530        529        639        640        651        650  
       519        520        531        530        640        641        652        651  
       520        521        532        531        641        642        653        652  
       521        522        533        532        642        643        654        653  
       522        523        534        533        643        644        655        654  
       523        524        535        534        644        645        656        655  
       524        525        536        535        645        646        657        656  
       525        526        537        536        646        647        658        657  
       526        527        538        537        647        648        659        658  
       527        528        539        538        648        649        660        659  
       529        530        541        540        650        651        662        661  
       530        531        542        541        651        652        663        662  
       531        532        543        542        652        653        664        663  
       532        533        544        543        653        654        665        664  
       533        534        545        544        654        655        666        665  
       534        535        546        545        655        656        667        666  
       535        536        547        546        656        657        668        667  
       536        537        548        547        657        658        669        668  
       537        538        549        548        658        659        670        669  
       538        539        550        549        659        660        671        670  
       540        541        552        551        661        662        673        672  
       541        542        553        552        662        663        674        673  
       542        543        554        553        663        664        675        674  
       543        544        555        554        664        665        676        675  
       544        545        556        555        665        666        677        676  
       545        546        557        556        666        667        678        677  
       546        547        558        557        667        668        679        678  
       547        548        559        558        668        669        680        679  
       548        549        560        559        669        670        681        680  
       549        550        561        560        670        671        682        681  
       551        552        563        562        672        673        684        683  
       552        553        564        563        673        674        685        684  
       553        554        565        564        674        675        686        685  
       554        555        566        565        675        676        687        686  
       555        556        567        566        676        677        688        687  
       556        557        568        567        677        678        689        688  
       557        558        569        568        678        679        690        689  
       558        559        570        569        679        680        691        690  
       559        560        571        570        680        681        692        691  
       560        561        572        571        681        682        693        692  
       562        563        574        573        683        684        695        694  
       563        564        575        574        684        685        696        695  
       564        565        576        575        685        686        697        696  
       565        566        577        576        686        687        698        697  
       566        567        578        577        687        688        699        698  
       567        568        579        578        688        689        700        699  
       568        569        580        579        689        690        701        700  
       569        570        581        580        690        691        702        701  
       570        571        582        581        691        692        703        702  
       571        572        583        582        692        693        704        703  
       573        574        585        584        694        695        706        705  
       574        575        586        585        695        696        707        706  
       575        576        587        586        696        697        708        707  
       576        577        588        587        697        698        709        708  
       577        578        589        588        698        699        710        709  
       578        579        590        589        699        700        711        710  
       579        580        591        590        700        701        712        711  
       580        581        592        591        701        702        713        712  
       581        582        593        592        702        703        714        713  
       582        583        594        593        703        704        715        714  
       584        585        596        595        705        706        717        716  
       585        586        597        596        706        707        718        717  
       586        587        598        597        707        708        719        718  
       587        588        599        598        708        709        720        719  
       588        589        600        599        709        710        721        720  
       589        590        601        600        710        711        722        721  
       590        591        602        601        711        712        723        722  
       591        592        603        602        712        713        724        723  
       592        593        604        603        713        714        725        724  
       593        594        605        604        714        715        726        725  
       606        607        618        617        727        728        739        738  
       607        608        619        618        728        729        740        739  
       608        609        620        619        729        730        741        740  
       609        610        621        620        730        731        742        741  
       610        611        622        621        731        732        743        742  
       611        612        623        622        732        733        744        743  
       612        613        624        623        733        734        745        744  
       613        614        625        624        734        735        746        745  
       614        615        626        625        735        736        747        746  
       615        616        627        626        736        737        748        747  
       617        618        629        628        738        739        750        749  
       618        619        630        629        739        740        751        750  
       619        620        631        630        740        741        752        751  
       620        621        632        631        741        742        753        752  
       621        622        633        632        742        743        754        753  
       622        623        634        633        743        744        755        754  
       623        624        635        634        744        745        756        755  
       624        625        636        635        745        746        757        756  
       625        626        637        636        746        747        758        757  
       626        627        638        637        747        748        759        758  
       628        629        640        639        749        750        761        760  
       629        630        641        640        750        751        762        761  
       630        631        642        641        751        752        763        762  
       631        632        643        642        752        753        764        763  
       632        633        644        643        753        754        765        764  
       633        634        645        644        754        755        766        765  
       634        635        646        645        755        756        767        766  
       635        636        647        646        756        757        768        767  
       636        637        648        647        757        758        769        768  
       637        638        649        648        758        759        770        769  
       639        640        651        650        760        761        772        771  
       640        641        652        651        761        762        773        772  
       641        642        653        652        762        763        774        773  
       642        643        654        653        763        764        775        774  
       643        644        655        654        764        765        776        775  
       644        645        656        655        765        766        777        776  
       645        646        657        656        766        767        778        777  
       646        647        658        657        767        768        779        778  
       647        648        659        658        768        769        780        779  
       648        649        660        659        769        770        781        780  
       650        651        662        661        771        772        783        782  
       651        652        663        662        772        773        784        783  
       652        653        664        663        773        774        785        784  
       653        654        665        664        774        775        786        785  
       654        655        666        665        775        776        787        786  
       655        656        667        666        776        777        788        787  
       656        657        668        667        777        778        789        788  
       657        658        669        668        778        779        790        789  
       658        659        670        669        779        780        791        790  
       659        660        671        670        780        781        792        791  
       661        662        673        672        782        783        794        793  
       662        663        674        673        783        784        795        794  
       663        664        675        674        784        785        796        795  
       664        665        676        675        785        786        797        796  
       665        666        677        676        786        787        798        797  
       666        667        678        677        787        788        799        798  
       667        668        679        678        788        789        800        799  
       668        669        680        679        789        790        801        800  
       669        670        681        680        790        791        802        801  
       670        671        682        681        791        792        803        802  
       672        673        684        683        793        794        805        804  
       673        674        685        684        794        795        806        805  
       674        675        686        685        795        796        807        806  
       675        676        687        686        796        797        808        807  
       676        677        688        687        797        798        809        808  
       677        678        689        688        798        799        810        809  
       678        679        690        689        799        800        811        810  
       679        680        691        690        800        801        812        811  
       680        681        692        691        801        802        813        812  
       681        682        693        692        802        803        814        813  
       683        684        695        694        804        805        816        815  
       684        685        696        695        805        806        817        816  
       685        686        697        696        806        807        818        817  
       686        687        698        697        807        808        819        818  
       687        688        699        698        808        809        820        819  
       688        689        700        699        809        810        821        820  
       689        690        701        700        810        811        822        821  
       690        691        702        701        811        812        823        822  
       691        692        703        702        812        813        824        823  
       692        693        704        703        813        814        825        824  
       694        695        706        705        815        816        827        826  
       695        696        707        706        816        817        828        827  
       696        697        708        707        817        818        829        828  
       697        698        709        708        818        819        830        829  
       698        699        710        709        819        820        831        830  
       699        700        711        710        820        821        832        831  
       700        701        712        711        821        822        833        832  
       701        702        713        712        822        823        834        833  
       702        703        714        713        823        824        835        834  
       703        704        715        714        824        825        836        835  
       705        706        717        716        826        827        838        837  
       706        707        718        717        827        828        839        838  
       707        708        719        718        828        829        840        839  
       708        709        720        719        829        830        841        840  
       709        710        721        720        830        831        842        841  
       710        711        722        721        831        832        843        842  
       711        712        723        722        832        833        844        843  
       712        713        724        723        833        834        845        844  
       713        714        725        724        834        835        846        845  
       714        715        726        725        835        836        847        846  
       727        728        739        738        848        849        860        859  
       728        729        740        739        849        850        861        860  
       729        730        741        740        850        851        862        861  
       730        731        742        741        851        852        863        862  
       731        732        743        742        852        853        864        863  
       732        733        744        743        853        854        865        864  
       733        734        745        744        854        855        866        865  
       734        735        746        745        855        856        867        866  
       735        736        747        746        856        857        868        867  
       736        737        748        747        857        858        869        868  
       738        739        750        749        859        860        871        870  
       739        740        751        750        860        861        872        871  
       740        741        752        751        861        862        873        872  
       741        742        753        752        862        863        874        873  
       742        743        754        753        863        864        875        874  
       743        744        755        754        864        865        876        875  
       744        745        756        755        865        866        877        876  
       745        746        757        756        866        867        878        877  
       746        747        758        757        867        868        879        878  
       747        748        759        758        868        869        880        879  
       749        750        761        760        870        871        882        881  
       750        751        762        761        871        872        883        882  
       751        752        763        762        872        873        884        883  
       752        753        764        763        873        874        885        884  
       753        754        765        764        874        875        886        885  
       754        755        766        765        875        876        887        886  
       755        756        767        766        876        877        888        887  
       756        757        768        767        877        878        889        888  
       757        758        769        768        878        879        890        889  
       758        759        770        769        879        880        891        890  
       760        761        772        771        881        882        893        892  
       761        762        773        772        882        883        894        893  
       762        763        774        773        883        884        895        894  
       763        764        775        774        884        885        896        895  
       764        765        776        775        885        886        897        896  
       765        766        777        776        886        887        898        897  
       766        767        778        777        887        888        899        898  
       767        768        779        778        888        889        900        899  
       768        769        780        779        889        890        901        900  
       769        770        781        780        890        891        902        901  
       771        772        783        782        892        893        904        903  
       772        773        784        783        893        894        905        904  
       773        774        785        784        894        895        906        905  
       774        775        786        785        895        896        907        906  
       775        776        787        786        896        897        908        907  
       776        777        788        787        897        898        909        908  
       777        778        789        788        898        899        910        909  
       778        779        790        789        899        900        911        910  
       779        780        791        790        900        901        912        911  
       780        781        792        791        901        902        913        912  
       782        783        794        793        903        904        915        914  
       783        784        795        794        904        905        916        915  
       784        785        796        795        905        906        917        916  
       785        786        797        796        906        907        918        917  
       786        787        798        797        907        908        919        918  
       787        788        799        798        908        909        920        919  
       788        789        800        799        909        910        921        920  
       789        790        801        800        910        911        922        921  
       790        791        802        801        911        912        923        922  
       791        792        803        802        912        913        924        923  
       793        794        805        804        914        915        926        925  
       794        795        806        805        915        916        927        926  
       795        796        807        806        916        917        928        927  
       796        797        808        807        917        918        929        928  
       797        798        809        808        918        919        930        929  
       798        799        810        809        919        920        931        930  
       799        800        811        810        920        921        932        931  
       800        801        812        811        921        922        933        932  
       801        802        813        812        922        923        934        933  
       802        803        814        813        923        924        935        934  
       804        805        816        815        925        926        937        936  
       805        806        817        816        926        927        938        937  
       806        807        818        817        927        928        939        938  
       807        808        819        818        928        929        940        939  
       808        809        820        819        929        930        941        940  
       809        810        821        820        930        931        942        941  
       810        811        822        821        931        932        943        942  
       811        812        823        822        932        933        944        943  
       812        813        824        823        933        934        945        944  
       813        814        825        824        934        935        946        945  
       815        816        827        826        936        937        948        947  
       816        817        828        827        937        938        949        948  
       817        818        829        828        938        939        950        949  
       818        819        830        829        939        940        951        950  
       819        820        831        830        940        941        952        951  
       820        821        832        831        941        942        953        952  
       821        822        833        832        942        943        954        953  
       822        823        834        833        943        944        955        954  
       823        824        835        834        944        945        956        955  
       824        825        836        835        945        946        957        956  
       826        827        838        837        947        948        959        958  
       827        828        839        838        948        949        960        959  
       828        829        840        839        949        950        961        960  
       829        830        841        840        950        951        962        961  
       830        831        842        841        951        952        963        962  
       831        832        843        842        952        953        964        963  
       832        833        844        843        953        954        965        964  
       833        834        845        844        954        955        966        965  
       834        835        846        845        955        956        967        966  
       835        836        847        846        956        957        968        967  
       848        849        860        859        969        970        981        980  
       849        850        861        860        970        971        982        981  
       850        851        862        861        971        972        983        982  
       851        852        863        862        972        973        984        983  
       852        853        864        863        973        974        985        984  
       853        854        865        864        974        975        986        985  
       854        855        866        865        975        976        987        986  
       855        856        867        866        976        977        988        987  
       856        857        868        867        977        978        989        988  
       857        858        869        868        978        979        990        989  
       859        860        871        870        980        981        992        991  
       860        861        872        871        981        982        993        992  
       861        862        873        872        982        983        994        993  
       862        863        874        873        983        984        995        994  
       863        864        875        874        984        985        996        995  
       864        865        876        875        985        986        997        996  
       865        866        877        876        986        987        998        997  
       866        867        878        877        987        988        999        998  
       867        868        879        878        988        989       1000        999  
       868        869        880        879        989        990       1001       1000  
       870        871        882        881        991        992       1003       1002  
       871        872        883        882        992        993       1004       1003  
       872        873        884        883        993        994       1005       1004  
       873        874        885        884        994        995       1006       1005  
       874        875        886        885        995        996       1007       1006  
       875        876        887        886        996        997       1008       1007  
       876        877        888        887        997        998       1009       1008  
       877        878        889        888        998        999       1010       1009  
       878        879        890        889        999       1000       1011       1010  
       879        880        891        890       1000       1001       1012       1011  
       881        882        893        892       1002       1003       1014       1013  
       882        883        894        893       1003       1004       1015       1014  
       883        884        895        894       1004       1005       1016       1015  
       884        885        896        895       1005       1006       1017       1016  
       885        886        897        896       1006       1007       1018       1017  
       886        887        898        897       1007       1008       1019       1018  
       887        888        899        898       1008       1009       1020       1019  
       888        889        900        899       1009       1010       1021       1020  
       889        890        901        900       1010       1011       1022       1021  
       890        891        902        901       1011       1012       1023       1022  
       892        893        904        903       1013       1014       1025       1024  
       893        894        905        904       1014       1015       1026       1025  
       894        895        906        905       1015       1016       1027       1026  
       895        896        907        906       1016       1017       1028       1027  
       896        897        908        907       1017       1018       1029       1028  
       897        898        909        908       1018       1019       1030       1029  
       898        899        910        909       1019       1020       1031       1030  
       899        900        911        910       1020       1021       1032       1031  
       900        901        912        911       1021       1022       1033       1032  
       901        902        913        912       1022       1023       1034       1033  
       903        904        915        914       1024       1025       1036       1035  
       904        905        916        915       1025       1026       1037       1036  
       905        906        917        916       1026       1027       1038       1037  
       906        907        918        917       1027       1028       1039       1038  
       907        908        919        918       1028       1029       1040       1039  
       908        909        920        919       1029       1030       1041       1040  
       909        910        921        920       1030       1031       1042       1041  
       910        911        922        921       1031       1032       1043       1042  
       911        912        923        922       1032       1033       1044       1043  
       912        913        924        923       1033       1034       1045       1044  
       914        915        926        925       1035       1036       1047       1046  
       915        916        927        926       1036       1037       1048       1047  
       916        917        928        927       1037       1038       1049       1048  
       917        918        929        928       1038       1039       1050       1049  
       918        919        930        929       1039       1040       1051       1050  
       919        920        931        930       1040       1041       1052       1051  
       920        921        932        931       1041       1042       1053       1052  
       921        922        933        932       1042       1043       1054       1053  
       922        923        934        933       1043       1044       1055       1054  
       923        924        935        934       1044       1045       1056       1055  
       925        926        937        936       1046       1047       1058       1057  
       926        927        938        937       1047       1048       1059       1058  
       927        928        939        938       1048       1049       1060       1059  
       928        929        940        939       1049       1050       1061       1060  
       929        930        941        940       1050       1051       1062       1061  
       930        931        942        941       1051       1052       1063       1062  
       931        932        943        942       1052       1053       1064       1063  
       932        933        944        943       1053       1054       1065       1064  
       933        934        945        944       1054       1055       1066       1065  
       934        935        946        945       1055       1056       1067       1066  
       936        937        948        947       1057       1058       1069       1068  
       937        938        949        948       1058       1059       1070       1069  
       938        939        950        949       1059       1060       1071       1070  
       939        940        951        950       1060       1061       1072       1071  
       940        941        952        951       1061       1062       1073       1072  
       941        942        953        952       1062       1063       1074       1073  
       942        943        954        953       1063       1064       1075       1074  
       943        944        955        954       1064       1065       1076       1075  
       944        945        956        955       1065       1066       1077       1076  
       945        946        957        956       1066       1067       1078       1077  
       947        948        959        958       1068       1069       1080       1079  
       948        949        960        959       1069       1070       1081       1080  
       949        950        961        960       1070       1071       1082       1081  
       950        951        962        961       1071       1072       1083       1082  
       951        952        963        962       1072       1073       1084       1083  
       952        953        964        963       1073       1074       1085       1084  
       953        954        965        964       1074       1075       1086       1085  
       954        955        966        965       1075       1076       1087       1086  
       955        956        967        966       1076       1077       1088       1087  
       956        957        968        967       1077       1078       1089       1088  
       969        970        981        980       1090       1091       1102       1101  
       970        971        982        981       1091       1092       1103       1102  
       971        972        983        982       1092       1093       1104       1103  
       972        973        984        983       1093       1094       1105       1104  
       973        974        985        984       1094       1095       1106       1105  
       974        975        986        985       1095       1096       1107       1106  
       975        976        987        986       1096       1097       1108       1107  
       976        977        988        987       1097       1098       1109       1108  
       977        978        989        988       1098       1099       1110       1109  
       978        979        990        989       1099       1100       1111       1110  
       980        981        992        991       1101       1102       1113       1112  
       981        982        993        992       1102       1103       1114       1113  
       982        983        994        993       1103       1104       1115       1114  
       983        984        995        994       1104       1105       1116       1115  
       984        985        996        995       1105       1106       1117       1116  
       985        986        997        996       1106       1107       1118       1117  
       986        987        998        997       1107       1108       1119       1118  
       987        988        999        998       1108       1109       1120       1119  
       988        989       1000        999       1109       1110       1121       1120  
       989        990       1001       1000       1110       1111       1122       1121  
       991        992       1003       1002       1112       1113       1124       1123  
       992        993       1004       1003       1113       1114       1125       1124  
       993        994       1005       1004       1114       1115       1126       1125  
       994        995       1006       1005       1115       1116       1127       1126  
       995        996       1007       1006       1116       1117       1128       1127  
       996        997       1008       1007       1117       1118       1129       1128  
       997        998       1009       1008       1118       1119       1130       1129  
       998        999       1010       1009       1119       1120       1131       1130  
       999       1000       1011       1010       1120       1121       1132       1131  
      1000       1001       1012       1011       1121       1122       1133       1132  
      1002       1003       1014       1013       1123       1124       1135       1134  
      1003       1004       1015       1014       1124       1125       1136       1135  
      1004       1005       1016       1015       1125       1126       1137       1136  
      1005       1006       1017       1016       1126       1127       1138       1137  
      1006       1007       1018       1017       1127       1128       1139       1138  
      1007       1008       1019       1018       1128       1129       1140       1139  
      1008       1009       1020       1019       1129       1130       1141       1140  
      1009       1010       1021       1020       1130       1131       1142       1141  
      1010       1011       1022       1021       1131       1132       1143       1142  
      1011       1012       1023       1022       1132       1133       1144       1143  
      1013       1014       1025       1024       1134       1135       1146       1145  
      1014       1015       1026       1025       1135       1136       1147       1146  
      1015       1016       1027       1026       1136       1137       1148       1147  
      1016       1017       1028       1027       1137       1138       1149       1148  
      1017       1018       1029       1028       1138       1139       1150       1149  
      1018       1019       1030       1029       1139       1140       1151       1150  
      1019       1020       1031       1030       1140       1141       1152       1151  
      1020       1021       1032       1031       1141       1142       1153       1152  
      1021       1022       1033       1032       1142       1143       1154       1153  
      1022       1023       1034       1033       1143       1144       1155       1154  
      1024       1025       1036       1035       1145       1146       1157       1156  
      1025       1026       1037       1036       1146       1147       1158       1157  
      1026       1027       1038       1037       1147       1148       1159       1158  
      1027       1028       1039       1038       1148       1149       1160       1159  
      1028       1029       1040       1039       1149       1150       1161       1160  
      1029       1030       1041       1040       1150       1151       1162       1161  
      1030       1031       1042       1041       1151       1152       1163       1162  
      1031       1032       1043       1042       1152       1153       1164       1163  
      1032       1033       1044       1043       1153       1154       1165       1164  
      1033       1034       1045       1044       1154       1155       1166       1165  
      1035       1036       1047       1046       1156       1157       1168       1167  
      1036       1037       1048       1047       1157       1158       1169       1168  
      1037       1038       1049       1048       1158       1159       1170       1169  
      1038       1039       1050       1049       1159       1160       1171       1170  
      1039       1040       1051       1050       1160       1161       1172       1171  
      1040       1041       1052       1051       1161       1162       1173       1172  
      1041       1042       1053       1052       1162       1163       1174       1173  
      1042       1043       1054       1053       1163       1164       1175       1174  
      1043       1044       1055       1054       1164       1165       1176       1175  
      1044       1045       1056       1055       1165       1166       1177       1176  
      1046       1047       1058       1057       1167       1168       1179       1178  
      1047       1048       1059       1058       1168       1169       1180       1179  
      1048       1049       1060       1059       1169       1170       1181       1180  
      1049       1050       1061       1060       1170       1171       1182       1181  
      1050       1051       1062       1061       1171       1172       1183       1182  
      1051       1052       1063       1062       1172       1173       1184       1183  
      1052       1053       1064       1063       1173       1174       1185       1184  
      1053       1054       1065       1064       1174       1175       1186       1185  
      1054       1055       1066       1065       1175       1176       1187       1186  
      1055       1056       1067       1066       1176       1177       1188       1187  
      1057       1058       1069       1068       1178       1179       1190       1189  
      1058       1059       1070       1069       1179       1180       1191       1190  
      1059       1060       1071       1070       1180       1181       1192       1191  
      1060       1061       1072       1071       1181       1182       1193       1192  
      1061       1062       1073       1072       1182       1183       1194       1193  
      1062       1063       1074       1073       1183       1184       1195       1194  
      1063       1064       1075       1074       1184       1185       1196       1195  
      1064       1065       1076       1075       1185       1186       1197       1196  
      1065       1066       1077       1076       1186       1187       1198       1197  
      1066       1067       1078       1077       1187       1188       1199       1198  
      1068       1069       1080       1079       1189       1190       1201       1200  
      1069       1070       1081       1080       1190       1191       1202       1201  
      1070       1071       1082       1081       1191       1192       1203       1202  
      1071       1072       1083       1082       1192       1193       1204       1203  
      1072       1073       1084       1083       1193       1194       1205       1204  
      1073       1074       1085       1084       1194       1195       1206       1205  
      1074       1075       1086       1085       1195       1196       1207       1206  
      1075       1076       1087       1086       1196       1197       1208       1207  
      1076       1077       1088       1087       1197       1198       1209       1208  
      1077       1078       1089       1088       1198       1199       1210       1209  
      1090       1091       1102       1101       1211       1212       1223       1222  
      1091       1092       1103       1102       1212       1213       1224       1223  
      1092       1093       1104       1103       1213       1214       1225       1224  
      1093       1094       1105       1104       1214       1215       1226       1225  
      1094       1095       1106       1105       1215       1216       1227       1226  
      1095       1096       1107       1106       1216       1217       1228       1227  
      1096       1097       1108       1107       1217       1218       1229       1228  
      1097       1098       1109       1108       1218       1219       1230       1229  
      1098       1099       1110       1109       1219       1220       1231       1230  
      1099       1100       1111       1110       1220       1221       1232       1231  
      1101       1102       1113       1112       1222       1223       1234       1233  
      1102       1103       1114       1113       1223       1224       1235       1234  
      1103       1104       1115       1114       1224       1225       1236       1235  
      1104       1105       1116       1115       1225       1226       1237       1236  
      1105       1106       1117       1116       1226       1227       1238       1237  
      1106       1107       1118       1117       1227       1228       1239       1238  
      1107       1108       1119       1118       1228       1229       1240       1239  
      1108       1109       1120       1119       1229       1230       1241       1240  
      1109       1110       1121       1120       1230       1231       1242       1241  
      1110       1111       1122       1121       1231       1232       1243       1242  
      1112       1113       1124       1123       1233       1234       1245       1244  
      1113       1114       1125       1124       1234       1235       1246       1245  
      1114       1115       1126       1125       1235       1236       1247       1246  
      1115       1116       1127       1126       1236       1237       1248       1247  
      1116       1117       1128       1127       1237       1238       1249       1248  
      1117       1118       1129       1128       1238       1239       1250       1249  
      1118       1119       1130       1129       1239       1240       1251       1250  
      1119       1120       1131       1130       1240       1241       1252       1251  
      1120       1121       1132       1131       1241       1242       1253       1252  
      1121       1122       1133       1132       1242       1243       1254       1253  
      1123       1124       1135       1134       1244       1245       1256       1255  
      1124       1125       1136       1135       1245       1246       1257       1256  
      1125       1126       1137       1136       1246       1247       1258       1257  
      1126       1127       1138       1137       1247       1248       1259       1258  
      1127       1128       1139       1138       1248       1249       1260       1259  
      1128       1129       1140       1139       1249       1250       1261       1260  
      1129       1130       1141       1140       1250       1251       1262       1261  
      1130       1131       1142       1141       1251       1252       1263       1262  
      1131       1132       1143       1142       1252       1253       1264       1263  
      1132       1133       1144       1143       1253       1254       1265       1264  
      1134       1135       1146       1145       1255       1256       1267       1266  
      1135       1136       1147       1146       1256       1257       1268       1267  
      1136       1137       1148       1147       1257       1258       1269       1268  
      1137       1138       1149       1148       1258       1259       1270       1269  
      1138       1139       1150       1149       1259       1260       1271       1270  
      1139       1140       1151       1150       1260       1261       1272       1271  
      1140       1141       1152       1151       1261       1262       1273       1272  
      1141       1142       1153       1152       1262       1263       1274       1273  
      1142       1143       1154       1153       1263       1264       1275       1274  
      1143       1144       1155       1154       1264       1265       1276       1275  
      1145       1146       1157       1156       1266       1267       1278       1277  
      1146       1147       1158       1157       1267       1268       1279       1278  
      1147       1148       1159       1158       1268       1269       1280       1279  
      1148       1149       1160       1159       1269       1270       1281       1280  
      1149       1150       1161       1160       1270       1271       1282       1281  
      1150       1151       1162       1161       1271       1272       1283       1282  
      1151       1152       1163       1162       1272       1273       1284       1283  
      1152       1153       1164       1163       1273       1274       1285       1284  
      1153       1154       1165       1164       1274       1275       1286       1285  
      1154       1155       1166       1165       1275       1276       1287       1286  
      1156       1157       1168       1167       1277       1278       1289       1288  
      1157       1158       1169       1168       1278       1279       1290       1289  
      1158       1159       1170       1169       1279       1280       1291       1290  
      1159       1160       1171       1170       1280       1281       1292       1291  
      1160       1161       1172       1171       1281       1282       1293       1292  
      1161       1162       1173       1172       1282       1283       1294       1293  
      1162       1163       1174       1173       1283       1284       1295       1294  
      1163       1164       1175       1174       1284       1285       1296       1295  
      1164       1165       1176       1175       1285       1286       1297       1296  
      1165       1166       1177       1176       1286       1287       1298       1297  
      1167       1168       1179       1178       1288       1289       1300       1299  
      1168       1169       1180       1179       1289       1290       1301       1300  
      1169       1170       1181       1180       1290       1291       1302       1301  
      1170       1171       1182       1181       1291       1292       1303       1302  
      1171       1172       1183       1182       1292       1293       1304       1303  
      1172       1173       1184       1183       1293       1294       1305       1304  
      1173       1174       1185       1184       1294       1295       1306       1305  
      1174       1175       1186       1185       1295       1296       1307       1306  
      1175       1176       1187       1186       1296       1297       1308       1307  
      1176       1177       1188       1187       1297       1298       1309       1308  
      1178       1179       1190       1189       1299       1300       1311       1310  
      1179       1180       1191       1190       1300       1301       1312       1311  
      1180       1181       1192       1191       1301       1302       1313       1312  
      1181       1182       1193       1192       1302       1303       1314       1313  
      1182       1183       1194       1193       1303       1304       1315       1314  
      1183       1184       1195       1194       1304       1305       1316       1315  
      1184       1185       1196       1195       1305       1306       1317       1316  
      1185       1186       1197       1196       1306       1307       1318       1317  
      1186       1187       1198       1197       1307       1308       1319       1318  
      1187       1188       1199       1198       1308       1309       1320       1319  
      1189       1190       1201       1200       1310       1311       1322       1321  
      1190       1191       1202       1201       1311       1312       1323       1322  
      1191       1192       1203       1202       1312       1313       1324       1323  
      1192       1193       1204       1203       1313       1314       1325       1324  
      1193       1194       1205       1204       1314       1315       1326       1325  
      1194       1195       1206       1205       1315       1316       1327       1326  
      1195       1196       1207       1206       1316       1317       1328       1327  
      1196       1197       1208       1207       1317       1318       1329       1328  
      1197       1198       1209       1208       1318       1319       1330       1329  
      1198       1199       1210       1209       1319       1320       1331       1330  
      1211       1212       1223       1222       1332       1333       1344       1343  
      1212       1213       1224       1223       1333       1334       1345       1344  
      1213       1214       1225       1224       1334       1335       1346       1345  
      1214       1215       1226       1225       1335       1336       1347       1346  
      1215       1216       1227       1226       1336       1337       1348       1347  
      1216       1217       1228       1227       1337       1338       1349       1348  
      1217       1218       1229       1228       1338       1339       1350       1349  
      1218       1219       1230       1229       1339       1340       1351       1350  
      1219       1220       1231       1230       1340       1341       1352       1351  
      1220       1221       1232       1231       1341       1342       1353       1352  
      1222       1223       1234       1233       1343       1344       1355       1354  
      1223       1224       1235       1234       1344       1345       1356       1355  
      1224       1225       1236       1235       1345       1346       1357       1356  
      1225       1226       1237       1236       1346       1347       1358       1357  
      1226       1227       1238       1237       1347       1348       1359       1358  
      1227       1228       1239       1238       1348       1349       1360       1359  
      1228       1229       1240       1239       1349       1350       1361       1360  
      1229       1230       1241       1240       1350       1351       1362       1361  
      1230       1231       1242       1241       1351       1352       1363       1362  
      1231       1232       1243       1242       1352       1353       1364       1363  
      1233       1234       1245       1244       1354       1355       1366       1365  
      1234       1235       1246       1245       1355       1356       1367       1366  
      1235       1236       1247       1246       1356       1357       1368       1367  
      1236       1237       1248       1247       1357       1358       1369       1368  
      1237       1238       1249       1248       1358       1359       1370       1369  
      1238       1239       1250       1249       1359       1360       1371       1370  
      1239       1240       1251       1250       1360       1361       1372       1371  
      1240       1241       1252       1251       1361       1362       1373       1372  
      1241       1242       1253       1252       1362       1363       1374       1373  
      1242       1243       1254       1253       1363       1364       1375       1374  
      1244       1245       1256       1255       1365       1366       1377       1376  
      1245       1246       1257       1256       1366       1367       1378       1377  
      1246       1247       1258       1257       1367       1368       1379       1378  
      1247       1248       1259       1258       1368       1369       1380       1379  
      1248       1249       1260       1259       1369       1370       1381       1380  
      1249       1250       1261       1260       1370       1371       1382       1381  
      1250       1251       1262       1261       1371       1372       1383       1382  
      1251       1252       1263       1262       1372       1373       1384       1383  
      1252       1253       1264       1263       1373       1374       1385       1384  
      1253       1254       1265       1264       1374       1375       1386       1385  
      1255       1256       1267       1266       1376       1377       1388       1387  
      1256       1257       1268       1267       1377       1378       1389       1388  
      1257       1258       1269       1268       1378       1379       1390       1389  
      1258       1259       1270       1269       1379       1380       1391       1390  
      1259       1260       1271       1270       1380       1381       1392       1391  
      1260       1261       1272       1271       1381       1382       1393       1392  
      1261       1262       1273       1272       1382       1383       1394       1393  
      1262       1263       1274       1273       1383       1384       1395       1394  
      1263       1264       1275       1274       1384       1385       1396       1395  
      1264       1265       1276       1275       1385       1386       1397       1396  
      1266       1267       1278       1277       1387       1388       1399       1398  
      1267       1268       1279       1278       1388       1389       1400       1399  
      1268       1269       1280       1279       1389       1390       1401       1400  
      1269       1270       1281       1280       1390       1391       1402       1401  
      1270       1271       1282       1281       1391       1392       1403       1402  
      1271       1272       1283       1282       1392       1393       1404       1403  
      1272       1273       1284       1283       1393       1394       1405       1404  
      1273       1274       1285       1284       1394       1395       1406       1405  
      1274       1275       1286       1285       1395       1396       1407       1406  
      1275       1276       1287       1286       1396       1397       1408       1407  
      1277       1278       1289       1288       1398       1399       1410       1409  
      1278       1279       1290       1289       1399       1400       1411       1410  
      1279       1280       1291       1290       1400       1401       1412       1411  
      1280       1281       1292       1291       1401       1402       1413       1412  
      1281       1282       1293       1292       1402       1403       1414       1413  
      1282       1283       1294       1293       1403       1404       1415       1414  
      1283       1284       1295       1294       1404       1405       1416       1415  
      1284       1285       1296       1295       1405       1406       1417       1416  
      1285       1286       1297       1296       1406       1407       1418       1417  
      1286       1287       1298       1297       1407       1408       1419       1418  
      1288       1289       1300       1299       1409       1410       1421       1420  
      1289       1290       1301       1300       1410       1411       1422       1421  
      1290       1291       1302       1301       1411       1412       1423       1422  
      1291       1292       1303       1302       1412       1413       1424       1423  
      1292       1293       1304       1303       1413       1414       1425       1424  
      1293       1294       1305       1304       1414       1415       1426       1425  
      1294       1295       1306       1305       1415       1416       1427       1426  
      1295       1296       1307       1306       1416       1417       1428       1427  
      1296       1297       1308       1307       1417       1418       1429       1428  
      1297       1298       1309       1308       1418       1419       1430       1429  
      1299       1300       1311       1310       1420       1421       1432       1431  
      1300       1301       1312       1311       1421       1422       1433       1432  
      1301       1302       1313       1312       1422       1423       1434       1433  
      1302       1303       1314       1313       1423       1424       1435       1434  
      1303       1304       1315       1314       1424       1425       1436       1435  
      1304       1305       1316       1315       1425       1426       1437       1436  
      1305       1306       1317       1316       1426       1427       1438       1437  
      1306       1307       1318       1317       1427       1428       1439       1438  
      1307       1308       1319       1318       1428       1429       1440       1439  
      1308       1309       1320       1319       1429       1430       1441       1440  
      1310       1311       1322       1321       1431       1432       1443       1442  
      1311       1312       1323       1322       1432       1433       1444       1443  
      1312       1313       1324       1323       1433       1434       1445       1444  
      1313       1314       1325       1324       1434       1435       1446       1445  
      1314       1315       1326       1325       1435       1436       1447       1446  
      1315       1316       1327       1326       1436       1437       1448       1447  
      1316       1317       1328       1327       1437       1438       1449       1448  
      1317       1318       1329       1328       1438       1439       1450       1449  
      1318       1319       1330       1329       1439       1440       1451       1450  
      1319       1320       1331       1330       1440       1441       1452       1451  
      1332       1333       1344       1343       1453       1454       1465       1464  
      1333       1334       1345       1344       1454       1455       1466       1465  
      1334       1335       1346       1345       1455       1456       1467       1466  
      1335       1336       1347       1346       1456       1457       1468       1467  
      1336       1337       1348       1347       1457       1458       1469       1468  
      1337       1338       1349       1348       1458       1459       1470       1469  
      1338       1339       1350       1349       1459       1460       1471       1470  
      1339       1340       1351       1350       1460       1461       1472       1471  
      1340       1341       1352       1351       1461       1462       1473       1472  
      1341       1342       1353       1352       1462       1463       1474       1473  
      1343       1344       1355       1354       1464       1465       1476       1475  
      1344       1345       1356       1355       1465       1466       1477       1476  
      1345       1346       1357       1356       1466       1467       1478       1477  
      1346       1347       1358       1357       1467       1468       1479       1478  
      1347       1348       1359       1358       1468       1469       1480       1479  
      1348       1349       1360       1359       1469       1470       1481       1480  
      1349       1350       1361       1360       1470       1471       1482       1481  
      1350       1351       1362       1361       1471       1472       1483       1482  
      1351       1352       1363       1362       1472       1473       1484       1483  
      1352       1353       1364       1363       1473       1474       1485       1484  
      1354       1355       1366       1365       1475       1476       1487       1486  
      1355       1356       1367       1366       1476       1477       1488       1487  
      1356       1357       1368       1367       1477       1478       1489       1488  
      1357       1358       1369       1368       1478       1479       1490       1489  
      1358       1359       1370       1369       1479       1480       1491       1490  
      1359       1360       1371       1370       1480       1481       1492       1491  
      1360       1361       1372       1371       1481       1482       1493       1492  
      1361       1362       1373       1372       1482       1483       1494       1493  
      1362       1363       1374       1373       1483       1484       1495       1494  
      1363       1364       1375       1374       1484       1485       1496       1495  
      1365       1366       1377       1376       1486       1487       1498       1497  
      1366       1367       1378       1377       1487       1488       1499       1498  
      1367       1368       1379       1378       1488       1489       1500       1499  
      1368       1369       1380       1379       1489       1490       1501       1500  
      1369       1370       1381       1380       1490       1491       1502       1501  
      1370       1371       1382       1381       1491       1492       1503       1502  
      1371       1372       1383       1382       1492       1493       1504       1503  
      1372       1373       1384       1383       1493       1494       1505       1504  
      1373       1374       1385       1384       1494       1495       1506       1505  
      1374       1375       1386       1385       1495       1496       1507       1506  
      1376       1377       1388       1387       1497       1498       1509       1508  
      1377       1378       1389       1388       1498       1499       1510       1509  
      1378       1379       1390       1389       1499       1500       1511       1510  
      1379       1380       1391       1390       1500       1501       1512       1511  
      1380       1381       1392       1391       1501       1502       1513       1512  
      1381       1382       1393       1392       1502       1503       1514       1513  
      1382       1383       1394       1393       1503       1504       1515       1514  
      1383       1384       1395       1394       1504       1505       1516       1515  
      1384       1385       1396       1395       1505       1506       1517       1516  
      1385       1386       1397       1396       1506       1507       1518       1517  
      1387       1388       1399       1398       1508       1509       1520       1519  
      1388       1389       1400       1399       1509       1510       1521       1520  
      1389       1390       1401       1400       1510       1511       1522       1521  
      1390       1391       1402       1401       1511       1512       1523       1522  
      1391       1392       1403       1402       1512       1513       1524       1523  
      1392       1393       1404       1403       1513       1514       1525       1524  
      1393       1394       1405       1404       1514       1515       1526       1525  
      1394       1395       1406       1405       1515       1516       1527       1526  
      1395       1396       1407       1406       1516       1517       1528       1527  
      1396       1397       1408       1407       1517       1518       1529       1528  
      1398       1399       1410       1409       1519       1520       1531       1530  
      1399       1400       1411       1410       1520       1521       1532       1531  
      1400       1401       1412       1411       1521       1522       1533       1532  
      1401       1402       1413       1412       1522       1523       1534       1533  
      1402       1403       1414       1413       1523       1524       1535       1534  
      1403       1404       1415       1414       1524       1525       1536       1535  
      1404       1405       1416       1415       1525       1526       1537       1536  
      1405       1406       1417       1416       1526       1527       1538       1537  
      1406       1407       1418       1417       1527       1528       1539       1538  
      1407       1408       1419       1418       1528       1529       1540       1539  
      1409       1410       1421       1420       1530       1531       1542       1541  
      1410       1411       1422       1421       1531       1532       1543       1542  
      1411       1412       1423       1422       1532       1533       1544       1543  
      1412       1413       1424       1423       1533       1534       1545       1544  
      1413       1414       1425       1424       1534       1535       1546       1545  
      1414       1415       1426       1425       1535       1536       1547       1546  
      1415       1416       1427       1426       1536       1537       1548       1547  
      1416       1417       1428       1427       1537       1538       1549       1548  
      1417       1418       1429       1428       1538       1539       1550       1549  
      1418       1419       1430       1429       1539       1540       1551       1550  
      1420       1421       1432       1431       1541       1542       1553       1552  
      1421       1422       1433       1432       1542       1543       1554       1553  
      1422       1423       1434       1433       1543       1544       1555       1554  
      1423       1424       1435       1434       1544       1545       1556       1555  
      1424       1425       1436       1435       1545       1546       1557       1556  
      1425       1426       1437       1436       1546       1547       1558       1557  
      1426       1427       1438       1437       1547       1548       1559       1558  
      1427       1428       1439       1438       1548       1549       1560       1559  
      1428       1429       1440       1439       1549       1550       1561       1560  
      1429       1430       1441       1440       1550       1551       1562       1561  
      1431       1432       1443       1442       1552       1553       1564       1563  
      1432       1433       1444       1443       1553       1554       1565       1564  
      1433       1434       1445       1444       1554       1555       1566       1565  
      1434       1435       1446       1445       1555       1556       1567       1566  
      1435       1436       1447       1446       1556       1557       1568       1567  
      1436       1437       1448       1447       1557       1558       1569       1568  
      1437       1438       1449       1448       1558       1559       1570       1569  
      1438       1439       1450       1449       1559       1560       1571       1570  
      1439       1440       1451       1450       1560       1561       1572       1571  
      1440       1441       1452       1451       1561       1562       1573       1572  
      1453       1454       1465       1464       1574       1575       1586       1585  
      1454       1455       1466       1465       1575       1576       1587       1586  
      1455       1456       1467       1466       1576       1577       1588       1587  
      1456       1457       1468       1467       1577       1578       1589       1588  
      1457       1458       1469       1468       1578       1579       1590       1589  
      1458       1459       1470       1469       1579       1580       1591       1590  
      1459       1460       1471       1470       1580       1581       1592       1591  
      1460       1461       1472       1471       1581       1582       1593       1592  
      1461       1462       1473       1472       1582       1583       1594       1593  
      1462       1463       1474       1473       1583       1584       1595       1594  
      1464       1465       1476       1475       1585       1586       1597       1596  
      1465       1466       1477       1476       1586       1587       1598       1597  
      1466       1467       1478       1477       1587       1588       1599       1598  
      1467       1468       1479       1478       1588       1589       1600       1599  
      1468       1469       1480       1479       1589       1590       1601       1600  
      1469       1470       1481       1480       1590       1591       1602       1601  
      1470       1471       1482       1481       1591       1592       1603       1602  
      1471       1472       1483       1482       1592       1593       1604       1603  
      1472       1473       1484       1483       1593       1594       1605       1604  
      1473       1474       1485       1484       1594       1595       1606       1605  
      1475       1476       1487       1486       1596       1597       1608       1607  
      1476       1477       1488       1487       1597       1598       1609       1608  
      1477       1478       1489       1488       1598       1599       1610       1609  
      1478       1479       1490       1489       1599       1600       1611       1610  
      1479       1480       1491       1490       1600       1601       1612       1611  
      1480       1481       1492       1491       1601       1602       1613       1612  
      1481       1482       1493       1492       1602       1603       1614       1613  
      1482       1483       1494       1493       1603       1604       1615       1614  
      1483       1484       1495       1494       1604       1605       1616       1615  
      1484       1485       1496       1495       1605       1606       1617       1616  
      1486       1487       1498       1497       1607       1608       1619       1618  
      1487       1488       1499       1498       1608       1609       1620       1619  
      1488       1489       1500       1499       1609       1610       1621       1620  
      1489       1490       1501       1500       1610       1611       1622       1621  
      1490       1491       1502       1501       1611       1612       1623       1622  
      1491       1492       1503       1502       1612       1613       1624       1623  
      1492       1493       1504       1503       1613       1614       1625       1624  
      1493       1494       1505       1504       1614       1615       1626       1625  
      1494       1495       1506       1505       1615       1616       1627       1626  
      1495       1496       1507       1506       1616       1617       1628       1627  
      1497       1498       1509       1508       1618       1619       1630       1629  
      1498       1499       1510       1509       1619       1620       1631       1630  
      1499       1500       1511       1510       1620       1621       1632       1631  
      1500       1501       1512       1511       1621       1622       1633       1632  
      1501       1502       1513       1512       1622       1623       1634       1633  
      1502       1503       1514       1513       1623       1624       1635       1634  
      1503       1504       1515       1514       1624       1625       1636       1635  
      1504       1505       1516       1515       1625       1626       1637       1636  
      1505       1506       1517       1516       1626       1627       1638       1637  
      1506       1507       1518       1517       1627       1628       1639       1638  
      1508       1509       1520       1519       1629       1630       1641       1640  
      1509       1510       1521       1520       1630       1631       1642       1641  
      1510       1511       1522       1521       1631       1632       1643       1642  
      1511       1512       1523       1522       1632       1633       1644       1643  
      1512       1513       1524       1523       1633       1634       1645       1644  
      1513       1514       1525       1524       1634       1635       1646       1645  
      1514       1515       1526       1525       1635       1636       1647       1646  
      1515       1516       1527       1526       1636       1637       1648       1647  
      1516       1517       1528       1527       1637       1638       1649       1648  
      1517       1518       1529       1528       1638       1639       1650       1649  
      1519       1520       1531       1530       1640       1641       1652       1651  
      1520       1521       1532       1531       1641       1642       1653       1652  
      1521       1522       1533       1532       1642       1643       1654       1653  
      1522       1523       1534       1533       1643       1644       1655       1654  
      1523       1524       1535       1534       1644       1645       1656       1655  
      1524       1525       1536       1535       1645       1646       1657       1656  
      1525       1526       1537       1536       1646       1647       1658       1657  
      1526       1527       1538       1537       1647       1648       1659       1658  
      1527       1528       1539       1538       1648       1649       1660       1659  
      1528       1529       1540       1539       1649       1650       1661       1660  
      1530       1531       1542       1541       1651       1652       1663       1662  
      1531       1532       1543       1542       1652       1653       1664       1663  
      1532       1533       1544       1543       1653       1654       1665       1664  
      1533       1534       1545       1544       1654       1655       1666       1665  
      1534       1535       1546       1545       1655       1656       1667       1666  
      1535       1536       1547       1546       1656       1657       1668       1667  
      1536       1537       1548       1547       1657       1658       1669       1668  
      1537       1538       1549       1548       1658       1659       1670       1669  
      1538       1539       1550       1549       1659       1660       1671       1670  
      1539       1540       1551       1550       1660       1661       1672       1671  
      1541       1542       1553       1552       1662       1663       1674       1673  
      1542       1543       1554       1553       1663       1664       1675       1674  
      1543       1544       1555       1554       1664       1665       1676       1675  
      1544       1545       1556       1555       1665       1666       1677       1676  
      1545       1546       1557       1556       1666       1667       1678       1677  
      1546       1547       1558       1557       1667       1668       1679       1678  
      1547       1548       1559       1558       1668       1669       1680       1679  
      1548       1549       1560       1559       1669       1670       1681       1680  
      1549       1550       1561       1560       1670       1671       1682       1681  
      1550       1551       1562       1561       1671       1672       1683       1682  
      1552       1553       1564       1563       1673       1674       1685       1684  
      1553       1554       1565       1564       1674       1675       1686       1685  
      1554       1555       1566       1565       1675       1676       1687       1686  
      1555       1556       1567       1566       1676       1677       1688       1687  
      1556       1557       1568       1567       1677       1678       1689       1688  
      1557       1558       1569       1568       1678       1679       1690       1689  
      1558       1559       1570       1569       1679       1680       1691       1690  
      1559       1560       1571       1570       1680       1681       1692       1691  
      1560       1561       1572       1571       1681       1682       1693       1692  
      1561       1562       1573       1572       1682       1683       1694       1693  
      1574       1575       1586       1585       1695       1696       1707       1706  
      1575       1576       1587       1586       1696       1697       1708       1707  
      1576       1577       1588       1587       1697       1698       1709       1708  
      1577       1578       1589       1588       1698       1699       1710       1709  
      1578       1579       1590       1589       1699       1700       1711       1710  
      1579       1580       1591       1590       1700       1701       1712       1711  
      1580       1581       1592       1591       1701       1702       1713       1712  
      1581       1582       1593       1592       1702       1703       1714       1713  
      1582       1583       1594       1593       1703       1704       1715       1714  
      1583       1584       1595       1594       1704       1705       1716       1715  
      1585       1586       1597       1596       1706       1707       1718       1717  
      1586       1587       1598       1597       1707       1708       1719       1718  
      1587       1588       1599       1598       1708       1709       1720       1719  
      1588       1589       1600       1599       1709       1710       1721       1720  
      1589       1590       1601       1600       1710       1711       1722       1721  
      1590       1591       1602       1601       1711       1712       1723       1722  
      1591       1592       1603       1602       1712       1713       1724       1723  
      1592       1593       1604       1603       1713       1714       1725       1724  
      1593       1594       1605       1604       1714       1715       1726       1725  
      1594       1595       1606       1605       1715       1716       1727       1726  
      1596       1597       1608       1607       1717       1718       1729       1728  
      1597       1598       1609       1608       1718       1719       1730       1729  
      1598       1599       1610       1609       1719       1720       1731       1730  
      1599       1600       1611       1610       1720       1721       1732       1731  
      1600       1601       1612       1611       1721       1722       1733       1732  
      1601       1602       1613       1612       1722       1723       1734       1733  
      1602       1603       1614       1613       1723       1724       1735       1734  
      1603       1604       1615       1614       1724       1725       1736       1735  
      1604       1605       1616       1615       1725       1726       1737       1736  
      1605       1606       1617       1616       1726       1727       1738       1737  
      1607       1608       1619       1618       1728       1729       1740       1739  
      1608       1609       1620       1619       1729       1730       1741       1740  
      1609       1610       1621       1620       1730       1731       1742       1741  
      1610       1611       1622       1621       1731       1732       1743       1742  
      1611       1612       1623       1622       1732       1733       1744       1743  
      1612       1613       1624       1623       1733       1734       1745       1744  
      1613       1614       1625       1624       1734       1735       1746       1745  
      1614       1615       1626       1625       1735       1736       1747       1746  
      1615       1616       1627       1626       1736       1737       1748       1747  
      1616       1617       1628       1627       1737       1738       1749       1748  
      1618       1619       1630       1629       1739       1740       1751       1750  
      1619       1620       1631       1630       1740       1741       1752       1751  
      1620       1621       1632       1631       1741       1742       1753       1752  
      1621       1622       1633       1632       1742       1743       1754       1753  
      1622       1623       1634       1633       1743       1744       1755       1754  
      1623       1624       1635       1634       1744       1745       1756       1755  
      1624       1625       1636       1635       1745       1746       1757       1756  
      1625       1626       1637       1636       1746       1747       1758       1757  
      1626       1627       1638       1637       1747       1748       1759       1758  
      1627       1628       1639       1638       1748       1749       1760       1759  
      1629       1630       1641       1640       1750       1751       1762       1761  
      1630       1631       1642       1641       1751       1752       1763       1762  
      1631       1632       1643       1642       1752       1753       1764       1763  
      1632       1633       1644       1643       1753       1754       1765       1764  
      1633       1634       1645       1644       1754       1755       1766       1765  
      1634       1635       1646       1645       1755       1756       1767       1766  
      1635       1636       1647       1646       1756       1757       1768       1767  
      1636       1637       1648       1647       1757       1758       1769       1768  
      1637       1638       1649       1648       1758       1759       1770       1769  
      1638       1639       1650       1649       1759       1760       1771       1770  
      1640       1641       1652       1651       1761       1762       1773       1772  
      1641       1642       1653       1652       1762       1763       1774       1773  
      1642       1643       1654       1653       1763       1764       1775       1774  
      1643       1644       1655       1654       1764       1765       1776       1775  
      1644       1645       1656       1655       1765       1766       1777       1776  
      1645       1646       1657       1656       1766       1767       1778       1777  
      1646       1647       1658       1657       1767       1768       1779       1778  
      1647       1648       1659       1658       1768       1769       1780       1779  
      1648       1649       1660       1659       1769       1770       1781       1780  
      1649       1650       1661       1660       1770       1771       1782       1781  
      1651       1652       1663       1662       1772       1773       1784       1783  
      1652       1653       1664       1663       1773       1774       1785       1784  
      1653       1654       1665       1664       1774       1775       1786       1785  
      1654       1655       1666       1665       1775       1776       1787       1786  
      1655       1656       1667       1666       1776       1777       1788       1787  
      1656       1657       1668       1667       1777       1778       1789       1788  
      1657       1658       1669       1668       1778       1779       1790       1789  
      1658       1659       1670       1669       1779       1780       1791       1790  
      1659       1660       1671       1670       1780       1781       1792       1791  
      1660       1661       1672       1671       1781       1782       1793       1792  
      1662       1663       1674       1673       1783       1784       1795       1794  
      1663       1664       1675       1674       1784       1785       1796       1795  
      1664       1665       1676       1675       1785       1786       1797       1796  
      1665       1666       1677       1676       1786       1787       1798       1797  
      1666       1667       1678       1677       1787       1788       1799       1798  
      1667       1668       1679       1678       1788       1789       1800       1799  
      1668       1669       1680       1679       1789       1790       1801       1800  
      1669       1670       1681       1680       1790       1791       1802       1801  
      1670       1671       1682       1681       1791       1792       1803       1802  
      1671       1672       1683       1682       1792       1793       1804       1803  
      1673       1674       1685       1684       1794       1795       1806       1805  
      1674       1675       1686       1685       1795       1796       1807       1806  
      1675       1676       1687       1686       1796       1797       1808       1807  
      1676       1677       1688       1687       1797       1798       1809       1808  
      1677       1678       1689       1688       1798       1799       1810       1809  
      1678       1679       1690       1689       1799       1800       1811       1810  
      1679       1680       1691       1690       1800       1801       1812       1811  
      1680       1681       1692       1691       1801       1802       1813       1812  
      1681       1682       1693       1692       1802       1803       1814       1813  
      1682       1683       1694       1693       1803       1804       1815       1814  
      1695       1696       1707       1706       1816       1817       1828       1827  
      1696       1697       1708       1707       1817       1818       1829       1828  
      1697       1698       1709       1708       1818       1819       1830       1829  
      1698       1699       1710       1709       1819       1820       1831       1830  
      1699       1700       1711       1710       1820       1821       1832       1831  
      1700       1701       1712       1711       1821       1822       1833       1832  
      1701       1702       1713       1712       1822       1823       1834       1833  
      1702       1703       1714       1713       1823       1824       1835       1834  
      1703       1704       1715       1714       1824       1825       1836       1835  
      1704       1705       1716       1715       1825       1826       1837       1836  
      1706       1707       1718       1717       1827       1828       1839       1838  
      1707       1708       1719       1718       1828       1829       1840       1839  
      1708       1709       1720       1719       1829       1830       1841       1840  
      1709       1710       1721       1720       1830       1831       1842       1841  
      1710       1711       1722       1721       1831       1832       1843       1842  
      1711       1712       1723       1722       1832       1833       1844       1843  
      1712       1713       1724       1723       1833       1834       1845       1844  
      1713       1714       1725       1724       1834       1835       1846       1845  
      1714       1715       1726       1725       1835       1836       1847       1846  
      1715       1716       1727       1726       1836       1837       1848       1847  
      1717       1718       1729       1728       1838       1839       1850       1849  
      1718       1719       1730       1729       1839       1840       1851       1850  
      1719       1720       1731       1730       1840       1841       1852       1851  
      1720       1721       1732       1731       1841       1842       1853       1852  
      1721       1722       1733       1732       1842       1843       1854       1853  
      1722       1723       1734       1733       1843       1844       1855       1854  
      1723       1724       1735       1734       1844       1845       1856       1855  
      1724       1725       1736       1735       1845       1846       1857       1856  
      1725       1726       1737       1736       1846       1847       1858       1857  
      1726       1727       1738       1737       1847       1848       1859       1858  
      1728       1729       1740       1739       1849       1850       1861       1860  
      1729       1730       1741       1740       1850       1851       1862       1861  
      1730       1731       1742       1741       1851       1852       1863       1862  
      1731       1732       1743       1742       1852       1853       1864       1863  
      1732       1733       1744       1743       1853       1854       1865       1864  
      1733       1734       1745       1744       1854       1855       1866       1865  
      1734       1735       1746       1745       1855       1856       1867       1866  
      1735       1736       1747       1746       1856       1857       1868       1867  
      1736       1737       1748       1747       1857       1858       1869       1868  
      1737       1738       1749       1748       1858       1859       1870       1869  
      1739       1740       1751       1750       1860       1861       1872       1871  
      1740       1741       1752       1751       1861       1862       1873       1872  
      1741       1742       1753       1752       1862       1863       1874       1873  
      1742       1743       1754       1753       1863       1864       1875       1874  
      1743       1744       1755       1754       1864       1865       1876       1875  
      1744       1745       1756       1755       1865       1866       1877       1876  
      1745       1746       1757       1756       1866       1867       1878       1877  
      1746       1747       1758       1757       1867       1868       1879       1878  
      1747       1748       1759       1758       1868       1869       1880       1879  
      1748       1749       1760       1759       1869       1870       1881       1880  
      1750       1751       1762       1761       1871       1872       1883       1882  
      1751       1752       1763       1762       1872       1873       1884       1883  
      1752       1753       1764       1763       1873       1874       1885       1884  
      1753       1754       1765       1764       1874       1875       1886       1885  
      1754       1755       1766       1765       1875       1876       1887       1886  
      1755       1756       1767       1766       1876       1877       1888       1887  
      1756       1757       1768       1767       1877       1878       1889       1888  
      1757       1758       1769       1768       1878       1879       1890       1889  
      1758       1759       1770       1769       1879       1880       1891       1890  
      1759       1760       1771       1770       1880       1881       1892       1891  
      1761       1762       1773       1772       1882       1883       1894       1893  
      1762       1763       1774       1773       1883       1884       1895       1894  
      1763       1764       1775       1774       1884       1885       1896       1895  
      1764       1765       1776       1775       1885       1886       1897       1896  
      1765       1766       1777       1776       1886       1887       1898       1897  
      1766       1767       1778       1777       1887       1888       1899       1898  
      1767       1768       1779       1778       1888       1889       1900       1899  
      1768       1769       1780       1779       1889       1890       1901       1900  
      1769       1770       1781       1780       1890       1891       1902       1901  
      1770       1771       1782       1781       1891       1892       1903       1902  
      1772       1773       1784       1783       1893       1894       1905       1904  
      1773       1774       1785       1784       1894       1895       1906       1905  
      1774       1775       1786       1785       1895       1896       1907       1906  
      1775       1776       1787       1786       1896       1897       1908       1907  
      1776       1777       1788       1787       1897       1898       1909       1908  
      1777       1778       1789       1788       1898       1899       1910       1909  
      1778       1779       1790       1789       1899       1900       1911       1910  
      1779       1780       1791       1790       1900       1901       1912       1911  
      1780       1781       1792       1791       1901       1902       1913       1912  
      1781       1782       1793       1792       1902       1903       1914       1913  
      1783       1784       1795       1794       1904       1905       1916       1915  
      1784       1785       1796       1795       1905       1906       1917       1916  
      1785       1786       1797       1796       1906       1907       1918       1917  
      1786       1787       1798       1797       1907       1908       1919       1918  
      1787       1788       1799       1798       1908       1909       1920       1919  
      1788       1789       1800       1799       1909       1910       1921       1920  
      1789       1790       1801       1800       1910       1911       1922       1921  
      1790       1791       1802       1801       1911       1912       1923       1922  
      1791       1792       1803       1802       1912       1913       1924       1923  
      1792       1793       1804       1803       1913       1914       1925       1924  
      1794       1795       1806       1805       1915       1916       1927       1926  
      1795       1796       1807       1806       1916       1917       1928       1927  
      1796       1797       1808       1807       1917       1918       1929       1928  
      1797       1798       1809       1808       1918       1919       1930       1929  
      1798       1799       1810       1809       1919       1920       1931       1930  
      1799       1800       1811       1810       1920       1921       1932       1931  
      1800       1801       1812       1811       1921       1922       1933       1932  
      1801       1802       1813       1812       1922       1923       1934       1933  
      1802       1803       1814       1813       1923       1924       1935       1934  
      1803       1804       1815       1814       1924       1925       1936       1935  
      1816       1817       1828       1827       1937       1938       1949       1948  
      1817       1818       1829       1828       1938       1939       1950       1949  
      1818       1819       1830       1829       1939       1940       1951       1950  
      1819       1820       1831       1830       1940       1941       1952       1951  
      1820       1821       1832       1831       1941       1942       1953       1952  
      1821       1822       1833       1832       1942       1943       1954       1953  
      1822       1823       1834       1833       1943       1944       1955       1954  
      1823       1824       1835       1834       1944       1945       1956       1955  
      1824       1825       1836       1835       1945       1946       1957       1956  
      1825       1826       1837       1836       1946       1947       1958       1957  
      1827       1828       1839       1838       1948       1949       1960       1959  
      1828       1829       1840       1839       1949       1950       1961       1960  
      1829       1830       1841       1840       1950       1951       1962       1961  
      1830       1831       1842       1841       1951       1952       1963       1962  
      1831       1832       1843       1842       1952       1953       1964       1963  
      1832       1833       1844       1843       1953       1954       1965       1964  
      1833       1834       1845       1844       1954       1955       1966       1965  
      1834       1835       1846       1845       1955       1956       1967       1966  
      1835       1836       1847       1846       1956       1957       1968       1967  
      1836       1837       1848       1847       1957       1958       1969       1968  
      1838       1839       1850       1849       1959       1960       1971       1970  
      1839       1840       1851       1850       1960       1961       1972       1971  
      1840       1841       1852       1851       1961       1962       1973       1972  
      1841       1842       1853       1852       1962       1963       1974       1973  
      1842       1843       1854       1853       1963       1964       1975       1974  
      1843       1844       1855       1854       1964       1965       1976       1975  
      1844       1845       1856       1855       1965       1966       1977       1976  
      1845       1846       1857       1856       1966       1967       1978       1977  
      1846       1847       1858       1857       1967       1968       1979       1978  
      1847       1848       1859       1858       1968       1969       1980       1979  
      1849       1850       1861       1860       1970       1971       1982       1981  
      1850       1851       1862       1861       1971       1972       1983       1982  
      1851       1852       1863       1862       1972       1973       1984       1983  
      1852       1853       1864       1863       1973       1974       1985       1984  
      1853       1854       1865       1864       1974       1975       1986       1985  
      1854       1855       1866       1865       1975       1976       1987       1986  
      1855       1856       1867       1866       1976       1977       1988       1987  
      1856       1857       1868       1867       1977       1978       1989       1988  
      1857       1858       1869       1868       1978       1979       1990       1989  
      1858       1859       1870       1869       1979       1980       1991       1990  
      1860       1861       1872       1871       1981       1982       1993       1992  
      1861       1862       1873       1872       1982       1983       1994       1993  
      1862       1863       1874       1873       1983       1984       1995       1994  
      1863       1864       1875       1874       1984       1985       1996       1995  
      1864       1865       1876       1875       1985       1986       1997       1996  
      1865       1866       1877       1876       1986       1987       1998       1997  
      1866       1867       1878       1877       1987       1988       1999       1998  
      1867       1868       1879       1878       1988       1989       2000       1999  
      1868       1869       1880       1879       1989       1990       2001       2000  
      1869       1870       1881       1880       1990       1991       2002       2001  
      1871       1872       1883       1882       1992       1993       2004       2003  
      1872       1873       1884       1883       1993       1994       2005       2004  
      1873       1874       1885       1884       1994       1995       2006       2005  
      1874       1875       1886       1885       1995       1996       2007       2006  
      1875       1876       1887       1886       1996       1997       2008       2007  
      1876       1877       1888       1887       1997       1998       2009       2008  
      1877       1878       1889       1888       1998       1999       2010       2009  
      1878       1879       1890       1889       1999       2000       2011       2010  
      1879       1880       1891       1890       2000       2001       2012       2011  
      1880       1881       1892       1891       2001       2002       2013       2012  
      1882       1883       1894       1893       2003       2004       2015       2014  
      1883       1884       1895       1894       2004       2005       2016       2015  
      1884       1885       1896       1895       2005       2006       2017       2016  
      1885       1886       1897       1896       2006       2007       2018       2017  
      1886       1887       1898       1897       2007       2008       2019       2018  
      1887       1888       1899       1898       2008       2009       2020       2019  
      1888       1889       1900       1899       2009       2010       2021       2020  
      1889       1890       1901       1900       2010       2011       2022       2021  
      1890       1891       1902       1901       2011       2012       2023       2022  
      1891       1892       1903       1902       2012       2013       2024       2023  
      1893       1894       1905       1904       2014       2015       2026       2025  
      1894       1895       1906       1905       2015       2016       2027       2026  
      1895       1896       1907       1906       2016       2017       2028       2027  
      1896       1897       1908       1907       2017       2018       2029       2028  
      1897       1898       1909       1908       2018       2019       2030       2029  
      1898       1899       1910       1909       2019       2020       2031       2030  
      1899       1900       1911       1910       2020       2021       2032       2031  
      1900       1901       1912       1911       2021       2022       2033       2032  
      1901       1902       1913       1912       2022       2023       2034       2033  
      1902       1903       1914       1913       2023       2024       2035       2034  
      1904       1905       1916       1915       2025       2026       2037       2036  
      1905       1906       1917       1916       2026       2027       2038       2037  
      1906       1907       1918       1917       2027       2028       2039       2038  
      1907       1908       1919       1918       2028       2029       2040       2039  
      1908       1909       1920       1919       2029       2030       2041       2040  
      1909       1910       1921       1920       2030       2031       2042       2041  
      1910       1911       1922       1921       2031       2032       2043       2042  
      1911       1912       1923       1922       2032       2033       2044       2043  
      1912       1913       1924       1923       2033       2034       2045       2044  
      1913       1914       1925       1924       2034       2035       2046       2045  
      1915       1916       1927       1926       2036       2037       2048       2047  
      1916       1917       1928       1927       2037       2038       2049       2048  
      1917       1918       1929       1928       2038       2039       2050       2049  
      1918       1919       1930       1929       2039       2040       2051       2050  
      1919       1920       1931       1930       2040       2041       2052       2051  
      1920       1921       1932       1931       2041       2042       2053       2052  
      1921       1922       1933       1932       2042       2043       2054       2053  
      1922       1923       1934       1933       2043       2044       2055       2054  
      1923       1924       1935       1934       2044       2045       2056       2055  
      1924       1925       1936       1935       2045       2046       2057       2056  
      1937       1938       1949       1948       2058       2059       2070       2069  
      1938       1939       1950       1949       2059       2060       2071       2070  
      1939       1940       1951       1950       2060       2061       2072       2071  
      1940       1941       1952       1951       2061       2062       2073       2072  
      1941       1942       1953       1952       2062       2063       2074       2073  
      1942       1943       1954       1953       2063       2064       2075       2074  
      1943       1944       1955       1954       2064       2065       2076       2075  
      1944       1945       1956       1955       2065       2066       2077       2076  
      1945       1946       1957       1956       2066       2067       2078       2077  
      1946       1947       1958       1957       2067       2068       2079       2078  
      1948       1949       1960       1959       2069       2070       2081       2080  
      1949       1950       1961       1960       2070       2071       2082       2081  
      1950       1951       1962       1961       2071       2072       2083       2082  
      1951       1952       1963       1962       2072       2073       2084       2083  
      1952       1953       1964       1963       2073       2074       2085       2084  
      1953       1954       1965       1964       2074       2075       2086       2085  
      1954       1955       1966       1965       2075       2076       2087       2086  
      1955       1956       1967       1966       2076       2077       2088       2087  
      1956       1957       1968       1967       2077       2078       2089       2088  
      1957       1958       1969       1968       2078       2079       2090       2089  
      1959       1960       1971       1970       2080       2081       2092       2091  
      1960       1961       1972       1971       2081       2082       2093       2092  
      1961       1962       1973       1972       2082       2083       2094       2093  
      1962       1963       1974       1973       2083       2084       2095       2094  
      1963       1964       1975       1974       2084       2085       2096       2095  
      1964       1965       1976       1975       2085       2086       2097       2096  
      1965       1966       1977       1976       2086       2087       2098       2097  
      1966       1967       1978       1977       2087       2088       2099       2098  
      1967       1968       1979       1978       2088       2089       2100       2099  
      1968       1969       1980       1979       2089       2090       2101       2100  
      1970       1971       1982       1981       2091       2092       2103       2102  
      1971       1972       1983       1982       2092       2093       2104       2103  
      1972       1973       1984       1983       2093       2094       2105       2104  
      1973       1974       1985       1984       2094       2095       2106       2105  
      1974       1975       1986       1985       2095       2096       2107       2106  
      1975       1976       1987       1986       2096       2097       2108       2107  
      1976       1977       1988       1987       2097       2098       2109       2108  
      1977       1978       1989       1988       2098       2099       2110       2109  
      1978       1979       1990       1989       2099       2100       2111       2110  
      1979       1980       1991       1990       2100       2101       2112       2111  
      1981       1982       1993       1992       2102       2103       2114       2113  
      1982       1983       1994       1993       2103       2104       2115       2114  
      1983       1984       1995       1994       2104       2105       2116       2115  
      1984       1985       1996       1995       2105       2106       2117       2116  
      1985       1986       1997       1996       2106       2107       2118       2117  
      1986       1987       1998       1997       2107       2108       2119       2118  
      1987       1988       1999       1998       2108       2109       2120       2119  
      1988       1989       2000       1999       2109       2110       2121       2120  
      1989       1990       2001       2000       2110       2111       2122       2121  
      1990       1991       2002       2001       2111       2112       2123       2122  
      1992       1993       2004       2003       2113       2114       2125       2124  
      1993       1994       2005       2004       2114       2115       2126       2125  
      1994       1995       2006       2005       2115       2116       2127       2126  
      1995       1996       2007       2006       2116       2117       2128       2127  
      1996       1997       2008       2007       2117       2118       2129       2128  
      1997       1998       2009       2008       2118       2119       2130       2129  
      1998       1999       2010       2009       2119       2120       2131       2130  
      1999       2000       2011       2010       2120       2121       2132       2131  
      2000       2001       2012       2011       2121       2122       2133       2132  
      2001       2002       2013       2012       2122       2123       2134       2133  
      2003       2004       2015       2014       2124       2125       2136       2135  
      2004       2005       2016       2015       2125       2126       2137       2136  
      2005       2006       2017       2016       2126       2127       2138       2137  
      2006       2007       2018       2017       2127       2128       2139       2138  
      2007       2008       2019       2018       2128       2129       2140       2139  
      2008       2009       2020       2019       2129       2130       2141       2140  
      2009       2010       2021       2020       2130       2131       2142       2141  
      2010       2011       2022       2021       2131       2132       2143       2142  
      2011       2012       2023       2022       2132       2133       2144       2143  
      2012       2013       2024       2023       2133       2134       2145       2144  
      2014       2015       2026       2025       2135       2136       2147       2146  
      2015       2016       2027       2026       2136       2137       2148       2147  
      2016       2017       2028       2027       2137       2138       2149       2148  
      2017       2018       2029       2028       2138       2139       2150       2149  
      2018       2019       2030       2029       2139       2140       2151       2150  
      2019       2020       2031       2030       2140       2141       2152       2151  
      2020       2021       2032       2031       2141       2142       2153       2152  
      2021       2022       2033       2032       2142       2143       2154       2153  
      2022       2023       2034       2033       2143       2144       2155       2154  
      2023       2024       2035       2034       2144       2145       2156       2155  
      2025       2026       2037       2036       2146       2147       2158       2157  
      2026       2027       2038       2037       2147       2148       2159       2158  
      2027       2028       2039       2038       2148       2149       2160       2159  
      2028       2029       2040       2039       2149       2150       2161       2160  
      2029       2030       2041       2040       2150       2151       2162       2161  
      2030       2031       2042       2041       2151       2152       2163       2162  
      2031       2032       2043       2042       2152       2153       2164       2163  
      2032       2033       2044       2043       2153       2154       2165       2164  
      2033       2034       2045       2044       2154       2155       2166       2165  
      2034       2035       2046       2045       2155       2156       2167       2166  
      2036       2037       2048       2047       2157       2158       2169       2168  
      2037       2038       2049       2048       2158       2159       2170       2169  
      2038       2039       2050       2049       2159       2160       2171       2170  
      2039       2040       2051       2050       2160       2161       2172       2171  
      2040       2041       2052       2051       2161       2162       2173       2172  
      2041       2042       2053       2052       2162       2163       2174       2173  
      2042       2043       2054       2053       2163       2164       2175       2174  
      2043       2044       2055       2054       2164       2165       2176       2175  
      2044       2045       2056       2055       2165       2166       2177       2176  
      2045       2046       2057       2056       2166       2167       2178       2177  
      2058       2059       2070       2069       2179       2180       2191       2190  
      2059       2060       2071       2070       2180       2181       2192       2191  
      2060       2061       2072       2071       2181       2182       2193       2192  
      2061       2062       2073       2072       2182       2183       2194       2193  
      2062       2063       2074       2073       2183       2184       2195       2194  
      2063       2064       2075       2074       2184       2185       2196       2195  
      2064       2065       2076       2075       2185       2186       2197       2196  
      2065       2066       2077       2076       2186       2187       2198       2197  
      2066       2067       2078       2077       2187       2188       2199       2198  
      2067       2068       2079       2078       2188       2189       2200       2199  
      2069       2070       2081       2080       2190       2191       2202       2201  
      2070       2071       2082       2081       2191       2192       2203       2202  
      2071       2072       2083       2082       2192       2193       2204       2203  
      2072       2073       2084       2083       2193       2194       2205       2204  
      2073       2074       2085       2084       2194       2195       2206       2205  
      2074       2075       2086       2085       2195       2196       2207       2206  
      2075       2076       2087       2086       2196       2197       2208       2207  
      2076       2077       2088       2087       2197       2198       2209       2208  
      2077       2078       2089       2088       2198       2199       2210       2209  
      2078       2079       2090       2089       2199       2200       2211       2210  
      2080       2081       2092       2091       2201       2202       2213       2212  
      2081       2082       2093       2092       2202       2203       2214       2213  
      2082       2083       2094       2093       2203       2204       2215       2214  
      2083       2084       2095       2094       2204       2205       2216       2215  
      2084       2085       2096       2095       2205       2206       2217       2216  
      2085       2086       2097       2096       2206       2207       2218       2217  
      2086       2087       2098       2097       2207       2208       2219       2218  
      2087       2088       2099       2098       2208       2209       2220       2219  
      2088       2089       2100       2099       2209       2210       2221       2220  
      2089       2090       2101       2100       2210       2211       2222       2221  
      2091       2092       2103       2102       2212       2213       2224       2223  
      2092       2093       2104       2103       2213       2214       2225       2224  
      2093       2094       2105       2104       2214       2215       2226       2225  
      2094       2095       2106       2105       2215       2216       2227       2226  
      2095       2096       2107       2106       2216       2217       2228       2227  
      2096       2097       2108       2107       2217       2218       2229       2228  
      2097       2098       2109       2108       2218       2219       2230       2229  
      2098       2099       2110       2109       2219       2220       2231       2230  
      2099       2100       2111       2110       2220       2221       2232       2231  
      2100       2101       2112       2111       2221       2222       2233       2232  
      2102       2103       2114       2113       2223       2224       2235       2234  
      2103       2104       2115       2114       2224       2225       2236       2235  
      2104       2105       2116       2115       2225       2226       2237       2236  
      2105       2106       2117       2116       2226       2227       2238       2237  
      2106       2107       2118       2117       2227       2228       2239       2238  
      2107       2108       2119       2118       2228       2229       2240       2239  
      2108       2109       2120       2119       2229       2230       2241       2240  
      2109       2110       2121       2120       2230       2231       2242       2241  
      2110       2111       2122       2121       2231       2232       2243       2242  
      2111       2112       2123       2122       2232       2233       2244       2243  
      2113       2114       2125       2124       2234       2235       2246       2245  
      2114       2115       2126       2125       2235       2236       2247       2246  
      2115       2116       2127       2126       2236       2237       2248       2247  
      2116       2117       2128       2127       2237       2238       2249       2248  
      2117       2118       2129       2128       2238       2239       2250       2249  
      2118       2119       2130       2129       2239       2240       2251       2250  
      2119       2120       2131       2130       2240       2241       2252       2251  
      2120       2121       2132       2131       2241       2242       2253       2252  
      2121       2122       2133       2132       2242       2243       2254       2253  
      2122       2123       2134       2133       2243       2244       2255       2254  
      2124       2125       2136       2135       2245       2246       2257       2256  
      2125       2126       2137       2136       2246       2247       2258       2257  
      2126       2127       2138       2137       2247       2248       2259       2258  
      2127       2128       2139       2138       2248       2249       2260       2259  
      2128       2129       2140       2139       2249       2250       2261       2260  
      2129       2130       2141       2140       2250       2251       2262       2261  
      2130       2131       2142       2141       2251       2252       2263       2262  
      2131       2132       2143       2142       2252       2253       2264       2263  
      2132       2133       2144       2143       2253       2254       2265       2264  
      2133       2134       2145       2144       2254       2255       2266       2265  
      2135       2136       2147       2146       2256       2257       2268       2267  
      2136       2137       2148       2147       2257       2258       2269       2268  
      2137       2138       2149       2148       2258       2259       2270       2269  
      2138       2139       2150       2149       2259       2260       2271       2270  
      2139       2140       2151       2150       2260       2261       2272       2271  
      2140       2141       2152       2151       2261       2262       2273       2272  
      2141       2142       2153       2152       2262       2263       2274       2273  
      2142       2143       2154       2153       2263       2264       2275       2274  
      2143       2144       2155       2154       2264       2265       2276       2275  
      2144       2145       2156       2155       2265       2266       2277       2276  
      2146       2147       2158       2157       2267       2268       2279       2278  
      2147       2148       2159       2158       2268       2269       2280       2279  
      2148       2149       2160       2159       2269       2270       2281       2280  
      2149       2150       2161       2160       2270       2271       2282       2281  
      2150       2151       2162       2161       2271       2272       2283       2282  
      2151       2152       2163       2162       2272       2273       2284       2283  
      2152       2153       2164       2163       2273       2274       2285       2284  
      2153       2154       2165       2164       2274       2275       2286       2285  
      2154       2155       2166       2165       2275       2276       2287       2286  
      2155       2156       2167       2166       2276       2277       2288       2287  
      2157       2158       2169       2168       2278       2279       2290       2289  
      2158       2159       2170       2169       2279       2280       2291       2290  
      2159       2160       2171       2170       2280       2281       2292       2291  
      2160       2161       2172       2171       2281       2282       2293       2292  
      2161       2162       2173       2172       2282       2283       2294       2293  
      2162       2163       2174       2173       2283       2284       2295       2294  
      2163       2164       2175       2174       2284       2285       2296       2295  
      2164       2165       2176       2175       2285       2286       2297       2296  
      2165       2166       2177       2176       2286       2287       2298       2297  
      2166       2167       2178       2177       2287       2288       2299       2298  
      2179       2180       2191       2190       2300       2301       2312       2311  
      2180       2181       2192       2191       2301       2302       2313       2312  
      2181       2182       2193       2192       2302       2303       2314       2313  
      2182       2183       2194       2193       2303       2304       2315       2314  
      2183       2184       2195       2194       2304       2305       2316       2315  
      2184       2185       2196       2195       2305       2306       2317       2316  
      2185       2186       2197       2196       2306       2307       2318       2317  
      2186       2187       2198       2197       2307       2308       2319       2318  
      2187       2188       2199       2198       2308       2309       2320       2319  
      2188       2189       2200       2199       2309       2310       2321       2320  
      2190       2191       2202       2201       2311       2312       2323       2322  
      2191       2192       2203       2202       2312       2313       2324       2323  
      2192       2193       2204       2203       2313       2314       2325       2324  
      2193       2194       2205       2204       2314       2315       2326       2325  
      2194       2195       2206       2205       2315       2316       2327       2326  
      2195       2196       2207       2206       2316       2317       2328       2327  
      2196       2197       2208       2207       2317       2318       2329       2328  
      2197       2198       2209       2208       2318       2319       2330       2329  
      2198       2199       2210       2209       2319       2320       2331       2330  
      2199       2200       2211       2210       2320       2321       2332       2331  
      2201       2202       2213       2212       2322       2323       2334       2333  
      2202       2203       2214       2213       2323       2324       2335       2334  
      2203       2204       2215       2214       2324       2325       2336       2335  
      2204       2205       2216       2215       2325       2326       2337       2336  
      2205       2206       2217       2216       2326       2327       2338       2337  
      2206       2207       2218       2217       2327       2328       2339       2338  
      2207       2208       2219       2218       2328       2329       2340       2339  
      2208       2209       2220       2219       2329       2330       2341       2340  
      2209       2210       2221       2220       2330       2331       2342       2341  
      2210       2211       2222       2221       2331       2332       2343       2342  
      2212       2213       2224       2223       2333       2334       2345       2344  
      2213       2214       2225       2224       2334       2335       2346       2345  
      2214       2215       2226       2225       2335       2336       2347       2346  
      2215       2216       2227       2226       2336       2337       2348       2347  
      2216       2217       2228       2227       2337       2338       2349       2348  
      2217       2218       2229       2228       2338       2339       2350       2349  
      2218       2219       2230       2229       2339       2340       2351       2350  
      2219       2220       2231       2230       2340       2341       2352       2351  
      2220       2221       2232       2231       2341       2342       2353       2352  
      2221       2222       2233       2232       2342       2343       2354       2353  
      2223       2224       2235       2234       2344       2345       2356       2355  
      2224       2225       2236       2235       2345       2346       2357       2356  
      2225       2226       2237       2236       2346       2347       2358       2357  
      2226       2227       2238       2237       2347       2348       2359       2358  
      2227       2228       2239       2238       2348       2349       2360       2359  
      2228       2229       2240       2239       2349       2350       2361       2360  
      2229       2230       2241       2240       2350       2351       2362       2361  
      2230       2231       2242       2241       2351       2352       2363       2362  
      2231       2232       2243       2242       2352       2353       2364       2363  
      2232       2233       2244       2243       2353       2354       2365       2364  
      2234       2235       2246       2245       2355       2356       2367       2366  
      2235       2236       2247       2246       2356       2357       2368       2367  
      2236       2237       2248       2247       2357       2358       2369       2368  
      2237       2238       2249       2248       2358       2359       2370       2369  
      2238       2239       2250       2249       2359       2360       2371       2370  
      2239       2240       2251       2250       2360       2361       2372       2371  
      2240       2241       2252       2251       2361       2362       2373       2372  
      2241       2242       2253       2252       2362       2363       2374       2373  
      2242       2243       2254       2253       2363       2364       2375       2374  
      2243       2244       2255       2254       2364       2365       2376       2375  
      2245       2246       2257       2256       2366       2367       2378       2377  
      2246       2247       2258       2257       2367       2368       2379       2378  
      2247       2248       2259       2258       2368       2369       2380       2379  
      2248       2249       2260       2259       2369       2370       2381       2380  
      2249       2250       2261       2260       2370       2371       2382       2381  
      2250       2251       2262       2261       2371       2372       2383       2382  
      2251       2252       2263       2262       2372       2373       2384       2383  
      2252       2253       2264       2263       2373       2374       2385       2384  
      2253       2254       2265       2264       2374       2375       2386       2385  
      2254       2255       2266       2265       2375       2376       2387       2386  
      2256       2257       2268       2267       2377       2378       2389       2388  
      2257       2258       2269       2268       2378       2379       2390       2389  
      2258       2259       2270       2269       2379       2380       2391       2390  
      2259       2260       2271       2270       2380       2381       2392       2391  
      2260       2261       2272       2271       2381       2382       2393       2392  
      2261       2262       2273       2272       2382       2383       2394       2393  
      2262       2263       2274       2273       2383       2384       2395       2394  
      2263       2264       2275       2274       2384       2385       2396       2395  
      2264       2265       2276       2275       2385       2386       2397       2396  
      2265       2266       2277       2276       2386       2387       2398       2397  
      2267       2268       2279       2278       2388       2389       2400       2399  
      2268       2269       2280       2279       2389       2390       2401       2400  
      2269       2270       2281       2280       2390       2391       2402       2401  
      2270       2271       2282       2281       2391       2392       2403       2402  
      2271       2272       2283       2282       2392       2393       2404       2403  
      2272       2273       2284       2283       2393       2394       2405       2404  
      2273       2274       2285       2284       2394       2395       2406       2405  
      2274       2275       2286       2285       2395       2396       2407       2406  
      2275       2276       2287       2286       2396       2397       2408       2407  
      2276       2277       2288       2287       2397       2398       2409       2408  
      2278       2279       2290       2289       2399       2400       2411       2410  
      2279       2280       2291       2290       2400       2401       2412       2411  
      2280       2281       2292       2291       2401       2402       2413       2412  
      2281       2282       2293       2292       2402       2403       2414       2413  
      2282       2283       2294       2293       2403       2404       2415       2414  
      2283       2284       2295       2294       2404       2405       2416       2415  
      2284       2285       2296       2295       2405       2406       2417       2416  
      2285       2286       2297       2296       2406       2407       2418       2417  
      2286       2287       2298       2297       2407       2408       2419       2418  
      2287       2288       2299       2298       2408       2409       2420       2419  
      2300       2301       2312       2311       2421       2422       2433       2432  
      2301       2302       2313       2312       2422       2423       2434       2433  
      2302       2303       2314       2313       2423       2424       2435       2434  
      2303       2304       2315       2314       2424       2425       2436       2435  
      2304       2305       2316       2315       2425       2426       2437       2436  
      2305       2306       2317       2316       2426       2427       2438       2437  
      2306       2307       2318       2317       2427       2428       2439       2438  
      2307       2308       2319       2318       2428       2429       2440       2439  
      2308       2309       2320       2319       2429       2430       2441       2440  
      2309       2310       2321       2320       2430       2431       2442       2441  
      2311       2312       2323       2322       2432       2433       2444       2443  
      2312       2313       2324       2323       2433       2434       2445       2444  
      2313       2314       2325       2324       2434       2435       2446       2445  
      2314       2315       2326       2325       2435       2436       2447       2446  
      2315       2316       2327       2326       2436       2437       2448       2447  
      2316       2317       2328       2327       2437       2438       2449       2448  
      2317       2318       2329       2328       2438       2439       2450       2449  
      2318       2319       2330       2329       2439       2440       2451       2450  
      2319       2320       2331       2330       2440       2441       2452       2451  
      2320       2321       2332       2331       2441       2442       2453       2452  
      2322       2323       2334       2333       2443       2444       2455       2454  
      2323       2324       2335       2334       2444       2445       2456       2455  
      2324       2325       2336       2335       2445       2446       2457       2456  
      2325       2326       2337       2336       2446       2447       2458       2457  
      2326       2327       2338       2337       2447       2448       2459       2458  
      2327       2328       2339       2338       2448       2449       2460       2459  
      2328       2329       2340       2339       2449       2450       2461       2460  
      2329       2330       2341       2340       2450       2451       2462       2461  
      2330       2331       2342       2341       2451       2452       2463       2462  
      2331       2332       2343       2342       2452       2453       2464       2463  
      2333       2334       2345       2344       2454       2455       2466       2465  
      2334       2335       2346       2345       2455       2456       2467       2466  
      2335       2336       2347       2346       2456       2457       2468       2467  
      2336       2337       2348       2347       2457       2458       2469       2468  
      2337       2338       2349       2348       2458       2459       2470       2469  
      2338       2339       2350       2349       2459       2460       2471       2470  
      2339       2340       2351       2350       2460       2461       2472       2471  
      2340       2341       2352       2351       2461       2462       2473       2472  
      2341       2342       2353       2352       2462       2463       2474       2473  
      2342       2343       2354       2353       2463       2464       2475       2474  
      2344       2345       2356       2355       2465       2466       2477       2476  
      2345       2346       2357       2356       2466       2467       2478       2477  
      2346       2347       2358       2357       2467       2468       2479       2478  
      2347       2348       2359       2358       2468       2469       2480       2479  
      2348       2349       2360       2359       2469       2470       2481       2480  
      2349       2350       2361       2360       2470       2471       2482       2481  
      2350       2351       2362       2361       2471       2472       2483       2482  
      2351       2352       2363       2362       2472       2473       2484       2483  
      2352       2353       2364       2363       2473       2474       2485       2484  
      2353       2354       2365       2364       2474       2475       2486       2485  
      2355       2356       2367       2366       2476       2477       2488       2487  
      2356       2357       2368       2367       2477       2478       2489       2488  
      2357       2358       2369       2368       2478       2479       2490       2489  
      2358       2359       2370       2369       2479       2480       2491       2490  
      2359       2360       2371       2370       2480       2481       2492       2491  
      2360       2361       2372       2371       2481       2482       2493       2492  
      2361       2362       2373       2372       2482       2483       2494       2493  
      2362       2363       2374       2373       2483       2484       2495       2494  
      2363       2364       2375       2374       2484       2485       2496       2495  
      2364       2365       2376       2375       2485       2486       2497       2496  
      2366       2367       2378       2377       2487       2488       2499       2498  
      2367       2368       2379       2378       2488       2489       2500       2499  
      2368       2369       2380       2379       2489       2490       2501       2500  
      2369       2370       2381       2380       2490       2491       2502       2501  
      2370       2371       2382       2381       2491       2492       2503       2502  
      2371       2372       2383       2382       2492       2493       2504       2503  
      2372       2373       2384       2383       2493       2494       2505       2504  
      2373       2374       2385       2384       2494       2495       2506       2505  
      2374       2375       2386       2385       2495       2496       2507       2506  
      2375       2376       2387       2386       2496       2497       2508       2507  
      2377       2378       2389       2388       2498       2499       2510       2509  
      2378       2379       2390       2389       2499       2500       2511       2510  
      2379       2380       2391       2390       2500       2501       2512       2511  
      2380       2381       2392       2391       2501       2502       2513       2512  
      2381       2382       2393       2392       2502       2503       2514       2513  
      2382       2383       2394       2393       2503       2504       2515       2514  
      2383       2384       2395       2394       2504       2505       2516       2515  
      2384       2385       2396       2395       2505       2506       2517       2516  
      2385       2386       2397       2396       2506       2507       2518       2517  
      2386       2387       2398       2397       2507       2508       2519       2518  
      2388       2389       2400       2399       2509       2510       2521       2520  
      2389       2390       2401       2400       2510       2511       2522       2521  
      2390       2391       2402       2401       2511       2512       2523       2522  
      2391       2392       2403       2402       2512       2513       2524       2523  
      2392       2393       2404       2403       2513       2514       2525       2524  
      2393       2394       2405       2404       2514       2515       2526       2525  
      2394       2395       2406       2405       2515       2516       2527       2526  
      2395       2396       2407       2406       2516       2517       2528       2527  
      2396       2397       2408       2407       2517       2518       2529       2528  
      2397       2398       2409       2408       2518       2519       2530       2529  
      2399       2400       2411       2410       2520       2521       2532       2531  
      2400       2401       2412       2411       2521       2522       2533       2532  
      2401       2402       2413       2412       2522       2523       2534       2533  
      2402       2403       2414       2413       2523       2524       2535       2534  
      2403       2404       2415       2414       2524       2525       2536       2535  
      2404       2405       2416       2415       2525       2526       2537       2536  
      2405       2406       2417       2416       2526       2527       2538       2537  
      2406       2407       2418       2417       2527       2528       2539       2538  
      2407       2408       2419       2418       2528       2529       2540       2539  
      2408       2409       2420       2419       2529       2530       2541       2540  
      2421       2422       2433       2432       2542       2543       2554       2553  
      2422       2423       2434       2433       2543       2544       2555       2554  
      2423       2424       2435       2434       2544       2545       2556       2555  
      2424       2425       2436       2435       2545       2546       2557       2556  
      2425       2426       2437       2436       2546       2547       2558       2557  
      2426       2427       2438       2437       2547       2548       2559       2558  
      2427       2428       2439       2438       2548       2549       2560       2559  
      2428       2429       2440       2439       2549       2550       2561       2560  
      2429       2430       2441       2440       2550       2551       2562       2561  
      2430       2431       2442       2441       2551       2552       2563       2562  
      2432       2433       2444       2443       2553       2554       2565       2564  
      2433       2434       2445       2444       2554       2555       2566       2565  
      2434       2435       2446       2445       2555       2556       2567       2566  
      2435       2436       2447       2446       2556       2557       2568       2567  
      2436       2437       2448       2447       2557       2558       2569       2568  
      2437       2438       2449       2448       2558       2559       2570       2569  
      2438       2439       2450       2449       2559       2560       2571       2570  
      2439       2440       2451       2450       2560       2561       2572       2571  
      2440       2441       2452       2451       2561       2562       2573       2572  
      2441       2442       2453       2452       2562       2563       2574       2573  
      2443       2444       2455       2454       2564       2565       2576       2575  
      2444       2445       2456       2455       2565       2566       2577       2576  
      2445       2446       2457       2456       2566       2567       2578       2577  
      2446       2447       2458       2457       2567       2568       2579       2578  
      2447       2448       2459       2458       2568       2569       2580       2579  
      2448       2449       2460       2459       2569       2570       2581       2580  
      2449       2450       2461       2460       2570       2571       2582       2581  
      2450       2451       2462       2461       2571       2572       2583       2582  
      2451       2452       2463       2462       2572       2573       2584       2583  
      2452       2453       2464       2463       2573       2574       2585       2584  
      2454       2455       2466       2465       2575       2576       2587       2586  
      2455       2456       2467       2466       2576       2577       2588       2587  
      2456       2457       2468       2467       2577       2578       2589       2588  
      2457       2458       2469       2468       2578       2579       2590       2589  
      2458       2459       2470       2469       2579       2580       2591       2590  
      2459       2460       2471       2470       2580       2581       2592       2591  
      2460       2461       2472       2471       2581       2582       2593       2592  
      2461       2462       2473       2472       2582       2583       2594       2593  
      2462       2463       2474       2473       2583       2584       2595       2594  
      2463       2464       2475       2474       2584       2585       2596       2595  
      2465       2466       2477       2476       2586       2587       2598       2597  
      2466       2467       2478       2477       2587       2588       2599       2598  
      2467       2468       2479       2478       2588       2589       2600       2599  
      2468       2469       2480       2479       2589       2590       2601       2600  
      2469       2470       2481       2480       2590       2591       2602       2601  
      2470       2471       2482       2481       2591       2592       2603       2602  
      2471       2472       2483       2482       2592       2593       2604       2603  
      2472       2473       2484       2483       2593       2594       2605       2604  
      2473       2474       2485       2484       2594       2595       2606       2605  
      2474       2475       2486       2485       2595       2596       2607       2606  
      2476       2477       2488       2487       2597       2598       2609       2608  
      2477       2478       2489       2488       2598       2599       2610       2609  
      2478       2479       2490       2489       2599       2600       2611       2610  
      2479       2480       2491       2490       2600       2601       2612       2611  
      2480       2481       2492       2491       2601       2602       2613       2612  
      2481       2482       2493       2492       2602       2603       2614       2613  
      2482       2483       2494       2493       2603       2604       2615       2614  
      2483       2484       2495       2494       2604       2605       2616       2615  
      2484       2485       2496       2495       2605       2606       2617       2616  
      2485       2486       2497       2496       2606       2607       2618       2617  
      2487       2488       2499       2498       2608       2609       2620       2619  
      2488       2489       2500       2499       2609       2610       2621       2620  
      2489       2490       2501       2500       2610       2611       2622       2621  
      2490       2491       2502       2501       2611       2612       2623       2622  
      2491       2492       2503       2502       2612       2613       2624       2623  
      2492       2493       2504       2503       2613       2614       2625       2624  
      2493       2494       2505       2504       2614       2615       2626       2625  
      2494       2495       2506       2505       2615       2616       2627       2626  
      2495       2496       2507       2506       2616       2617       2628       2627  
      2496       2497       2508       2507       2617       2618       2629       2628  
      2498       2499       2510       2509       2619       2620       2631       2630  
      2499       2500       2511       2510       2620       2621       2632       2631  
      2500       2501       2512       2511       2621       2622       2633       2632  
      2501       2502       2513       2512       2622       2623       2634       2633  
      2502       2503       2514       2513       2623       2624       2635       2634  
      2503       2504       2515       2514       2624       2625       2636       2635  
      2504       2505       2516       2515       2625       2626       2637       2636  
      2505       2506       2517       2516       2626       2627       2638       2637  
      2506       2507       2518       2517       2627       2628       2639       2638  
      2507       2508       2519       2518       2628       2629       2640       2639  
      2509       2510       2521       2520       2630       2631       2642       2641  
      2510       2511       2522       2521       2631       2632       2643       2642  
      2511       2512       2523       2522       2632       2633       2644       2643  
      2512       2513       2524       2523       2633       2634       2645       2644  
      2513       2514       2525       2524       2634       2635       2646       2645  
      2514       2515       2526       2525       2635       2636       2647       2646  
      2515       2516       2527       2526       2636       2637       2648       2647  
      2516       2517       2528       2527       2637       2638       2649       2648  
      2517       2518       2529       2528       2638       2639       2650       2649  
      2518       2519       2530       2529       2639       2640       2651       2650  
      2520       2521       2532       2531       2641       2642       2653       2652  
      2521       2522       2533       2532       2642       2643       2654       2653  
      2522       2523       2534       2533       2643       2644       2655       2654  
      2523       2524       2535       2534       2644       2645       2656       2655  
      2524       2525       2536       2535       2645       2646       2657       2656  
      2525       2526       2537       2536       2646       2647       2658       2657  
      2526       2527       2538       2537       2647       2648       2659       2658  
      2527       2528       2539       2538       2648       2649       2660       2659  
      2528       2529       2540       2539       2649       2650       2661       2660  
      2529       2530       2541       2540       2650       2651       2662       2661  
      2542       2543       2554       2553       2663       2664       2675       2674  
      2543       2544       2555       2554       2664       2665       2676       2675  
      2544       2545       2556       2555       2665       2666       2677       2676  
      2545       2546       2557       2556       2666       2667       2678       2677  
      2546       2547       2558       2557       2667       2668       2679       2678  
      2547       2548       2559       2558       2668       2669       2680       2679  
      2548       2549       2560       2559       2669       2670       2681       2680  
      2549       2550       2561       2560       2670       2671       2682       2681  
      2550       2551       2562       2561       2671       2672       2683       2682  
      2551       2552       2563       2562       2672       2673       2684       2683  
      2553       2554       2565       2564       2674       2675       2686       2685  
      2554       2555       2566       2565       2675       2676       2687       2686  
      2555       2556       2567       2566       2676       2677       2688       2687  
      2556       2557       2568       2567       2677       2678       2689       2688  
      2557       2558       2569       2568       2678       2679       2690       2689  
      2558       2559       2570       2569       2679       2680       2691       2690  
      2559       2560       2571       2570       2680       2681       2692       2691  
      2560       2561       2572       2571       2681       2682       2693       2692  
      2561       2562       2573       2572       2682       2683       2694       2693  
      2562       2563       2574       2573       2683       2684       2695       2694  
      2564       2565       2576       2575       2685       2686       2697       2696  
      2565       2566       2577       2576       2686       2687       2698       2697  
      2566       2567       2578       2577       2687       2688       2699       2698  
      2567       2568       2579       2578       2688       2689       2700       2699  
      2568       2569       2580       2579       2689       2690       2701       2700  
      2569       2570       2581       2580       2690       2691       2702       2701  
      2570       2571       2582       2581       2691       2692       2703       2702  
      2571       2572       2583       2582       2692       2693       2704       2703  
      2572       2573       2584       2583       2693       2694       2705       2704  
      2573       2574       2585       2584       2694       2695       2706       2705  
      2575       2576       2587       2586       2696       2697       2708       2707  
      2576       2577       2588       2587       2697       2698       2709       2708  
      2577       2578       2589       2588       2698       2699       2710       2709  
      2578       2579       2590       2589       2699       2700       2711       2710  
      2579       2580       2591       2590       2700       2701       2712       2711  
      2580       2581       2592       2591       2701       2702       2713       2712  
      2581       2582       2593       2592       2702       2703       2714       2713  
      2582       2583       2594       2593       2703       2704       2715       2714  
      2583       2584       2595       2594       2704       2705       2716       2715  
      2584       2585       2596       2595       2705       2706       2717       2716  
      2586       2587       2598       2597       2707       2708       2719       2718  
      2587       2588       2599       2598       2708       2709       2720       2719  
      2588       2589       2600       2599       2709       2710       2721       2720  
      2589       2590       2601       2600       2710       2711       2722       2721  
      2590       2591       2602       2601       2711       2712       2723       2722  
      2591       2592       2603       2602       2712       2713       2724       2723  
      2592       2593       2604       2603       2713       2714       2725       2724  
      2593       2594       2605       2604       2714       2715       2726       2725  
      2594       2595       2606       2605       2715       2716       2727       2726  
      2595       2596       2607       2606       2716       2717       2728       2727  
      2597       2598       2609       2608       2718       2719       2730       2729  
      2598       2599       2610       2609       2719       2720       2731       2730  
      2599       2600       2611       2610       2720       2721       2732       2731  
      2600       2601       2612       2611       2721       2722       2733       2732  
      2601       2602       2613       2612       2722       2723       2734       2733  
      2602       2603       2614       2613       2723       2724       2735       2734  
      2603       2604       2615       2614       2724       2725       2736       2735  
      2604       2605       2616       2615       2725       2726       2737       2736  
      2605       2606       2617       2616       2726       2727       2738       2737  
      2606       2607       2618       2617       2727       2728       2739       2738  
      2608       2609       2620       2619       2729       2730       2741       2740  
      2609       2610       2621       2620       2730       2731       2742       2741  
      2610       2611       2622       2621       2731       2732       2743       2742  
      2611       2612       2623       2622       2732       2733       2744       2743  
      2612       2613       2624       2623       2733       2734       2745       2744  
      2613       2614       2625       2624       2734       2735       2746       2745  
      2614       2615       2626       2625       2735       2736       2747       2746  
      2615       2616       2627       2626       2736       2737       2748       2747  
      2616       2617       2628       2627       2737       2738       2749       2748  
      2617       2618       2629       2628       2738       2739       2750       2749  
      2619       2620       2631       2630       2740       2741       2752       2751  
      2620       2621       2632       2631       2741       2742       2753       2752  
      2621       2622       2633       2632       2742       2743       2754       2753  
      2622       2623       2634       2633       2743       2744       2755       2754  
      2623       2624       2635       2634       2744       2745       2756       2755  
      2624       2625       2636       2635       2745       2746       2757       2756  
      2625       2626       2637       2636       2746       2747       2758       2757  
      2626       2627       2638       2637       2747       2748       2759       2758  
      2627       2628       2639       2638       2748       2749       2760       2759  
      2628       2629       2640       2639       2749       2750       2761       2760  
      2630       2631       2642       2641       2751       2752       2763       2762  
      2631       2632       2643       2642       2752       2753       2764       2763  
      2632       2633       2644       2643       2753       2754       2765       2764  
      2633       2634       2645       2644       2754       2755       2766       2765  
      2634       2635       2646       2645       2755       2756       2767       2766  
      2635       2636       2647       2646       2756       2757       2768       2767  
      2636       2637       2648       2647       2757       2758       2769       2768  
      2637       2638       2649       2648       2758       2759       2770       2769  
      2638       2639       2650       2649       2759       2760       2771       2770  
      2639       2640       2651       2650       2760       2761       2772       2771  
      2641       2642       2653       2652       2762       2763       2774       2773  
      2642       2643       2654       2653       2763       2764       2775       2774  
      2643       2644       2655       2654       2764       2765       2776       2775  
      2644       2645       2656       2655       2765       2766       2777       2776  
      2645       2646       2657       2656       2766       2767       2778       2777  
      2646       2647       2658       2657       2767       2768       2779       2778  
      2647       2648       2659       2658       2768       2769       2780       2779  
      2648       2649       2660       2659       2769       2770       2781       2780  
      2649       2650       2661       2660       2770       2771       2782       2781  
      2650       2651       2662       2661       2771       2772       2783       2782  
      2663       2664       2675       2674       2784       2785       2796       2795  
      2664       2665       2676       2675       2785       2786       2797       2796  
      2665       2666       2677       2676       2786       2787       2798       2797  
      2666       2667       2678       2677       2787       2788       2799       2798  
      2667       2668       2679       2678       2788       2789       2800       2799  
      2668       2669       2680       2679       2789       2790       2801       2800  
      2669       2670       2681       2680       2790       2791       2802       2801  
      2670       2671       2682       2681       2791       2792       2803       2802  
      2671       2672       2683       2682       2792       2793       2804       2803  
      2672       2673       2684       2683       2793       2794       2805       2804  
      2674       2675       2686       2685       2795       2796       2807       2806  
      2675       2676       2687       2686       2796       2797       2808       2807  
      2676       2677       2688       2687       2797       2798       2809       2808  
      2677       2678       2689       2688       2798       2799       2810       2809  
      2678       2679       2690       2689       2799       2800       2811       2810  
      2679       2680       2691       2690       2800       2801       2812       2811  
      2680       2681       2692       2691       2801       2802       2813       2812  
      2681       2682       2693       2692       2802       2803       2814       2813  
      2682       2683       2694       2693       2803       2804       2815       2814  
      2683       2684       2695       2694       2804       2805       2816       2815  
      2685       2686       2697       2696       2806       2807       2818       2817  
      2686       2687       2698       2697       2807       2808       2819       2818  
      2687       2688       2699       2698       2808       2809       2820       2819  
      2688       2689       2700       2699       2809       2810       2821       2820  
      2689       2690       2701       2700       2810       2811       2822       2821  
      2690       2691       2702       2701       2811       2812       2823       2822  
      2691       2692       2703       2702       2812       2813       2824       2823  
      2692       2693       2704       2703       2813       2814       2825       2824  
      2693       2694       2705       2704       2814       2815       2826       2825  
      2694       2695       2706       2705       2815       2816       2827       2826  
      2696       2697       2708       2707       2817       2818       2829       2828  
      2697       2698       2709       2708       2818       2819       2830       2829  
      2698       2699       2710       2709       2819       2820       2831       2830  
      2699       2700       2711       2710       2820       2821       2832       2831  
      2700       2701       2712       2711       2821       2822       2833       2832  
      2701       2702       2713       2712       2822       2823       2834       2833  
      2702       2703       2714       2713       2823       2824       2835       2834  
      2703       2704       2715       2714       2824       2825       2836       2835  
      2704       2705       2716       2715       2825       2826       2837       2836  
      2705       2706       2717       2716       2826       2827       2838       2837  
      2707       2708       2719       2718       2828       2829       2840       2839  
      2708       2709       2720       2719       2829       2830       2841       2840  
      2709       2710       2721       2720       2830       2831       2842       2841  
      2710       2711       2722       2721       2831       2832       2843       2842  
      2711       2712       2723       2722       2832       2833       2844       2843  
      2712       2713       2724       2723       2833       2834       2845       2844  
      2713       2714       2725       2724       2834       2835       2846       2845  
      2714       2715       2726       2725       2835       2836       2847       2846  
      2715       2716       2727       2726       2836       2837       2848       2847  
      2716       2717       2728       2727       2837       2838       2849       2848  
      2718       2719       2730       2729       2839       2840       2851       2850  
      2719       2720       2731       2730       2840       2841       2852       2851  
      2720       2721       2732       2731       2841       2842       2853       2852  
      2721       2722       2733       2732       2842       2843       2854       2853  
      2722       2723       2734       2733       2843       2844       2855       2854  
      2723       2724       2735       2734       2844       2845       2856       2855  
      2724       2725       2736       2735       2845       2846       2857       2856  
      2725       2726       2737       2736       2846       2847       2858       2857  
      2726       2727       2738       2737       2847       2848       2859       2858  
      2727       2728       2739       2738       2848       2849       2860       2859  
      2729       2730       2741       2740       2850       2851       2862       2861  
      2730       2731       2742       2741       2851       2852       2863       2862  
      2731       2732       2743       2742       2852       2853       2864       2863  
      2732       2733       2744       2743       2853       2854       2865       2864  
      2733       2734       2745       2744       2854       2855       2866       2865  
      2734       2735       2746       2745       2855       2856       2867       2866  
      2735       2736       2747       2746       2856       2857       2868       2867  
      2736       2737       2748       2747       2857       2858       2869       2868  
      2737       2738       2749       2748       2858       2859       2870       2869  
      2738       2739       2750       2749       2859       2860       2871       2870  
      2740       2741       2752       2751       2861       2862       2873       2872  
      2741       2742       2753       2752       2862       2863       2874       2873  
      2742       2743       2754       2753       2863       2864       2875       2874  
      2743       2744       2755       2754       2864       2865       2876       2875  
      2744       2745       2756       2755       2865       2866       2877       2876  
      2745       2746       2757       2756       2866       2867       2878       2877  
      2746       2747       2758       2757       2867       2868       2879       2878  
      2747       2748       2759       2758       2868       2869       2880       2879  
      2748       2749       2760       2759       2869       2870       2881       2880  
      2749       2750       2761       2760       2870       2871       2882       2881  
      2751       2752       2763       2762       2872       2873       2884       2883  
      2752       2753       2764       2763       2873       2874       2885       2884  
      2753       2754       2765       2764       2874       2875       2886       2885  
      2754       2755       2766       2765       2875       2876       2887       2886  
      2755       2756       2767       2766       2876       2877       2888       2887  
      2756       2757       2768       2767       2877       2878       2889       2888  
      2757       2758       2769       2768       2878       2879       2890       2889  
      2758       2759       2770       2769       2879       2880       2891       2890  
      2759       2760       2771       2770       2880       2881       2892       2891  
      2760       2761       2772       2771       2881       2882       2893       2892  
      2762       2763       2774       2773       2883       2884       2895       2894  
      2763       2764       2775       2774       2884       2885       2896       2895  
      2764       2765       2776       2775       2885       2886       2897       2896  
      2765       2766       2777       2776       2886       2887       2898       2897  
      2766       2767       2778       2777       2887       2888       2899       2898  
      2767       2768       2779       2778       2888       2889       2900       2899  
      2768       2769       2780       2779       2889       2890       2901       2900  
      2769       2770       2781       2780       2890       2891       2902       2901  
      2770       2771       2782       2781       2891       2892       2903       2902  
      2771       2772       2783       2782       2892       2893       2904       2903  
      2784       2785       2796       2795       2905       2906       2917       2916  
      2785       2786       2797       2796       2906       2907       2918       2917  
      2786       2787       2798       2797       2907       2908       2919       2918  
      2787       2788       2799       2798       2908       2909       2920       2919  
      2788       2789       2800       2799       2909       2910       2921       2920  
      2789       2790       2801       2800       2910       2911       2922       2921  
      2790       2791       2802       2801       2911       2912       2923       2922  
      2791       2792       2803       2802       2912       2913       2924       2923  
      2792       2793       2804       2803       2913       2914       2925       2924  
      2793       2794       2805       2804       2914       2915       2926       2925  
      2795       2796       2807       2806       2916       2917       2928       2927  
      2796       2797       2808       2807       2917       2918       2929       2928  
      2797       2798       2809       2808       2918       2919       2930       2929  
      2798       2799       2810       2809       2919       2920       2931       2930  
      2799       2800       2811       2810       2920       2921       2932       2931  
      2800       2801       2812       2811       2921       2922       2933       2932  
      2801       2802       2813       2812       2922       2923       2934       2933  
      2802       2803       2814       2813       2923       2924       2935       2934  
      2803       2804       2815       2814       2924       2925       2936       2935  
      2804       2805       2816       2815       2925       2926       2937       2936  
      2806       2807       2818       2817       2927       2928       2939       2938  
      2807       2808       2819       2818       2928       2929       2940       2939  
      2808       2809       2820       2819       2929       2930       2941       2940  
      2809       2810       2821       2820       2930       2931       2942       2941  
      2810       2811       2822       2821       2931       2932       2943       2942  
      2811       2812       2823       2822       2932       2933       2944       2943  
      2812       2813       2824       2823       2933       2934       2945       2944  
      2813       2814       2825       2824       2934       2935       2946       2945  
      2814       2815       2826       2825       2935       2936       2947       2946  
      2815       2816       2827       2826       2936       2937       2948       2947  
      2817       2818       2829       2828       2938       2939       2950       2949  
      2818       2819       2830       2829       2939       2940       2951       2950  
      2819       2820       2831       2830       2940       2941       2952       2951  
      2820       2821       2832       2831       2941       2942       2953       2952  
      2821       2822       2833       2832       2942       2943       2954       2953  
      2822       2823       2834       2833       2943       2944       2955       2954  
      2823       2824       2835       2834       2944       2945       2956       2955  
      2824       2825       2836       2835       2945       2946       2957       2956  
      2825       2826       2837       2836       2946       2947       2958       2957  
      2826       2827       2838       2837       2947       2948       2959       2958  
      2828       2829       2840       2839       2949       2950       2961       2960  
      2829       2830       2841       2840       2950       2951       2962       2961  
      2830       2831       2842       2841       2951       2952       2963       2962  
      2831       2832       2843       2842       2952       2953       2964       2963  
      2832       2833       2844       2843       2953       2954       2965       2964  
      2833       2834       2845       2844       2954       2955       2966       2965  
      2834       2835       2846       2845       2955       2956       2967       2966  
      2835       2836       2847       2846       2956       2957       2968       2967  
      2836       2837       2848       2847       2957       2958       2969       2968  
      2837       2838       2849       2848       2958       2959       2970       2969  
      2839       2840       2851       2850       2960       2961       2972       2971  
      2840       2841       2852       2851       2961       2962       2973       2972  
      2841       2842       2853       2852       2962       2963       2974       2973  
      2842       2843       2854       2853       2963       2964       2975       2974  
      2843       2844       2855       2854       2964       2965       2976       2975  
      2844       2845       2856       2855       2965       2966       2977       2976  
      2845       2846       2857       2856       2966       2967       2978       2977  
      2846       2847       2858       2857       2967       2968       2979       2978  
      2847       2848       2859       2858       2968       2969       2980       2979  
      2848       2849       2860       2859       2969       2970       2981       2980  
      2850       2851       2862       2861       2971       2972       2983       2982  
      2851       2852       2863       2862       2972       2973       2984       2983  
      2852       2853       2864       2863       2973       2974       2985       2984  
      2853       2854       2865       2864       2974       2975       2986       2985  
      2854       2855       2866       2865       2975       2976       2987       2986  
      2855       2856       2867       2866       2976       2977       2988       2987  
      2856       2857       2868       2867       2977       2978       2989       2988  
      2857       2858       2869       2868       2978       2979       2990       2989  
      2858       2859       2870       2869       2979       2980       2991       2990  
      2859       2860       2871       2870       2980       2981       2992       2991  
      2861       2862       2873       2872       2982       2983       2994       2993  
      2862       2863       2874       2873       2983       2984       2995       2994  
      2863       2864       2875       2874       2984       2985       2996       2995  
      2864       2865       2876       2875       2985       2986       2997       2996  
      2865       2866       2877       2876       2986       2987       2998       2997  
      2866       2867       2878       2877       2987       2988       2999       2998  
      2867       2868       2879       2878       2988       2989       3000       2999  
      2868       2869       2880       2879       2989       2990       3001       3000  
      2869       2870       2881       2880       2990       2991       3002       3001  
      2870       2871       2882       2881       2991       2992       3003       3002  
      2872       2873       2884       2883       2993       2994       3005       3004  
      2873       2874       2885       2884       2994       2995       3006       3005  
      2874       2875       2886       2885       2995       2996       3007       3006  
      2875       2876       2887       2886       2996       2997       3008       3007  
      2876       2877       2888       2887       2997       2998       3009       3008  
      2877       2878       2889       2888       2998       2999       3010       3009  
      2878       2879       2890       2889       2999       3000       3011       3010  
      2879       2880       2891       2890       3000       3001       3012       3011  
      2880       2881       2892       2891       3001       3002       3013       3012  
      2881       2882       2893       2892       3002       3003       3014       3013  
      2883       2884       2895       2894       3004       3005       3016       3015  
      2884       2885       2896       2895       3005       3006       3017       3016  
      2885       2886       2897       2896       3006       3007       3018       3017  
      2886       2887       2898       2897       3007       3008       3019       3018  
      2887       2888       2899       2898       3008       3009       3020       3019  
      2888       2889       2900       2899       3009       3010       3021       3020  
      2889       2890       2901       2900       3010       3011       3022       3021  
      2890       2891       2902       2901       3011       3012       3023       3022  
      2891       2892       2903       2902       3012       3013       3024       3023  
      2892       2893       2904       2903       3013       3014       3025       3024  
      2905       2906       2917       2916       3026       3027       3038       3037  
      2906       2907       2918       2917       3027       3028       3039       3038  
      2907       2908       2919       2918       3028       3029       3040       3039  
      2908       2909       2920       2919       3029       3030       3041       3040  
      2909       2910       2921       2920       3030       3031       3042       3041  
      2910       2911       2922       2921       3031       3032       3043       3042  
      2911       2912       2923       2922       3032       3033       3044       3043  
      2912       2913       2924       2923       3033       3034       3045       3044  
      2913       2914       2925       2924       3034       3035       3046       3045  
      2914       2915       2926       2925       3035       3036       3047       3046  
      2916       2917       2928       2927       3037       3038       3049       3048  
      2917       2918       2929       2928       3038       3039       3050       3049  
      2918       2919       2930       2929       3039       3040       3051       3050  
      2919       2920       2931       2930       3040       3041       3052       3051  
      2920       2921       2932       2931       3041       3042       3053       3052  
      2921       2922       2933       2932       3042       3043       3054       3053  
      2922       2923       2934       2933       3043       3044       3055       3054  
      2923       2924       2935       2934       3044       3045       3056       3055  
      2924       2925       2936       2935       3045       3046       3057       3056  
      2925       2926       2937       2936       3046       3047       3058       3057  
      2927       2928       2939       2938       3048       3049       3060       3059  
      2928       2929       2940       2939       3049       3050       3061       3060  
      2929       2930       2941       2940       3050       3051       3062       3061  
      2930       2931       2942       2941       3051       3052       3063       3062  
      2931       2932       2943       2942       3052       3053       3064       3063  
      2932       2933       2944       2943       3053       3054       3065       3064  
      2933       2934       2945       2944       3054       3055       3066       3065  
      2934       2935       2946       2945       3055       3056       3067       3066  
      2935       2936       2947       2946       3056       3057       3068       3067  
      2936       2937       2948       2947       3057       3058       3069       3068  
      2938       2939       2950       2949       3059       3060       3071       3070  
      2939       2940       2951       2950       3060       3061       3072       3071  
      2940       2941       2952       2951       3061       3062       3073       3072  
      2941       2942       2953       2952       3062       3063       3074       3073  
      2942       2943       2954       2953       3063       3064       3075       3074  
      2943       2944       2955       2954       3064       3065       3076       3075  
      2944       2945       2956       2955       3065       3066       3077       3076  
      2945       2946       2957       2956       3066       3067       3078       3077  
      2946       2947       2958       2957       3067       3068       3079       3078  
      2947       2948       2959       2958       3068       3069       3080       3079  
      2949       2950       2961       2960       3070       3071       3082       3081  
      2950       2951       2962       2961       3071       3072       3083       3082  
      2951       2952       2963       2962       3072       3073       3084       3083  
      2952       2953       2964       2963       3073       3074       3085       3084  
      2953       2954       2965       2964       3074       3075       3086       3085  
      2954       2955       2966       2965       3075       3076       3087       3086  
      2955       2956       2967       2966       3076       3077       3088       3087  
      2956       2957       2968       2967       3077       3078       3089       3088  
      2957       2958       2969       2968       3078       3079       3090       3089  
      2958       2959       2970       2969       3079       3080       3091       3090  
      2960       2961       2972       2971       3081       3082       3093       3092  
      2961       2962       2973       2972       3082       3083       3094       3093  
      2962       2963       2974       2973       3083       3084       3095       3094  
      2963       2964       2975       2974       3084       3085       3096       3095  
      2964       2965       2976       2975       3085       3086       3097       3096  
      2965       2966       2977       2976       3086       3087       3098       3097  
      2966       2967       2978       2977       3087       3088       3099       3098  
      2967       2968       2979       2978       3088       3089       3100       3099  
      2968       2969       2980       2979       3089       3090       3101       3100  
      2969       2970       2981       2980       3090       3091       3102       3101  
      2971       2972       2983       2982       3092       3093       3104       3103  
      2972       2973       2984       2983       3093       3094       3105       3104  
      2973       2974       2985       2984       3094       3095       3106       3105  
      2974       2975       2986       2985       3095       3096       3107       3106  
      2975       2976       2987       2986       3096       3097       3108       3107  
      2976       2977       2988       2987       3097       3098       3109       3108  
      2977       2978       2989       2988       3098       3099       3110       3109  
      2978       2979       2990       2989       3099       3100       3111       3110  
      2979       2980       2991       2990       3100       3101       3112       3111  
      2980       2981       2992       2991       3101       3102       3113       3112  
      2982       2983       2994       2993       3103       3104       3115       3114  
      2983       2984       2995       2994       3104       3105       3116       3115  
      2984       2985       2996       2995       3105       3106       3117       3116  
      2985       2986       2997       2996       3106       3107       3118       3117  
      2986       2987       2998       2997       3107       3108       3119       3118  
      2987       2988       2999       2998       3108       3109       3120       3119  
      2988       2989       3000       2999       3109       3110       3121       3120  
      2989       2990       3001       3000       3110       3111       3122       3121  
      2990       2991       3002       3001       3111       3112       3123       3122  
      2991       2992       3003       3002       3112       3113       3124       3123  
      2993       2994       3005       3004       3114       3115       3126       3125  
      2994       2995       3006       3005       3115       3116       3127       3126  
      2995       2996       3007       3006       3116       3117       3128       3127  
      2996       2997       3008       3007       3117       3118       3129       3128  
      2997       2998       3009       3008       3118       3119       3130       3129  
      2998       2999       3010       3009       3119       3120       3131       3130  
      2999       3000       3011       3010       3120       3121       3132       3131  
      3000       3001       3012       3011       3121       3122       3133       3132  
      3001       3002       3013       3012       3122       3123       3134       3133  
      3002       3003       3014       3013       3123       3124       3135       3134  
      3004       3005       3016       3015       3125       3126       3137       3136  
      3005       3006       3017       3016       3126       3127       3138       3137  
      3006       3007       3018       3017       3127       3128       3139       3138  
      3007       3008       3019       3018       3128       3129       3140       3139  
      3008       3009       3020       3019       3129       3130       3141       3140  
      3009       3010       3021       3020       3130       3131       3142       3141  
      3010       3011       3022       3021       3131       3132       3143       3142  
      3011       3012       3023       3022       3132       3133       3144       3143  
      3012       3013       3024       3023       3133       3134       3145       3144  
      3013       3014       3025       3024       3134       3135       3146       3145  
      3026       3027       3038       3037       3147       3148       3159       3158  
      3027       3028       3039       3038       3148       3149       3160       3159  
      3028       3029       3040       3039       3149       3150       3161       3160  
      3029       3030       3041       3040       3150       3151       3162       3161  
      3030       3031       3042       3041       3151       3152       3163       3162  
      3031       3032       3043       3042       3152       3153       3164       3163  
      3032       3033       3044       3043       3153       3154       3165       3164  
      3033       3034       3045       3044       3154       3155       3166       3165  
      3034       3035       3046       3045       3155       3156       3167       3166  
      3035       3036       3047       3046       3156       3157       3168       3167  
      3037       3038       3049       3048       3158       3159       3170       3169  
      3038       3039       3050       3049       3159       3160       3171       3170  
      3039       3040       3051       3050       3160       3161       3172       3171  
      3040       3041       3052       3051       3161       3162       3173       3172  
      3041       3042       3053       3052       3162       3163       3174       3173  
      3042       3043       3054       3053       3163       3164       3175       3174  
      3043       3044       3055       3054       3164       3165       3176       3175  
      3044       3045       3056       3055       3165       3166       3177       3176  
      3045       3046       3057       3056       3166       3167       3178       3177  
      3046       3047       3058       3057       3167       3168       3179       3178  
      3048       3049       3060       3059       3169       3170       3181       3180  
      3049       3050       3061       3060       3170       3171       3182       3181  
      3050       3051       3062       3061       3171       3172       3183       3182  
      3051       3052       3063       3062       3172       3173       3184       3183  
      3052       3053       3064       3063       3173       3174       3185       3184  
      3053       3054       3065       3064       3174       3175       3186       3185  
      3054       3055       3066       3065       3175       3176       3187       3186  
      3055       3056       3067       3066       3176       3177       3188       3187  
      3056       3057       3068       3067       3177       3178       3189       3188  
      3057       3058       3069       3068       3178       3179       3190       3189  
      3059       3060       3071       3070       3180       3181       3192       3191  
      3060       3061       3072       3071       3181       3182       3193       3192  
      3061       3062       3073       3072       3182       3183       3194       3193  
      3062       3063       3074       3073       3183       3184       3195       3194  
      3063       3064       3075       3074       3184       3185       3196       3195  
      3064       3065       3076       3075       3185       3186       3197       3196  
      3065       3066       3077       3076       3186       3187       3198       3197  
      3066       3067       3078       3077       3187       3188       3199       3198  
      3067       3068       3079       3078       3188       3189       3200       3199  
      3068       3069       3080       3079       3189       3190       3201       3200  
      3070       3071       3082       3081       3191       3192       3203       3202  
      3071       3072       3083       3082       3192       3193       3204       3203  
      3072       3073       3084       3083       3193       3194       3205       3204  
      3073       3074       3085       3084       3194       3195       3206       3205  
      3074       3075       3086       3085       3195       3196       3207       3206  
      3075       3076       3087       3086       3196       3197       3208       3207  
      3076       3077       3088       3087       3197       3198       3209       3208  
      3077       3078       3089       3088       3198       3199       3210       3209  
      3078       3079       3090       3089       3199       3200       3211       3210  
      3079       3080       3091       3090       3200       3201       3212       3211  
      3081       3082       3093       3092       3202       3203       3214       3213  
      3082       3083       3094       3093       3203       3204       3215       3214  
      3083       3084       3095       3094       3204       3205       3216       3215  
      3084       3085       3096       3095       3205       3206       3217       3216  
      3085       3086       3097       3096       3206       3207       3218       3217  
      3086       3087       3098       3097       3207       3208       3219       3218  
      3087       3088       3099       3098       3208       3209       3220       3219  
      3088       3089       3100       3099       3209       3210       3221       3220  
      3089       3090       3101       3100       3210       3211       3222       3221  
      3090       3091       3102       3101       3211       3212       3223       3222  
      3092       3093       3104       3103       3213       3214       3225       3224  
      3093       3094       3105       3104       3214       3215       3226       3225  
      3094       3095       3106       3105       3215       3216       3227       3226  
      3095       3096       3107       3106       3216       3217       3228       3227  
      3096       3097       3108       3107       3217       3218       3229       3228  
      3097       3098       3109       3108       3218       3219       3230       3229  
      3098       3099       3110       3109       3219       3220       3231       3230  
      3099       3100       3111       3110       3220       3221       3232       3231  
      3100       3101       3112       3111       3221       3222       3233       3232  
      3101       3102       3113       3112       3222       3223       3234       3233  
      3103       3104       3115       3114       3224       3225       3236       3235  
      3104       3105       3116       3115       3225       3226       3237       3236  
      3105       3106       3117       3116       3226       3227       3238       3237  
      3106       3107       3118       3117       3227       3228       3239       3238  
      3107       3108       3119       3118       3228       3229       3240       3239  
      3108       3109       3120       3119       3229       3230       3241       3240  
      3109       3110       3121       3120       3230       3231       3242       3241  
      3110       3111       3122       3121       3231       3232       3243       3242  
      3111       3112       3123       3122       3232       3233       3244       3243  
      3112       3113       3124       3123       3233       3234       3245       3244  
      3114       3115       3126       3125       3235       3236       3247       3246  
      3115       3116       3127       3126       3236       3237       3248       3247  
      3116       3117       3128       3127       3237       3238       3249       3248  
      3117       3118       3129       3128       3238       3239       3250       3249  
      3118       3119       3130       3129       3239       3240       3251       3250  
      3119       3120       3131       3130       3240       3241       3252       3251  
      3120       3121       3132       3131       3241       3242       3253       3252  
      3121       3122       3133       3132       3242       3243       3254       3253  
      3122       3123       3134       3133       3243       3244       3255       3254  
      3123       3124       3135       3134       3244       3245       3256       3255  
      3125       3126       3137       3136       3246       3247       3258       3257  
      3126       3127       3138       3137       3247       3248       3259       3258  
      3127       3128       3139       3138       3248       3249       3260       3259  
      3128       3129       3140       3139       3249       3250       3261       3260  
      3129       3130       3141       3140       3250       3251       3262       3261  
      3130       3131       3142       3141       3251       3252       3263       3262  
      3131       3132       3143       3142       3252       3253       3264       3263  
      3132       3133       3144       3143       3253       3254       3265       3264  
      3133       3134       3145       3144       3254       3255       3266       3265  
      3134       3135       3146       3145       3255       3256       3267       3266  
      3147       3148       3159       3158       3268       3269       3280       3279  
      3148       3149       3160       3159       3269       3270       3281       3280  
      3149       3150       3161       3160       3270       3271       3282       3281  
      3150       3151       3162       3161       3271       3272       3283       3282  
      3151       3152       3163       3162       3272       3273       3284       3283  
      3152       3153       3164       3163       3273       3274       3285       3284  
      3153       3154       3165       3164       3274       3275       3286       3285  
      3154       3155       3166       3165       3275       3276       3287       3286  
      3155       3156       3167       3166       3276       3277       3288       3287  
      3156       3157       3168       3167       3277       3278       3289       3288  
      3158       3159       3170       3169       3279       3280       3291       3290  
      3159       3160       3171       3170       3280       3281       3292       3291  
      3160       3161       3172       3171       3281       3282       3293       3292  
      3161       3162       3173       3172       3282       3283       3294       3293  
      3162       3163       3174       3173       3283       3284       3295       3294  
      3163       3164       3175       3174       3284       3285       3296       3295  
      3164       3165       3176       3175       3285       3286       3297       3296  
      3165       3166       3177       3176       3286       3287       3298       3297  
      3166       3167       3178       3177       3287       3288       3299       3298  
      3167       3168       3179       3178       3288       3289       3300       3299  
      3169       3170       3181       3180       3290       3291       3302       3301  
      3170       3171       3182       3181       3291       3292       3303       3302  
      3171       3172       3183       3182       3292       3293       3304       3303  
      3172       3173       3184       3183       3293       3294       3305       3304  
      3173       3174       3185       3184       3294       3295       3306       3305  
      3174       3175       3186       3185       3295       3296       3307       3306  
      3175       3176       3187       3186       3296       3297       3308       3307  
      3176       3177       3188       3187       3297       3298       3309       3308  
      3177       3178       3189       3188       3298       3299       3310       3309  
      3178       3179       3190       3189       3299       3300       3311       3310  
      3180       3181       3192       3191       3301       3302       3313       3312  
      3181       3182       3193       3192       3302       3303       3314       3313  
      3182       3183       3194       3193       3303       3304       3315       3314  
      3183       3184       3195       3194       3304       3305       3316       3315  
      3184       3185       3196       3195       3305       3306       3317       3316  
      3185       3186       3197       3196       3306       3307       3318       3317  
      3186       3187       3198       3197       3307       3308       3319       3318  
      3187       3188       3199       3198       3308       3309       3320       3319  
      3188       3189       3200       3199       3309       3310       3321       3320  
      3189       3190       3201       3200       3310       3311       3322       3321  
      3191       3192       3203       3202       3312       3313       3324       3323  
      3192       3193       3204       3203       3313       3314       3325       3324  
      3193       3194       3205       3204       3314       3315       3326       3325  
      3194       3195       3206       3205       3315       3316       3327       3326  
      3195       3196       3207       3206       3316       3317       3328       3327  
      3196       3197       3208       3207       3317       3318       3329       3328  
      3197       3198       3209       3208       3318       3319       3330       3329  
      3198       3199       3210       3209       3319       3320       3331       3330  
      3199       3200       3211       3210       3320       3321       3332       3331  
      3200       3201       3212       3211       3321       3322       3333       3332  
      3202       3203       3214       3213       3323       3324       3335       3334  
      3203       3204       3215       3214       3324       3325       3336       3335  
      3204       3205       3216       3215       3325       3326       3337       3336  
      3205       3206       3217       3216       3326       3327       3338       3337  
      3206       3207       3218       3217       3327       3328       3339       3338  
      3207       3208       3219       3218       3328       3329       3340       3339  
      3208       3209       3220       3219       3329       3330       3341       3340  
      3209       3210       3221       3220       3330       3331       3342       3341  
      3210       3211       3222       3221       3331       3332       3343       3342  
      3211       3212       3223       3222       3332       3333       3344       3343  
      3213       3214       3225       3224       3334       3335       3346       3345  
      3214       3215       3226       3225       3335       3336       3347       3346  
      3215       3216       3227       3226       3336       3337       3348       3347  
      3216       3217       3228       3227       3337       3338       3349       3348  
      3217       3218       3229       3228       3338       3339       3350       3349  
      3218       3219       3230       3229       3339       3340       3351       3350  
      3219       3220       3231       3230       3340       3341       3352       3351  
      3220       3221       3232       3231       3341       3342       3353       3352  
      3221       3222       3233       3232       3342       3343       3354       3353  
      3222       3223       3234       3233       3343       3344       3355       3354  
      3224       3225       3236       3235       3345       3346       3357       3356  
      3225       3226       3237       3236       3346       3347       3358       3357  
      3226       3227       3238       3237       3347       3348       3359       3358  
      3227       3228       3239       3238       3348       3349       3360       3359  
      3228       3229       3240       3239       3349       3350       3361       3360  
      3229       3230       3241       3240       3350       3351       3362       3361  
      3230       3231       3242       3241       3351       3352       3363       3362  
      3231       3232       3243       3242       3352       3353       3364       3363  
      3232       3233       3244       3243       3353       3354       3365       3364  
      3233       3234       3245       3244       3354       3355       3366       3365  
      3235       3236       3247       3246       3356       3357       3368       3367  
      3236       3237       3248       3247       3357       3358       3369       3368  
      3237       3238       3249       3248       3358       3359       3370       3369  
      3238       3239       3250       3249       3359       3360       3371       3370  
      3239       3240       3251       3250       3360       3361       3372       3371  
      3240       3241       3252       3251       3361       3362       3373       3372  
      3241       3242       3253       3252       3362       3363       3374       3373  
      3242       3243       3254       3253       3363       3364       3375       3374  
      3243       3244       3255       3254       3364       3365       3376       3375  
      3244       3245       3256       3255       3365       3366       3377       3376  
      3246       3247       3258       3257       3367       3368       3379       3378  
      3247       3248       3259       3258       3368       3369       3380       3379  
      3248       3249       3260       3259       3369       3370       3381       3380  
      3249       3250       3261       3260       3370       3371       3382       3381  
      3250       3251       3262       3261       3371       3372       3383       3382  
      3251       3252       3263       3262       3372       3373       3384       3383  
      3252       3253       3264       3263       3373       3374       3385       3384  
      3253       3254       3265       3264       3374       3375       3386       3385  
      3254       3255       3266       3265       3375       3376       3387       3386  
      3255       3256       3267       3266       3376       3377       3388       3387  
      3268       3269       3280       3279       3389       3390       3401       3400  
      3269       3270       3281       3280       3390       3391       3402       3401  
      3270       3271       3282       3281       3391       3392       3403       3402  
      3271       3272       3283       3282       3392       3393       3404       3403  
      3272       3273       3284       3283       3393       3394       3405       3404  
      3273       3274       3285       3284       3394       3395       3406       3405  
      3274       3275       3286       3285       3395       3396       3407       3406  
      3275       3276       3287       3286       3396       3397       3408       3407  
      3276       3277       3288       3287       3397       3398       3409       3408  
      3277       3278       3289       3288       3398       3399       3410       3409  
      3279       3280       3291       3290       3400       3401       3412       3411  
      3280       3281       3292       3291       3401       3402       3413       3412  
      3281       3282       3293       3292       3402       3403       3414       3413  
      3282       3283       3294       3293       3403       3404       3415       3414  
      3283       3284       3295       3294       3404       3405       3416       3415  
      3284       3285       3296       3295       3405       3406       3417       3416  
      3285       3286       3297       3296       3406       3407       3418       3417  
      3286       3287       3298       3297       3407       3408       3419       3418  
      3287       3288       3299       3298       3408       3409       3420       3419  
      3288       3289       3300       3299       3409       3410       3421       3420  
      3290       3291       3302       3301       3411       3412       3423       3422  
      3291       3292       3303       3302       3412       3413       3424       3423  
      3292       3293       3304       3303       3413       3414       3425       3424  
      3293       3294       3305       3304       3414       3415       3426       3425  
      3294       3295       3306       3305       3415       3416       3427       3426  
      3295       3296       3307       3306       3416       3417       3428       3427  
      3296       3297       3308       3307       3417       3418       3429       3428  
      3297       3298       3309       3308       3418       3419       3430       3429  
      3298       3299       3310       3309       3419       3420       3431       3430  
      3299       3300       3311       3310       3420       3421       3432       3431  
      3301       3302       3313       3312       3422       3423       3434       3433  
      3302       3303       3314       3313       3423       3424       3435       3434  
      3303       3304       3315       3314       3424       3425       3436       3435  
      3304       3305       3316       3315       3425       3426       3437       3436  
      3305       3306       3317       3316       3426       3427       3438       3437  
      3306       3307       3318       3317       3427       3428       3439       3438  
      3307       3308       3319       3318       3428       3429       3440       3439  
      3308       3309       3320       3319       3429       3430       3441       3440  
      3309       3310       3321       3320       3430       3431       3442       3441  
      3310       3311       3322       3321       3431       3432       3443       3442  
      3312       3313       3324       3323       3433       3434       3445       3444  
      3313       3314       3325       3324       3434       3435       3446       3445  
      3314       3315       3326       3325       3435       3436       3447       3446  
      3315       3316       3327       3326       3436       3437       3448       3447  
      3316       3317       3328       3327       3437       3438       3449       3448  
      3317       3318       3329       3328       3438       3439       3450       3449  
      3318       3319       3330       3329       3439       3440       3451       3450  
      3319       3320       3331       3330       3440       3441       3452       3451  
      3320       3321       3332       3331       3441       3442       3453       3452  
      3321       3322       3333       3332       3442       3443       3454       3453  
      3323       3324       3335       3334       3444       3445       3456       3455  
      3324       3325       3336       3335       3445       3446       3457       3456  
      3325       3326       3337       3336       3446       3447       3458       3457  
      3326       3327       3338       3337       3447       3448       3459       3458  
      3327       3328       3339       3338       3448       3449       3460       3459  
      3328       3329       3340       3339       3449       3450       3461       3460  
      3329       3330       3341       3340       3450       3451       3462       3461  
      3330       3331       3342       3341       3451       3452       3463       3462  
      3331       3332       3343       3342       3452       3453       3464       3463  
      3332       3333       3344       3343       3453       3454       3465       3464  
      3334       3335       3346       3345       3455       3456       3467       3466  
      3335       3336       3347       3346       3456       3457       3468       3467  
      3336       3337       3348       3347       3457       3458       3469       3468  
      3337       3338       3349       3348       3458       3459       3470       3469  
      3338       3339       3350       3349       3459       3460       3471       3470  
      3339       3340       3351       3350       3460       3461       3472       3471  
      3340       3341       3352       3351       3461       3462       3473       3472  
      3341       3342       3353       3352       3462       3463       3474       3473  
      3342       3343       3354       3353       3463       3464       3475       3474  
      3343       3344       3355       3354       3464       3465       3476       3475  
      3345       3346       3357       3356       3466       3467       3478       3477  
      3346       3347       3358       3357       3467       3468       3479       3478  
      3347       3348       3359       3358       3468       3469       3480       3479  
      3348       3349       3360       3359       3469       3470       3481       3480  
      3349       3350       3361       3360       3470       3471       3482       3481  
      3350       3351       3362       3361       3471       3472       3483       3482  
      3351       3352       3363       3362       3472       3473       3484       3483  
      3352       3353       3364       3363       3473       3474       3485       3484  
      3353       3354       3365       3364       3474       3475       3486       3485  
      3354       3355       3366       3365       3475       3476       3487       3486  
      3356       3357       3368       3367       3477       3478       3489       3488  
      3357       3358       3369       3368       3478       3479       3490       3489  
      3358       3359       3370       3369       3479       3480       3491       3490  
      3359       3360       3371       3370       3480       3481       3492       3491  
      3360       3361       3372       3371       3481       3482       3493       3492  
      3361       3362       3373       3372       3482       3483       3494       3493  
      3362       3363       3374       3373       3483       3484       3495       3494  
      3363       3364       3375       3374       3484       3485       3496       3495  
      3364       3365       3376       3375       3485       3486       3497       3496  
      3365       3366       3377       3376       3486       3487       3498       3497  
      3367       3368       3379       3378       3488       3489       3500       3499  
      3368       3369       3380       3379       3489       3490       3501       3500  
      3369       3370       3381       3380       3490       3491       3502       3501  
      3370       3371       3382       3381       3491       3492       3503       3502  
      3371       3372       3383       3382       3492       3493       3504       3503  
      3372       3373       3384       3383       3493       3494       3505       3504  
      3373       3374       3385       3384       3494       3495       3506       3505  
      3374       3375       3386       3385       3495       3496       3507       3506  
      3375       3376       3387       3386       3496       3497       3508       3507  
      3376       3377       3388       3387       3497       3498       3509       3508  
      3389       3390       3401       3400       3510       3511       3522       3521  
      3390       3391       3402       3401       3511       3512       3523       3522  
      3391       3392       3403       3402       3512       3513       3524       3523  
      3392       3393       3404       3403       3513       3514       3525       3524  
      3393       3394       3405       3404       3514       3515       3526       3525  
      3394       3395       3406       3405       3515       3516       3527       3526  
      3395       3396       3407       3406       3516       3517       3528       3527  
      3396       3397       3408       3407       3517       3518       3529       3528  
      3397       3398       3409       3408       3518       3519       3530       3529  
      3398       3399       3410       3409       3519       3520       3531       3530  
      3400       3401       3412       3411       3521       3522       3533       3532  
      3401       3402       3413       3412       3522       3523       3534       3533  
      3402       3403       3414       3413       3523       3524       3535       3534  
      3403       3404       3415       3414       3524       3525       3536       3535  
      3404       3405       3416       3415       3525       3526       3537       3536  
      3405       3406       3417       3416       3526       3527       3538       3537  
      3406       3407       3418       3417       3527       3528       3539       3538  
      3407       3408       3419       3418       3528       3529       3540       3539  
      3408       3409       3420       3419       3529       3530       3541       3540  
      3409       3410       3421       3420       3530       3531       3542       3541  
      3411       3412       3423       3422       3532       3533       3544       3543  
      3412       3413       3424       3423       3533       3534       3545       3544  
      3413       3414       3425       3424       3534       3535       3546       3545  
      3414       3415       3426       3425       3535       3536       3547       3546  
      3415       3416       3427       3426       3536       3537       3548       3547  
      3416       3417       3428       3427       3537       3538       3549       3548  
      3417       3418       3429       3428       3538       3539       3550       3549  
      3418       3419       3430       3429       3539       3540       3551       3550  
      3419       3420       3431       3430       3540       3541       3552       3551  
      3420       3421       3432       3431       3541       3542       3553       3552  
      3422       3423       3434       3433       3543       3544       3555       3554  
      3423       3424       3435       3434       3544       3545       3556       3555  
      3424       3425       3436       3435       3545       3546       3557       3556  
      3425       3426       3437       3436       3546       3547       3558       3557  
      3426       3427       3438       3437       3547       3548       3559       3558  
      3427       3428       3439       3438       3548       3549       3560       3559  
      3428       3429       3440       3439       3549       3550       3561       3560  
      3429       3430       3441       3440       3550       3551       3562       3561  
      3430       3431       3442       3441       3551       3552       3563       3562  
      3431       3432       3443       3442       3552       3553       3564       3563  
      3433       3434       3445       3444       3554       3555       3566       3565  
      3434       3435       3446       3445       3555       3556       3567       3566  
      3435       3436       3447       3446       3556       3557       3568       3567  
      3436       3437       3448       3447       3557       3558       3569       3568  
      3437       3438       3449       3448       3558       3559       3570       3569  
      3438       3439       3450       3449       3559       3560       3571       3570  
      3439       3440       3451       3450       3560       3561       3572       3571  
      3440       3441       3452       3451       3561       3562       3573       3572  
      3441       3442       3453       3452       3562       3563       3574       3573  
      3442       3443       3454       3453       3563       3564       3575       3574  
      3444       3445       3456       3455       3565       3566       3577       3576  
      3445       3446       3457       3456       3566       3567       3578       3577  
      3446       3447       3458       3457       3567       3568       3579       3578  
      3447       3448       3459       3458       3568       3569       3580       3579  
      3448       3449       3460       3459       3569       3570       3581       3580  
      3449       3450       3461       3460       3570       3571       3582       3581  
      3450       3451       3462       3461       3571       3572       3583       3582  
      3451       3452       3463       3462       3572       3573       3584       3583  
      3452       3453       3464       3463       3573       3574       3585       3584  
      3453       3454       3465       3464       3574       3575       3586       3585  
      3455       3456       3467       3466       3576       3577       3588       3587  
      3456       3457       3468       3467       3577       3578       3589       3588  
      3457       3458       3469       3468       3578       3579       3590       3589  
      3458       3459       3470       3469       3579       3580       3591       3590  
      3459       3460       3471       3470       3580       3581       3592       3591  
      3460       3461       3472       3471       3581       3582       3593       3592  
      3461       3462       3473       3472       3582       3583       3594       3593  
      3462       3463       3474       3473       3583       3584       3595       3594  
      3463       3464       3475       3474       3584       3585       3596       3595  
      3464       3465       3476       3475       3585       3586       3597       3596  
      3466       3467       3478       3477       3587       3588       3599       3598  
      3467       3468       3479       3478       3588       3589       3600       3599  
      3468       3469       3480       3479       3589       3590       3601       3600  
      3469       3470       3481       3480       3590       3591       3602       3601  
      3470       3471       3482       3481       3591       3592       3603       3602  
      3471       3472       3483       3482       3592       3593       3604       3603  
      3472       3473       3484       3483       3593       3594       3605       3604  
      3473       3474       3485       3484       3594       3595       3606       3605  
      3474       3475       3486       3485       3595       3596       3607       3606  
      3475       3476       3487       3486       3596       3597       3608       3607  
      3477       3478       3489       3488       3598       3599       3610       3609  
      3478       3479       3490       3489       3599       3600       3611       3610  
      3479       3480       3491       3490       3600       3601       3612       3611  
      3480       3481       3492       3491       3601       3602       3613       3612  
      3481       3482       3493       3492       3602       3603       3614       3613  
      3482       3483       3494       3493       3603       3604       3615       3614  
      3483       3484       3495       3494       3604       3605       3616       3615  
      3484       3485       3496       3495       3605       3606       3617       3616  
      3485       3486       3497       3496       3606       3607       3618       3617  
      3486       3487       3498       3497       3607       3608       3619       3618  
      3488       3489       3500       3499       3609       3610       3621       3620  
      3489       3490       3501       3500       3610       3611       3622       3621  
      3490       3491       3502       3501       3611       3612       3623       3622  
      3491       3492       3503       3502       3612       3613       3624       3623  
      3492       3493       3504       3503       3613       3614       3625       3624  
      3493       3494       3505       3504       3614       3615       3626       3625  
      3494       3495       3506       3505       3615       3616       3627       3626  
      3495       3496       3507       3506       3616       3617       3628       3627  
      3496       3497       3508       3507       3617       3618       3629       3628  
      3497       3498       3509       3508       3618       3619       3630       3629  
      3510       3511       3522       3521       3631       3632       3643       3642  
      3511       3512       3523       3522       3632       3633       3644       3643  
      3512       3513       3524       3523       3633       3634       3645       3644  
      3513       3514       3525       3524       3634       3635       3646       3645  
      3514       3515       3526       3525       3635       3636       3647       3646  
      3515       3516       3527       3526       3636       3637       3648       3647  
      3516       3517       3528       3527       3637       3638       3649       3648  
      3517       3518       3529       3528       3638       3639       3650       3649  
      3518       3519       3530       3529       3639       3640       3651       3650  
      3519       3520       3531       3530       3640       3641       3652       3651  
      3521       3522       3533       3532       3642       3643       3654       3653  
      3522       3523       3534       3533       3643       3644       3655       3654  
      3523       3524       3535       3534       3644       3645       3656       3655  
      3524       3525       3536       3535       3645       3646       3657       3656  
      3525       3526       3537       3536       3646       3647       3658       3657  
      3526       3527       3538       3537       3647       3648       3659       3658  
      3527       3528       3539       3538       3648       3649       3660       3659  
      3528       3529       3540       3539       3649       3650       3661       3660  
      3529       3530       3541       3540       3650       3651       3662       3661  
      3530       3531       3542       3541       3651       3652       3663       3662  
      3532       3533       3544       3543       3653       3654       3665       3664  
      3533       3534       3545       3544       3654       3655       3666       3665  
      3534       3535       3546       3545       3655       3656       3667       3666  
      3535       3536       3547       3546       3656       3657       3668       3667  
      3536       3537       3548       3547       3657       3658       3669       3668  
      3537       3538       3549       3548       3658       3659       3670       3669  
      3538       3539       3550       3549       3659       3660       3671       3670  
      3539       3540       3551       3550       3660       3661       3672       3671  
      3540       3541       3552       3551       3661       3662       3673       3672  
      3541       3542       3553       3552       3662       3663       3674       3673  
      3543       3544       3555       3554       3664       3665       3676       3675  
      3544       3545       3556       3555       3665       3666       3677       3676  
      3545       3546       3557       3556       3666       3667       3678       3677  
      3546       3547       3558       3557       3667       3668       3679       3678  
      3547       3548       3559       3558       3668       3669       3680       3679  
      3548       3549       3560       3559       3669       3670       3681       3680  
      3549       3550       3561       3560       3670       3671       3682       3681  
      3550       3551       3562       3561       3671       3672       3683       3682  
      3551       3552       3563       3562       3672       3673       3684       3683  
      3552       3553       3564       3563       3673       3674       3685       3684  
      3554       3555       3566       3565       3675       3676       3687       3686  
      3555       3556       3567       3566       3676       3677       3688       3687  
      3556       3557       3568       3567       3677       3678       3689       3688  
      3557       3558       3569       3568       3678       3679       3690       3689  
      3558       3559       3570       3569       3679       3680       3691       3690  
      3559       3560       3571       3570       3680       3681       3692       3691  
      3560       3561       3572       3571       3681       3682       3693       3692  
      3561       3562       3573       3572       3682       3683       3694       3693  
      3562       3563       3574       3573       3683       3684       3695       3694  
      3563       3564       3575       3574       3684       3685       3696       3695  
      3565       3566       3577       3576       3686       3687       3698       3697  
      3566       3567       3578       3577       3687       3688       3699       3698  
      3567       3568       3579       3578       3688       3689       3700       3699  
      3568       3569       3580       3579       3689       3690       3701       3700  
      3569       3570       3581       3580       3690       3691       3702       3701  
      3570       3571       3582       3581       3691       3692       3703       3702  
      3571       3572       3583       3582       3692       3693       3704       3703  
      3572       3573       3584       3583       3693       3694       3705       3704  
      3573       3574       3585       3584       3694       3695       3706       3705  
      3574       3575       3586       3585       3695       3696       3707       3706  
      3576       3577       3588       3587       3697       3698       3709       3708  
      3577       3578       3589       3588       3698       3699       3710       3709  
      3578       3579       3590       3589       3699       3700       3711       3710  
      3579       3580       3591       3590       3700       3701       3712       3711  
      3580       3581       3592       3591       3701       3702       3713       3712  
      3581       3582       3593       3592       3702       3703       3714       3713  
      3582       3583       3594       3593       3703       3704       3715       3714  
      3583       3584       3595       3594       3704       3705       3716       3715  
      3584       3585       3596       3595       3705       3706       3717       3716  
      3585       3586       3597       3596       3706       3707       3718       3717  
      3587       3588       3599       3598       3708       3709       3720       3719  
      3588       3589       3600       3599       3709       3710       3721       3720  
      3589       3590       3601       3600       3710       3711       3722       3721  
      3590       3591       3602       3601       3711       3712       3723       3722  
      3591       3592       3603       3602       3712       3713       3724       3723  
      3592       3593       3604       3603       3713       3714       3725       3724  
      3593       3594       3605       3604       3714       3715       3726       3725  
      3594       3595       3606       3605       3715       3716       3727       3726  
      3595       3596       3607       3606       3716       3717       3728       3727  
      3596       3597       3608       3607       3717       3718       3729       3728  
      3598       3599       3610       3609       3719       3720       3731       3730  
      3599       3600       3611       3610       3720       3721       3732       3731  
      3600       3601       3612       3611       3721       3722       3733       3732  
      3601       3602       3613       3612       3722       3723       3734       3733  
      3602       3603       3614       3613       3723       3724       3735       3734  
      3603       3604       3615       3614       3724       3725       3736       3735  
      3604       3605       3616       3615       3725       3726       3737       3736  
      3605       3606       3617       3616       3726       3727       3738       3737  
      3606       3607       3618       3617       3727       3728       3739       3738  
      3607       3608       3619       3618       3728       3729       3740       3739  
      3609       3610       3621       3620       3730       3731       3742       3741  
      3610       3611       3622       3621       3731       3732       3743       3742  
      3611       3612       3623       3622       3732       3733       3744       3743  
      3612       3613       3624       3623       3733       3734       3745       3744  
      3613       3614       3625       3624       3734       3735       3746       3745  
      3614       3615       3626       3625       3735       3736       3747       3746  
      3615       3616       3627       3626       3736       3737       3748       3747  
      3616       3617       3628       3627       3737       3738       3749       3748  
      3617       3618       3629       3628       3738       3739       3750       3749  
      3618       3619       3630       3629       3739       3740       3751       3750  
      3631       3632       3643       3642       3752       3753       3764       3763  
      3632       3633       3644       3643       3753       3754       3765       3764  
      3633       3634       3645       3644       3754       3755       3766       3765  
      3634       3635       3646       3645       3755       3756       3767       3766  
      3635       3636       3647       3646       3756       3757       3768       3767  
      3636       3637       3648       3647       3757       3758       3769       3768  
      3637       3638       3649       3648       3758       3759       3770       3769  
      3638       3639       3650       3649       3759       3760       3771       3770  
      3639       3640       3651       3650       3760       3761       3772       3771  
      3640       3641       3652       3651       3761       3762       3773       3772  
      3642       3643       3654       3653       3763       3764       3775       3774  
      3643       3644       3655       3654       3764       3765       3776       3775  
      3644       3645       3656       3655       3765       3766       3777       3776  
      3645       3646       3657       3656       3766       3767       3778       3777  
      3646       3647       3658       3657       3767       3768       3779       3778  
      3647       3648       3659       3658       3768       3769       3780       3779  
      3648       3649       3660       3659       3769       3770       3781       3780  
      3649       3650       3661       3660       3770       3771       3782       3781  
      3650       3651       3662       3661       3771       3772       3783       3782  
      3651       3652       3663       3662       3772       3773       3784       3783  
      3653       3654       3665       3664       3774       3775       3786       3785  
      3654       3655       3666       3665       3775       3776       3787       3786  
      3655       3656       3667       3666       3776       3777       3788       3787  
      3656       3657       3668       3667       3777       3778       3789       3788  
      3657       3658       3669       3668       3778       3779       3790       3789  
      3658       3659       3670       3669       3779       3780       3791       3790  
      3659       3660       3671       3670       3780       3781       3792       3791  
      3660       3661       3672       3671       3781       3782       3793       3792  
      3661       3662       3673       3672       3782       3783       3794       3793  
      3662       3663       3674       3673       3783       3784       3795       3794  
      3664       3665       3676       3675       3785       3786       3797       3796  
      3665       3666       3677       3676       3786       3787       3798       3797  
      3666       3667       3678       3677       3787       3788       3799       3798  
      3667       3668       3679       3678       3788       3789       3800       3799  
      3668       3669       3680       3679       3789       3790       3801       3800  
      3669       3670       3681       3680       3790       3791       3802       3801  
      3670       3671       3682       3681       3791       3792       3803       3802  
      3671       3672       3683       3682       3792       3793       3804       3803  
      3672       3673       3684       3683       3793       3794       3805       3804  
      3673       3674       3685       3684       3794       3795       3806       3805  
      3675       3676       3687       3686       3796       3797       3808       3807  
      3676       3677       3688       3687       3797       3798       3809       3808  
      3677       3678       3689       3688       3798       3799       3810       3809  
      3678       3679       3690       3689       3799       3800       3811       3810  
      3679       3680       3691       3690       3800       3801       3812       3811  
      3680       3681       3692       3691       3801       3802       3813       3812  
      3681       3682       3693       3692       3802       3803       3814       3813  
      3682       3683       3694       3693       3803       3804       3815       3814  
      3683       3684       3695       3694       3804       3805       3816       3815  
      3684       3685       3696       3695       3805       3806       3817       3816  
      3686       3687       3698       3697       3807       3808       3819       3818  
      3687       3688       3699       3698       3808       3809       3820       3819  
      3688       3689       3700       3699       3809       3810       3821       3820  
      3689       3690       3701       3700       3810       3811       3822       3821  
      3690       3691       3702       3701       3811       3812       3823       3822  
      3691       3692       3703       3702       3812       3813       3824       3823  
      3692       3693       3704       3703       3813       3814       3825       3824  
      3693       3694       3705       3704       3814       3815       3826       3825  
      3694       3695       3706       3705       3815       3816       3827       3826  
      3695       3696       3707       3706       3816       3817       3828       3827  
      3697       3698       3709       3708       3818       3819       3830       3829  
      3698       3699       3710       3709       3819       3820       3831       3830  
      3699       3700       3711       3710       3820       3821       3832       3831  
      3700       3701       3712       3711       3821       3822       3833       3832  
      3701       3702       3713       3712       3822       3823       3834       3833  
      3702       3703       3714       3713       3823       3824       3835       3834  
      3703       3704       3715       3714       3824       3825       3836       3835  
      3704       3705       3716       3715       3825       3826       3837       3836  
      3705       3706       3717       3716       3826       3827       3838       3837  
      3706       3707       3718       3717       3827       3828       3839       3838  
      3708       3709       3720       3719       3829       3830       3841       3840  
      3709       3710       3721       3720       3830       3831       3842       3841  
      3710       3711       3722       3721       3831       3832       3843       3842  
      3711       3712       3723       3722       3832       3833       3844       3843  
      3712       3713       3724       3723       3833       3834       3845       3844  
      3713       3714       3725       3724       3834       3835       3846       3845  
      3714       3715       3726       3725       3835       3836       3847       3846  
      3715       3716       3727       3726       3836       3837       3848       3847  
      3716       3717       3728       3727       3837       3838       3849       3848  
      3717       3718       3729       3728       3838       3839       3850       3849  
      3719       3720       3731       3730       3840       3841       3852       3851  
      3720       3721       3732       3731       3841       3842       3853       3852  
      3721       3722       3733       3732       3842       3843       3854       3853  
      3722       3723       3734       3733       3843       3844       3855       3854  
      3723       3724       3735       3734       3844       3845       3856       3855  
      3724       3725       3736       3735       3845       3846       3857       3856  
      3725       3726       3737       3736       3846       3847       3858       3857  
      3726       3727       3738       3737       3847       3848       3859       3858  
      3727       3728       3739       3738       3848       3849       3860       3859  
      3728       3729       3740       3739       3849       3850       3861       3860  
      3730       3731       3742       3741       3851       3852       3863       3862  
      3731       3732       3743       3742       3852       3853       3864       3863  
      3732       3733       3744       3743       3853       3854       3865       3864  
      3733       3734       3745       3744       3854       3855       3866       3865  
      3734       3735       3746       3745       3855       3856       3867       3866  
      3735       3736       3747       3746       3856       3857       3868       3867  
      3736       3737       3748       3747       3857       3858       3869       3868  
      3737       3738       3749       3748       3858       3859       3870       3869  
      3738       3739       3750       3749       3859       3860       3871       3870  
      3739       3740       3751       3750       3860       3861       3872       3871  
      3752       3753       3764       3763       3873       3874       3885       3884  
      3753       3754       3765       3764       3874       3875       3886       3885  
      3754       3755       3766       3765       3875       3876       3887       3886  
      3755       3756       3767       3766       3876       3877       3888       3887  
      3756       3757       3768       3767       3877       3878       3889       3888  
      3757       3758       3769       3768       3878       3879       3890       3889  
      3758       3759       3770       3769       3879       3880       3891       3890  
      3759       3760       3771       3770       3880       3881       3892       3891  
      3760       3761       3772       3771       3881       3882       3893       3892  
      3761       3762       3773       3772       3882       3883       3894       3893  
      3763       3764       3775       3774       3884       3885       3896       3895  
      3764       3765       3776       3775       3885       3886       3897       3896  
      3765       3766       3777       3776       3886       3887       3898       3897  
      3766       3767       3778       3777       3887       3888       3899       3898  
      3767       3768       3779       3778       3888       3889       3900       3899  
      3768       3769       3780       3779       3889       3890       3901       3900  
      3769       3770       3781       3780       3890       3891       3902       3901  
      3770       3771       3782       3781       3891       3892       3903       3902  
      3771       3772       3783       3782       3892       3893       3904       3903  
      3772       3773       3784       3783       3893       3894       3905       3904  
      3774       3775       3786       3785       3895       3896       3907       3906  
      3775       3776       3787       3786       3896       3897       3908       3907  
      3776       3777       3788       3787       3897       3898       3909       3908  
      3777       3778       3789       3788       3898       3899       3910       3909  
      3778       3779       3790       3789       3899       3900       3911       3910  
      3779       3780       3791       3790       3900       3901       3912       3911  
      3780       3781       3792       3791       3901       3902       3913       3912  
      3781       3782       3793       3792       3902       3903       3914       3913  
      3782       3783       3794       3793       3903       3904       3915       3914  
      3783       3784       3795       3794       3904       3905       3916       3915  
      3785       3786       3797       3796       3906       3907       3918       3917  
      3786       3787       3798       3797       3907       3908       3919       3918  
      3787       3788       3799       3798       3908       3909       3920       3919  
      3788       3789       3800       3799       3909       3910       3921       3920  
      3789       3790       3801       3800       3910       3911       3922       3921  
      3790       3791       3802       3801       3911       3912       3923       3922  
      3791       3792       3803       3802       3912       3913       3924       3923  
      3792       3793       3804       3803       3913       3914       3925       3924  
      3793       3794       3805       3804       3914       3915       3926       3925  
      3794       3795       3806       3805       3915       3916       3927       3926  
      3796       3797       3808       3807       3917       3918       3929       3928  
      3797       3798       3809       3808       3918       3919       3930       3929  
      3798       3799       3810       3809       3919       3920       3931       3930  
      3799       3800       3811       3810       3920       3921       3932       3931  
      3800       3801       3812       3811       3921       3922       3933       3932  
      3801       3802       3813       3812       3922       3923       3934       3933  
      3802       3803       3814       3813       3923       3924       3935       3934  
      3803       3804       3815       3814       3924       3925       3936       3935  
      3804       3805       3816       3815       3925       3926       3937       3936  
      3805       3806       3817       3816       3926       3927       3938       3937  
      3807       3808       3819       3818       3928       3929       3940       3939  
      3808       3809       3820       3819       3929       3930       3941       3940  
      3809       3810       3821       3820       3930       3931       3942       3941  
      3810       3811       3822       3821       3931       3932       3943       3942  
      3811       3812       3823       3822       3932       3933       3944       3943  
      3812       3813       3824       3823       3933       3934       3945       3944  
      3813       3814       3825       3824       3934       3935       3946       3945  
      3814       3815       3826       3825       3935       3936       3947       3946  
      3815       3816       3827       3826       3936       3937       3948       3947  
      3816       3817       3828       3827       3937       3938       3949       3948  
      3818       3819       3830       3829       3939       3940       3951       3950  
      3819       3820       3831       3830       3940       3941       3952       3951  
      3820       3821       3832       3831       3941       3942       3953       3952  
      3821       3822       3833       3832       3942       3943       3954       3953  
      3822       3823       3834       3833       3943       3944       3955       3954  
      3823       3824       3835       3834       3944       3945       3956       3955  
      3824       3825       3836       3835       3945       3946       3957       3956  
      3825       3826       3837       3836       3946       3947       3958       3957  
      3826       3827       3838       3837       3947       3948       3959       3958  
      3827       3828       3839       3838       3948       3949       3960       3959  
      3829       3830       3841       3840       3950       3951       3962       3961  
      3830       3831       3842       3841       3951       3952       3963       3962  
      3831       3832       3843       3842       3952       3953       3964       3963  
      3832       3833       3844       3843       3953       3954       3965       3964  
      3833       3834       3845       3844       3954       3955       3966       3965  
      3834       3835       3846       3845       3955       3956       3967       3966  
      3835       3836       3847       3846       3956       3957       3968       3967  
      3836       3837       3848       3847       3957       3958       3969       3968  
      3837       3838       3849       3848       3958       3959       3970       3969  
      3838       3839       3850       3849       3959       3960       3971       3970  
      3840       3841       3852       3851       3961       3962       3973       3972  
      3841       3842       3853       3852       3962       3963       3974       3973  
      3842       3843       3854       3853       3963       3964       3975       3974  
      3843       3844       3855       3854       3964       3965       3976       3975  
      3844       3845       3856       3855       3965       3966       3977       3976  
      3845       3846       3857       3856       3966       3967       3978       3977  
      3846       3847       3858       3857       3967       3968       3979       3978  
      3847       3848       3859       3858       3968       3969       3980       3979  
      3848       3849       3860       3859       3969       3970       3981       3980  
      3849       3850       3861       3860       3970       3971       3982       3981  
      3851       3852       3863       3862       3972       3973       3984       3983  
      3852       3853       3864       3863       3973       3974       3985       3984  
      3853       3854       3865       3864       3974       3975       3986       3985  
      3854       3855       3866       3865       3975       3976       3987       3986  
      3855       3856       3867       3866       3976       3977       3988       3987  
      3856       3857       3868       3867       3977       3978       3989       3988  
      3857       3858       3869       3868       3978       3979       3990       3989  
      3858       3859       3870       3869       3979       3980       3991       3990  
      3859       3860       3871       3870       3980       3981       3992       3991  
      3860       3861       3872       3871       3981       3982       3993       3992  
      3873       3874       3885       3884       3994       3995       4006       4005  
      3874       3875       3886       3885       3995       3996       4007       4006  
      3875       3876       3887       3886       3996       3997       4008       4007  
      3876       3877       3888       3887       3997       3998       4009       4008  
      3877       3878       3889       3888       3998       3999       4010       4009  
      3878       3879       3890       3889       3999       4000       4011       4010  
      3879       3880       3891       3890       4000       4001       4012       4011  
      3880       3881       3892       3891       4001       4002       4013       4012  
      3881       3882       3893       3892       4002       4003       4014       4013  
      3882       3883       3894       3893       4003       4004       4015       4014  
      3884       3885       3896       3895       4005       4006       4017       4016  
      3885       3886       3897       3896       4006       4007       4018       4017  
      3886       3887       3898       3897       4007       4008       4019       4018  
      3887       3888       3899       3898       4008       4009       4020       4019  
      3888       3889       3900       3899       4009       4010       4021       4020  
      3889       3890       3901       3900       4010       4011       4022       4021  
      3890       3891       3902       3901       4011       4012       4023       4022  
      3891       3892       3903       3902       4012       4013       4024       4023  
      3892       3893       3904       3903       4013       4014       4025       4024  
      3893       3894       3905       3904       4014       4015       4026       4025  
      3895       3896       3907       3906       4016       4017       4028       4027  
      3896       3897       3908       3907       4017       4018       4029       4028  
      3897       3898       3909       3908       4018       4019       4030       4029  
      3898       3899       3910       3909       4019       4020       4031       4030  
      3899       3900       3911       3910       4020       4021       4032       4031  
      3900       3901       3912       3911       4021       4022       4033       4032  
      3901       3902       3913       3912       4022       4023       4034       4033  
      3902       3903       3914       3913       4023       4024       4035       4034  
      3903       3904       3915       3914       4024       4025       4036       4035  
      3904       3905       3916       3915       4025       4026       4037       4036  
      3906       3907       3918       3917       4027       4028       4039       4038  
      3907       3908       3919       3918       4028       4029       4040       4039  
      3908       3909       3920       3919       4029       4030       4041       4040  
      3909       3910       3921       3920       4030       4031       4042       4041  
      3910       3911       3922       3921       4031       4032       4043       4042  
      3911       3912       3923       3922       4032       4033       4044       4043  
      3912       3913       3924       3923       4033       4034       4045       4044  
      3913       3914       3925       3924       4034       4035       4046       4045  
      3914       3915       3926       3925       4035       4036       4047       4046  
      3915       3916       3927       3926       4036       4037       4048       4047  
      3917       3918       3929       3928       4038       4039       4050       4049  
      3918       3919       3930       3929       4039       4040       4051       4050  
      3919       3920       3931       3930       4040       4041       4052       4051  
      3920       3921       3932       3931       4041       4042       4053       4052  
      3921       3922       3933       3932       4042       4043       4054       4053  
      3922       3923       3934       3933       4043       4044       4055       4054  
      3923       3924       3935       3934       4044       4045       4056       4055  
      3924       3925       3936       3935       4045       4046       4057       4056  
      3925       3926       3937       3936       4046       4047       4058       4057  
      3926       3927       3938       3937       4047       4048       4059       4058  
      3928       3929       3940       3939       4049       4050       4061       4060  
      3929       3930       3941       3940       4050       4051       4062       4061  
      3930       3931       3942       3941       4051       4052       4063       4062  
      3931       3932       3943       3942       4052       4053       4064       4063  
      3932       3933       3944       3943       4053       4054       4065       4064  
      3933       3934       3945       3944       4054       4055       4066       4065  
      3934       3935       3946       3945       4055       4056       4067       4066  
      3935       3936       3947       3946       4056       4057       4068       4067  
      3936       3937       3948       3947       4057       4058       4069       4068  
      3937       3938       3949       3948       4058       4059       4070       4069  
      3939       3940       3951       3950       4060       4061       4072       4071  
      3940       3941       3952       3951       4061       4062       4073       4072  
      3941       3942       3953       3952       4062       4063       4074       4073  
      3942       3943       3954       3953       4063       4064       4075       4074  
      3943       3944       3955       3954       4064       4065       4076       4075  
      3944       3945       3956       3955       4065       4066       4077       4076  
      3945       3946       3957       3956       4066       4067       4078       4077  
      3946       3947       3958       3957       4067       4068       4079       4078  
      3947       3948       3959       3958       4068       4069       4080       4079  
      3948       3949       3960       3959       4069       4070       4081       4080  
      3950       3951       3962       3961       4071       4072       4083       4082  
      3951       3952       3963       3962       4072       4073       4084       4083  
      3952       3953       3964       3963       4073       4074       4085       4084  
      3953       3954       3965       3964       4074       4075       4086       4085  
      3954       3955       3966       3965       4075       4076       4087       4086  
      3955       3956       3967       3966       4076       4077       4088       4087  
      3956       3957       3968       3967       4077       4078       4089       4088  
      3957       3958       3969       3968       4078       4079       4090       4089  
      3958       3959       3970       3969       4079       4080       4091       4090  
      3959       3960       3971       3970       4080       4081       4092       4091  
      3961       3962       3973       3972       4082       4083       4094       4093  
      3962       3963       3974       3973       4083       4084       4095       4094  
      3963       3964       3975       3974       4084       4085       4096       4095  
      3964       3965       3976       3975       4085       4086       4097       4096  
      3965       3966       3977       3976       4086       4087       4098       4097  
      3966       3967       3978       3977       4087       4088       4099       4098  
      3967       3968       3979       3978       4088       4089       4100       4099  
      3968       3969       3980       3979       4089       4090       4101       4100  
      3969       3970       3981       3980       4090       4091       4102       4101  
      3970       3971       3982       3981       4091       4092       4103       4102  
      3972       3973       3984       3983       4093       4094       4105       4104  
      3973       3974       3985       3984       4094       4095       4106       4105  
      3974       3975       3986       3985       4095       4096       4107       4106  
      3975       3976       3987       3986       4096       4097       4108       4107  
      3976       3977       3988       3987       4097       4098       4109       4108  
      3977       3978       3989       3988       4098       4099       4110       4109  
      3978       3979       3990       3989       4099       4100       4111       4110  
      3979       3980       3991       3990       4100       4101       4112       4111  
      3980       3981       3992       3991       4101       4102       4113       4112  
      3981       3982       3993       3992       4102       4103       4114       4113  
      3994       3995       4006       4005       4115       4116       4127       4126  
      3995       3996       4007       4006       4116       4117       4128       4127  
      3996       3997       4008       4007       4117       4118       4129       4128  
      3997       3998       4009       4008       4118       4119       4130       4129  
      3998       3999       4010       4009       4119       4120       4131       4130  
      3999       4000       4011       4010       4120       4121       4132       4131  
      4000       4001       4012       4011       4121       4122       4133       4132  
      4001       4002       4013       4012       4122       4123       4134       4133  
      4002       4003       4014       4013       4123       4124       4135       4134  
      4003       4004       4015       4014       4124       4125       4136       4135  
      4005       4006       4017       4016       4126       4127       4138       4137  
      4006       4007       4018       4017       4127       4128       4139       4138  
      4007       4008       4019       4018       4128       4129       4140       4139  
      4008       4009       4020       4019       4129       4130       4141       4140  
      4009       4010       4021       4020       4130       4131       4142       4141  
      4010       4011       4022       4021       4131       4132       4143       4142  
      4011       4012       4023       4022       4132       4133       4144       4143  
      4012       4013       4024       4023       4133       4134       4145       4144  
      4013       4014       4025       4024       4134       4135       4146       4145  
      4014       4015       4026       4025       4135       4136       4147       4146  
      4016       4017       4028       4027       4137       4138       4149       4148  
      4017       4018       4029       4028       4138       4139       4150       4149  
      4018       4019       4030       4029       4139       4140       4151       4150  
      4019       4020       4031       4030       4140       4141       4152       4151  
      4020       4021       4032       4031       4141       4142       4153       4152  
      4021       4022       4033       4032       4142       4143       4154       4153  
      4022       4023       4034       4033       4143       4144       4155       4154  
      4023       4024       4035       4034       4144       4145       4156       4155  
      4024       4025       4036       4035       4145       4146       4157       4156  
      4025       4026       4037       4036       4146       4147       4158       4157  
      4027       4028       4039       4038       4148       4149       4160       4159  
      4028       4029       4040       4039       4149       4150       4161       4160  
      4029       4030       4041       4040       4150       4151       4162       4161  
      4030       4031       4042       4041       4151       4152       4163       4162  
      4031       4032       4043       4042       4152       4153       4164       4163  
      4032       4033       4044       4043       4153       4154       4165       4164  
      4033       4034       4045       4044       4154       4155       4166       4165  
      4034       4035       4046       4045       4155       4156       4167       4166  
      4035       4036       4047       4046       4156       4157       4168       4167  
      4036       4037       4048       4047       4157       4158       4169       4168  
      4038       4039       4050       4049       4159       4160       4171       4170  
      4039       4040       4051       4050       4160       4161       4172       4171  
      4040       4041       4052       4051       4161       4162       4173       4172  
      4041       4042       4053       4052       4162       4163       4174       4173  
      4042       4043       4054       4053       4163       4164       4175       4174  
      4043       4044       4055       4054       4164       4165       4176       4175  
      4044       4045       4056       4055       4165       4166       4177       4176  
      4045       4046       4057       4056       4166       4167       4178       4177  
      4046       4047       4058       4057       4167       4168       4179       4178  
      4047       4048       4059       4058       4168       4169       4180       4179  
      4049       4050       4061       4060       4170       4171       4182       4181  
      4050       4051       4062       4061       4171       4172       4183       4182  
      4051       4052       4063       4062       4172       4173       4184       4183  
      4052       4053       4064       4063       4173       4174       4185       4184  
      4053       4054       4065       4064       4174       4175       4186       4185  
      4054       4055       4066       4065       4175       4176       4187       4186  
      4055       4056       4067       4066       4176       4177       4188       4187  
      4056       4057       4068       4067       4177       4178       4189       4188  
      4057       4058       4069       4068       4178       4179       4190       4189  
      4058       4059       4070       4069       4179       4180       4191       4190  
      4060       4061       4072       4071       4181       4182       4193       4192  
      4061       4062       4073       4072       4182       4183       4194       4193  
      4062       4063       4074       4073       4183       4184       4195       4194  
      4063       4064       4075       4074       4184       4185       4196       4195  
      4064       4065       4076       4075       4185       4186       4197       4196  
      4065       4066       4077       4076       4186       4187       4198       4197  
      4066       4067       4078       4077       4187       4188       4199       4198  
      4067       4068       4079       4078       4188       4189       4200       4199  
      4068       4069       4080       4079       4189       4190       4201       4200  
      4069       4070       4081       4080       4190       4191       4202       4201  
      4071       4072       4083       4082       4192       4193       4204       4203  
      4072       4073       4084       4083       4193       4194       4205       4204  
      4073       4074       4085       4084       4194       4195       4206       4205  
      4074       4075       4086       4085       4195       4196       4207       4206  
      4075       4076       4087       4086       4196       4197       4208       4207  
      4076       4077       4088       4087       4197       4198       4209       4208  
      4077       4078       4089       4088       4198       4199       4210       4209  
      4078       4079       4090       4089       4199       4200       4211       4210  
      4079       4080       4091       4090       4200       4201       4212       4211  
      4080       4081       4092       4091       4201       4202       4213       4212  
      4082       4083       4094       4093       4203       4204       4215       4214  
      4083       4084       4095       4094       4204       4205       4216       4215  
      4084       4085       4096       4095       4205       4206       4217       4216  
      4085       4086       4097       4096       4206       4207       4218       4217  
      4086       4087       4098       4097       4207       4208       4219       4218  
      4087       4088       4099       4098       4208       4209       4220       4219  
      4088       4089       4100       4099       4209       4210       4221       4220  
      4089       4090       4101       4100       4210       4211       4222       4221  
      4090       4091       4102       4101       4211       4212       4223       4222  
      4091       4092       4103       4102       4212       4213       4224       4223  
      4093       4094       4105       4104       4214       4215       4226       4225  
      4094       4095       4106       4105       4215       4216       4227       4226  
      4095       4096       4107       4106       4216       4217       4228       4227  
      4096       4097       4108       4107       4217       4218       4229       4228  
      4097       4098       4109       4108       4218       4219       4230       4229  
      4098       4099       4110       4109       4219       4220       4231       4230  
      4099       4100       4111       4110       4220       4221       4232       4231  
      4100       4101       4112       4111       4221       4222       4233       4232  
      4101       4102       4113       4112       4222       4223       4234       4233  
      4102       4103       4114       4113       4223       4224       4235       4234  
      4115       4116       4127       4126       4236       4237       4248       4247  
      4116       4117       4128       4127       4237       4238       4249       4248  
      4117       4118       4129       4128       4238       4239       4250       4249  
      4118       4119       4130       4129       4239       4240       4251       4250  
      4119       4120       4131       4130       4240       4241       4252       4251  
      4120       4121       4132       4131       4241       4242       4253       4252  
      4121       4122       4133       4132       4242       4243       4254       4253  
      4122       4123       4134       4133       4243       4244       4255       4254  
      4123       4124       4135       4134       4244       4245       4256       4255  
      4124       4125       4136       4135       4245       4246       4257       4256  
      4126       4127       4138       4137       4247       4248       4259       4258  
      4127       4128       4139       4138       4248       4249       4260       4259  
      4128       4129       4140       4139       4249       4250       4261       4260  
      4129       4130       4141       4140       4250       4251       4262       4261  
      4130       4131       4142       4141       4251       4252       4263       4262  
      4131       4132       4143       4142       4252       4253       4264       4263  
      4132       4133       4144       4143       4253       4254       4265       4264  
      4133       4134       4145       4144       4254       4255       4266       4265  
      4134       4135       4146       4145       4255       4256       4267       4266  
      4135       4136       4147       4146       4256       4257       4268       4267  
      4137       4138       4149       4148       4258       4259       4270       4269  
      4138       4139       4150       4149       4259       4260       4271       4270  
      4139       4140       4151       4150       4260       4261       4272       4271  
      4140       4141       4152       4151       4261       4262       4273       4272  
      4141       4142       4153       4152       4262       4263       4274       4273  
      4142       4143       4154       4153       4263       4264       4275       4274  
      4143       4144       4155       4154       4264       4265       4276       4275  
      4144       4145       4156       4155       4265       4266       4277       4276  
      4145       4146       4157       4156       4266       4267       4278       4277  
      4146       4147       4158       4157       4267       4268       4279       4278  
      4148       4149       4160       4159       4269       4270       4281       4280  
      4149       4150       4161       4160       4270       4271       4282       4281  
      4150       4151       4162       4161       4271       4272       4283       4282  
      4151       4152       4163       4162       4272       4273       4284       4283  
      4152       4153       4164       4163       4273       4274       4285       4284  
      4153       4154       4165       4164       4274       4275       4286       4285  
      4154       4155       4166       4165       4275       4276       4287       4286  
      4155       4156       4167       4166       4276       4277       4288       4287  
      4156       4157       4168       4167       4277       4278       4289       4288  
      4157       4158       4169       4168       4278       4279       4290       4289  
      4159       4160       4171       4170       4280       4281       4292       4291  
      4160       4161       4172       4171       4281       4282       4293       4292  
      4161       4162       4173       4172       4282       4283       4294       4293  
      4162       4163       4174       4173       4283       4284       4295       4294  
      4163       4164       4175       4174       4284       4285       4296       4295  
      4164       4165       4176       4175       4285       4286       4297       4296  
      4165       4166       4177       4176       4286       4287       4298       4297  
      4166       4167       4178       4177       4287       4288       4299       4298  
      4167       4168       4179       4178       4288       4289       4300       4299  
      4168       4169       4180       4179       4289       4290       4301       4300  
      4170       4171       4182       4181       4291       4292       4303       4302  
      4171       4172       4183       4182       4292       4293       4304       4303  
      4172       4173       4184       4183       4293       4294       4305       4304  
      4173       4174       4185       4184       4294       4295       4306       4305  
      4174       4175       4186       4185       4295       4296       4307       4306  
      4175       4176       4187       4186       4296       4297       4308       4307  
      4176       4177       4188       4187       4297       4298       4309       4308  
      4177       4178       4189       4188       4298       4299       4310       4309  
      4178       4179       4190       4189       4299       4300       4311       4310  
      4179       4180       4191       4190       4300       4301       4312       4311  
      4181       4182       4193       4192       4302       4303       4314       4313  
      4182       4183       4194       4193       4303       4304       4315       4314  
      4183       4184       4195       4194       4304       4305       4316       4315  
      4184       4185       4196       4195       4305       4306       4317       4316  
      4185       4186       4197       4196       4306       4307       4318       4317  
      4186       4187       4198       4197       4307       4308       4319       4318  
      4187       4188       4199       4198       4308       4309       4320       4319  
      4188       4189       4200       4199       4309       4310       4321       4320  
      4189       4190       4201       4200       4310       4311       4322       4321  
      4190       4191       4202       4201       4311       4312       4323       4322  
      4192       4193       4204       4203       4313       4314       4325       4324  
      4193       4194       4205       4204       4314       4315       4326       4325  
      4194       4195       4206       4205       4315       4316       4327       4326  
      4195       4196       4207       4206       4316       4317       4328       4327  
      4196       4197       4208       4207       4317       4318       4329       4328  
      4197       4198       4209       4208       4318       4319       4330       4329  
      4198       4199       4210       4209       4319       4320       4331       4330  
      4199       4200       4211       4210       4320       4321       4332       4331  
      4200       4201       4212       4211       4321       4322       4333       4332  
      4201       4202       4213       4212       4322       4323       4334       4333  
      4203       4204       4215       4214       4324       4325       4336       4335  
      4204       4205       4216       4215       4325       4326       4337       4336  
      4205       4206       4217       4216       4326       4327       4338       4337  
      4206       4207       4218       4217       4327       4328       4339       4338  
      4207       4208       4219       4218       4328       4329       4340       4339  
      4208       4209       4220       4219       4329       4330       4341       4340  
      4209       4210       4221       4220       4330       4331       4342       4341  
      4210       4211       4222       4221       4331       4332       4343       4342  
      4211       4212       4223       4222       4332       4333       4344       4343  
      4212       4213       4224       4223       4333       4334       4345       4344  
      4214       4215       4226       4225       4335       4336       4347       4346  
      4215       4216       4227       4226       4336       4337       4348       4347  
      4216       4217       4228       4227       4337       4338       4349       4348  
      4217       4218       4229       4228       4338       4339       4350       4349  
      4218       4219       4230       4229       4339       4340       4351       4350  
      4219       4220       4231       4230       4340       4341       4352       4351  
      4220       4221       4232       4231       4341       4342       4353       4352  
      4221       4222       4233       4232       4342       4343       4354       4353  
      4222       4223       4234       4233       4343       4344       4355       4354  
      4223       4224       4235       4234       4344       4345       4356       4355  
      4236       4237       4248       4247       4357       4358       4369       4368  
      4237       4238       4249       4248       4358       4359       4370       4369  
      4238       4239       4250       4249       4359       4360       4371       4370  
      4239       4240       4251       4250       4360       4361       4372       4371  
      4240       4241       4252       4251       4361       4362       4373       4372  
      4241       4242       4253       4252       4362       4363       4374       4373  
      4242       4243       4254       4253       4363       4364       4375       4374  
      4243       4244       4255       4254       4364       4365       4376       4375  
      4244       4245       4256       4255       4365       4366       4377       4376  
      4245       4246       4257       4256       4366       4367       4378       4377  
      4247       4248       4259       4258       4368       4369       4380       4379  
      4248       4249       4260       4259       4369       4370       4381       4380  
      4249       4250       4261       4260       4370       4371       4382       4381  
      4250       4251       4262       4261       4371       4372       4383       4382  
      4251       4252       4263       4262       4372       4373       4384       4383  
      4252       4253       4264       4263       4373       4374       4385       4384  
      4253       4254       4265       4264       4374       4375       4386       4385  
      4254       4255       4266       4265       4375       4376       4387       4386  
      4255       4256       4267       4266       4376       4377       4388       4387  
      4256       4257       4268       4267       4377       4378       4389       4388  
      4258       4259       4270       4269       4379       4380       4391       4390  
      4259       4260       4271       4270       4380       4381       4392       4391  
      4260       4261       4272       4271       4381       4382       4393       4392  
      4261       4262       4273       4272       4382       4383       4394       4393  
      4262       4263       4274       4273       4383       4384       4395       4394  
      4263       4264       4275       4274       4384       4385       4396       4395  
      4264       4265       4276       4275       4385       4386       4397       4396  
      4265       4266       4277       4276       4386       4387       4398       4397  
      4266       4267       4278       4277       4387       4388       4399       4398  
      4267       4268       4279       4278       4388       4389       4400       4399  
      4269       4270       4281       4280       4390       4391       4402       4401  
      4270       4271       4282       4281       4391       4392       4403       4402  
      4271       4272       4283       4282       4392       4393       4404       4403  
      4272       4273       4284       4283       4393       4394       4405       4404  
      4273       4274       4285       4284       4394       4395       4406       4405  
      4274       4275       4286       4285       4395       4396       4407       4406  
      4275       4276       4287       4286       4396       4397       4408       4407  
      4276       4277       4288       4287       4397       4398       4409       4408  
      4277       4278       4289       4288       4398       4399       4410       4409  
      4278       4279       4290       4289       4399       4400       4411       4410  
      4280       4281       4292       4291       4401       4402       4413       4412  
      4281       4282       4293       4292       4402       4403       4414       4413  
      4282       4283       4294       4293       4403       4404       4415       4414  
      4283       4284       4295       4294       4404       4405       4416       4415  
      4284       4285       4296       4295       4405       4406       4417       4416  
      4285       4286       4297       4296       4406       4407       4418       4417  
      4286       4287       4298       4297       4407       4408       4419       4418  
      4287       4288       4299       4298       4408       4409       4420       4419  
      4288       4289       4300       4299       4409       4410       4421       4420  
      4289       4290       4301       4300       4410       4411       4422       4421  
      4291       4292       4303       4302       4412       4413       4424       4423  
      4292       4293       4304       4303       4413       4414       4425       4424  
      4293       4294       4305       4304       4414       4415       4426       4425  
      4294       4295       4306       4305       4415       4416       4427       4426  
      4295       4296       4307       4306       4416       4417       4428       4427  
      4296       4297       4308       4307       4417       4418       4429       4428  
      4297       4298       4309       4308       4418       4419       4430       4429  
      4298       4299       4310       4309       4419       4420       4431       4430  
      4299       4300       4311       4310       4420       4421       4432       4431  
      4300       4301       4312       4311       4421       4422       4433       4432  
      4302       4303       4314       4313       4423       4424       4435       4434  
      4303       4304       4315       4314       4424       4425       4436       4435  
      4304       4305       4316       4315       4425       4426       4437       4436  
      4305       4306       4317       4316       4426       4427       4438       4437  
      4306       4307       4318       4317       4427       4428       4439       4438  
      4307       4308       4319       4318       4428       4429       4440       4439  
      4308       4309       4320       4319       4429       4430       4441       4440  
      4309       4310       4321       4320       4430       4431       4442       4441  
      4310       4311       4322       4321       4431       4432       4443       4442  
      4311       4312       4323       4322       4432       4433       4444       4443  
      4313       4314       4325       4324       4434       4435       4446       4445  
      4314       4315       4326       4325       4435       4436       4447       4446  
      4315       4316       4327       4326       4436       4437       4448       4447  
      4316       4317       4328       4327       4437       4438       4449       4448  
      4317       4318       4329       4328       4438       4439       4450       4449  
      4318       4319       4330       4329       4439       4440       4451       4450  
      4319       4320       4331       4330       4440       4441       4452       4451  
      4320       4321       4332       4331       4441       4442       4453       4452  
      4321       4322       4333       4332       4442       4443       4454       4453  
      4322       4323       4334       4333       4443       4444       4455       4454  
      4324       4325       4336       4335       4445       4446       4457       4456  
      4325       4326       4337       4336       4446       4447       4458       4457  
      4326       4327       4338       4337       4447       4448       4459       4458  
      4327       4328       4339       4338       4448       4449       4460       4459  
      4328       4329       4340       4339       4449       4450       4461       4460  
      4329       4330       4341       4340       4450       4451       4462       4461  
      4330       4331       4342       4341       4451       4452       4463       4462  
      4331       4332       4343       4342       4452       4453       4464       4463  
      4332       4333       4344       4343       4453       4454       4465       4464  
      4333       4334       4345       4344       4454       4455       4466       4465  
      4335       4336       4347       4346       4456       4457       4468       4467  
      4336       4337       4348       4347       4457       4458       4469       4468  
      4337       4338       4349       4348       4458       4459       4470       4469  
      4338       4339       4350       4349       4459       4460       4471       4470  
      4339       4340       4351       4350       4460       4461       4472       4471  
      4340       4341       4352       4351       4461       4462       4473       4472  
      4341       4342       4353       4352       4462       4463       4474       4473  
      4342       4343       4354       4353       4463       4464       4475       4474  
      4343       4344       4355       4354       4464       4465       4476       4475  
      4344       4345       4356       4355       4465       4466       4477       4476  
      4357       4358       4369       4368       4478       4479       4490       4489  
      4358       4359       4370       4369       4479       4480       4491       4490  
      4359       4360       4371       4370       4480       4481       4492       4491  
      4360       4361       4372       4371       4481       4482       4493       4492  
      4361       4362       4373       4372       4482       4483       4494       4493  
      4362       4363       4374       4373       4483       4484       4495       4494  
      4363       4364       4375       4374       4484       4485       4496       4495  
      4364       4365       4376       4375       4485       4486       4497       4496  
      4365       4366       4377       4376       4486       4487       4498       4497  
      4366       4367       4378       4377       4487       4488       4499       4498  
      4368       4369       4380       4379       4489       4490       4501       4500  
      4369       4370       4381       4380       4490       4491       4502       4501  
      4370       4371       4382       4381       4491       4492       4503       4502  
      4371       4372       4383       4382       4492       4493       4504       4503  
      4372       4373       4384       4383       4493       4494       4505       4504  
      4373       4374       4385       4384       4494       4495       4506       4505  
      4374       4375       4386       4385       4495       4496       4507       4506  
      4375       4376       4387       4386       4496       4497       4508       4507  
      4376       4377       4388       4387       4497       4498       4509       4508  
      4377       4378       4389       4388       4498       4499       4510       4509  
      4379       4380       4391       4390       4500       4501       4512       4511  
      4380       4381       4392       4391       4501       4502       4513       4512  
      4381       4382       4393       4392       4502       4503       4514       4513  
      4382       4383       4394       4393       4503       4504       4515       4514  
      4383       4384       4395       4394       4504       4505       4516       4515  
      4384       4385       4396       4395       4505       4506       4517       4516  
      4385       4386       4397       4396       4506       4507       4518       4517  
      4386       4387       4398       4397       4507       4508       4519       4518  
      4387       4388       4399       4398       4508       4509       4520       4519  
      4388       4389       4400       4399       4509       4510       4521       4520  
      4390       4391       4402       4401       4511       4512       4523       4522  
      4391       4392       4403       4402       4512       4513       4524       4523  
      4392       4393       4404       4403       4513       4514       4525       4524  
      4393       4394       4405       4404       4514       4515       4526       4525  
      4394       4395       4406       4405       4515       4516       4527       4526  
      4395       4396       4407       4406       4516       4517       4528       4527  
      4396       4397       4408       4407       4517       4518       4529       4528  
      4397       4398       4409       4408       4518       4519       4530       4529  
      4398       4399       4410       4409       4519       4520       4531       4530  
      4399       4400       4411       4410       4520       4521       4532       4531  
      4401       4402       4413       4412       4522       4523       4534       4533  
      4402       4403       4414       4413       4523       4524       4535       4534  
      4403       4404       4415       4414       4524       4525       4536       4535  
      4404       4405       4416       4415       4525       4526       4537       4536  
      4405       4406       4417       4416       4526       4527       4538       4537  
      4406       4407       4418       4417       4527       4528       4539       4538  
      4407       4408       4419       4418       4528       4529       4540       4539  
      4408       4409       4420       4419       4529       4530       4541       4540  
      4409       4410       4421       4420       4530       4531       4542       4541  
      4410       4411       4422       4421       4531       4532       4543       4542  
      4412       4413       4424       4423       4533       4534       4545       4544  
      4413       4414       4425       4424       4534       4535       4546       4545  
      4414       4415       4426       4425       4535       4536       4547       4546  
      4415       4416       4427       4426       4536       4537       4548       4547  
      4416       4417       4428       4427       4537       4538       4549       4548  
      4417       4418       4429       4428       4538       4539       4550       4549  
      4418       4419       4430       4429       4539       4540       4551       4550  
      4419       4420       4431       4430       4540       4541       4552       4551  
      4420       4421       4432       4431       4541       4542       4553       4552  
      4421       4422       4433       4432       4542       4543       4554       4553  
      4423       4424       4435       4434       4544       4545       4556       4555  
      4424       4425       4436       4435       4545       4546       4557       4556  
      4425       4426       4437       4436       4546       4547       4558       4557  
      4426       4427       4438       4437       4547       4548       4559       4558  
      4427       4428       4439       4438       4548       4549       4560       4559  
      4428       4429       4440       4439       4549       4550       4561       4560  
      4429       4430       4441       4440       4550       4551       4562       4561  
      4430       4431       4442       4441       4551       4552       4563       4562  
      4431       4432       4443       4442       4552       4553       4564       4563  
      4432       4433       4444       4443       4553       4554       4565       4564  
      4434       4435       4446       4445       4555       4556       4567       4566  
      4435       4436       4447       4446       4556       4557       4568       4567  
      4436       4437       4448       4447       4557       4558       4569       4568  
      4437       4438       4449       4448       4558       4559       4570       4569  
      4438       4439       4450       4449       4559       4560       4571       4570  
      4439       4440       4451       4450       4560       4561       4572       4571  
      4440       4441       4452       4451       4561       4562       4573       4572  
      4441       4442       4453       4452       4562       4563       4574       4573  
      4442       4443       4454       4453       4563       4564       4575       4574  
      4443       4444       4455       4454       4564       4565       4576       4575  
      4445       4446       4457       4456       4566       4567       4578       4577  
      4446       4447       4458       4457       4567       4568       4579       4578  
      4447       4448       4459       4458       4568       4569       4580       4579  
      4448       4449       4460       4459       4569       4570       4581       4580  
      4449       4450       4461       4460       4570       4571       4582       4581  
      4450       4451       4462       4461       4571       4572       4583       4582  
      4451       4452       4463       4462       4572       4573       4584       4583  
      4452       4453       4464       4463       4573       4574       4585       4584  
      4453       4454       4465       4464       4574       4575       4586       4585  
      4454       4455       4466       4465       4575       4576       4587       4586  
      4456       4457       4468       4467       4577       4578       4589       4588  
      4457       4458       4469       4468       4578       4579       4590       4589  
      4458       4459       4470       4469       4579       4580       4591       4590  
      4459       4460       4471       4470       4580       4581       4592       4591  
      4460       4461       4472       4471       4581       4582       4593       4592  
      4461       4462       4473       4472       4582       4583       4594       4593  
      4462       4463       4474       4473       4583       4584       4595       4594  
      4463       4464       4475       4474       4584       4585       4596       4595  
      4464       4465       4476       4475       4585       4586       4597       4596  
      4465       4466       4477       4476       4586       4587       4598       4597  
      4478       4479       4490       4489       4599       4600       4611       4610  
      4479       4480       4491       4490       4600       4601       4612       4611  
      4480       4481       4492       4491       4601       4602       4613       4612  
      4481       4482       4493       4492       4602       4603       4614       4613  
      4482       4483       4494       4493       4603       4604       4615       4614  
      4483       4484       4495       4494       4604       4605       4616       4615  
      4484       4485       4496       4495       4605       4606       4617       4616  
      4485       4486       4497       4496       4606       4607       4618       4617  
      4486       4487       4498       4497       4607       4608       4619       4618  
      4487       4488       4499       4498       4608       4609       4620       4619  
      4489       4490       4501       4500       4610       4611       4622       4621  
      4490       4491       4502       4501       4611       4612       4623       4622  
      4491       4492       4503       4502       4612       4613       4624       4623  
      4492       4493       4504       4503       4613       4614       4625       4624  
      4493       4494       4505       4504       4614       4615       4626       4625  
      4494       4495       4506       4505       4615       4616       4627       4626  
      4495       4496       4507       4506       4616       4617       4628       4627  
      4496       4497       4508       4507       4617       4618       4629       4628  
      4497       4498       4509       4508       4618       4619       4630       4629  
      4498       4499       4510       4509       4619       4620       4631       4630  
      4500       4501       4512       4511       4621       4622       4633       4632  
      4501       4502       4513       4512       4622       4623       4634       4633  
      4502       4503       4514       4513       4623       4624       4635       4634  
      4503       4504       4515       4514       4624       4625       4636       4635  
      4504       4505       4516       4515       4625       4626       4637       4636  
      4505       4506       4517       4516       4626       4627       4638       4637  
      4506       4507       4518       4517       4627       4628       4639       4638  
      4507       4508       4519       4518       4628       4629       4640       4639  
      4508       4509       4520       4519       4629       4630       4641       4640  
      4509       4510       4521       4520       4630       4631       4642       4641  
      4511       4512       4523       4522       4632       4633       4644       4643  
      4512       4513       4524       4523       4633       4634       4645       4644  
      4513       4514       4525       4524       4634       4635       4646       4645  
      4514       4515       4526       4525       4635       4636       4647       4646  
      4515       4516       4527       4526       4636       4637       4648       4647  
      4516       4517       4528       4527       4637       4638       4649       4648  
      4517       4518       4529       4528       4638       4639       4650       4649  
      4518       4519       4530       4529       4639       4640       4651       4650  
      4519       4520       4531       4530       4640       4641       4652       4651  
      4520       4521       4532       4531       4641       4642       4653       4652  
      4522       4523       4534       4533       4643       4644       4655       4654  
      4523       4524       4535       4534       4644       4645       4656       4655  
      4524       4525       4536       4535       4645       4646       4657       4656  
      4525       4526       4537       4536       4646       4647       4658       4657  
      4526       4527       4538       4537       4647       4648       4659       4658  
      4527       4528       4539       4538       4648       4649       4660       4659  
      4528       4529       4540       4539       4649       4650       4661       4660  
      4529       4530       4541       4540       4650       4651       4662       4661  
      4530       4531       4542       4541       4651       4652       4663       4662  
      4531       4532       4543       4542       4652       4653       4664       4663  
      4533       4534       4545       4544       4654       4655       4666       4665  
      4534       4535       4546       4545       4655       4656       4667       4666  
      4535       4536       4547       4546       4656       4657       4668       4667  
      4536       4537       4548       4547       4657       4658       4669       4668  
      4537       4538       4549       4548       4658       4659       4670       4669  
      4538       4539       4550       4549       4659       4660       4671       4670  
      4539       4540       4551       4550       4660       4661       4672       4671  
      4540       4541       4552       4551       4661       4662       4673       4672  
      4541       4542       4553       4552       4662       4663       4674       4673  
      4542       4543       4554       4553       4663       4664       4675       4674  
      4544       4545       4556       4555       4665       4666       4677       4676  
      4545       4546       4557       4556       4666       4667       4678       4677  
      4546       4547       4558       4557       4667       4668       4679       4678  
      4547       4548       4559       4558       4668       4669       4680       4679  
      4548       4549       4560       4559       4669       4670       4681       4680  
      4549       4550       4561       4560       4670       4671       4682       4681  
      4550       4551       4562       4561       4671       4672       4683       4682  
      4551       4552       4563       4562       4672       4673       4684       4683  
      4552       4553       4564       4563       4673       4674       4685       4684  
      4553       4554       4565       4564       4674       4675       4686       4685  
      4555       4556       4567       4566       4676       4677       4688       4687  
      4556       4557       4568       4567       4677       4678       4689       4688  
      4557       4558       4569       4568       4678       4679       4690       4689  
      4558       4559       4570       4569       4679       4680       4691       4690  
      4559       4560       4571       4570       4680       4681       4692       4691  
      4560       4561       4572       4571       4681       4682       4693       4692  
      4561       4562       4573       4572       4682       4683       4694       4693  
      4562       4563       4574       4573       4683       4684       4695       4694  
      4563       4564       4575       4574       4684       4685       4696       4695  
      4564       4565       4576       4575       4685       4686       4697       4696  
      4566       4567       4578       4577       4687       4688       4699       4698  
      4567       4568       4579       4578       4688       4689       4700       4699  
      4568       4569       4580       4579       4689       4690       4701       4700  
      4569       4570       4581       4580       4690       4691       4702       4701  
      4570       4571       4582       4581       4691       4692       4703       4702  
      4571       4572       4583       4582       4692       4693       4704       4703  
      4572       4573       4584       4583       4693       4694       4705       4704  
      4573       4574       4585       4584       4694       4695       4706       4705  
      4574       4575       4586       4585       4695       4696       4707       4706  
      4575       4576       4587       4586       4696       4697       4708       4707  
      4577       4578       4589       4588       4698       4699       4710       4709  
      4578       4579       4590       4589       4699       4700       4711       4710  
      4579       4580       4591       4590       4700       4701       4712       4711  
      4580       4581       4592       4591       4701       4702       4713       4712  
      4581       4582       4593       4592       4702       4703       4714       4713  
      4582       4583       4594       4593       4703       4704       4715       4714  
      4583       4584       4595       4594       4704       4705       4716       4715  
      4584       4585       4596       4595       4705       4706       4717       4716  
      4585       4586       4597       4596       4706       4707       4718       4717  
      4586       4587       4598       4597       4707       4708       4719       4718  
      4599       4600       4611       4610       4720       4721       4732       4731  
      4600       4601       4612       4611       4721       4722       4733       4732  
      4601       4602       4613       4612       4722       4723       4734       4733  
      4602       4603       4614       4613       4723       4724       4735       4734  
      4603       4604       4615       4614       4724       4725       4736       4735  
      4604       4605       4616       4615       4725       4726       4737       4736  
      4605       4606       4617       4616       4726       4727       4738       4737  
      4606       4607       4618       4617       4727       4728       4739       4738  
      4607       4608       4619       4618       4728       4729       4740       4739  
      4608       4609       4620       4619       4729       4730       4741       4740  
      4610       4611       4622       4621       4731       4732       4743       4742  
      4611       4612       4623       4622       4732       4733       4744       4743  
      4612       4613       4624       4623       4733       4734       4745       4744  
      4613       4614       4625       4624       4734       4735       4746       4745  
      4614       4615       4626       4625       4735       4736       4747       4746  
      4615       4616       4627       4626       4736       4737       4748       4747  
      4616       4617       4628       4627       4737       4738       4749       4748  
      4617       4618       4629       4628       4738       4739       4750       4749  
      4618       4619       4630       4629       4739       4740       4751       4750  
      4619       4620       4631       4630       4740       4741       4752       4751  
      4621       4622       4633       4632       4742       4743       4754       4753  
      4622       4623       4634       4633       4743       4744       4755       4754  
      4623       4624       4635       4634       4744       4745       4756       4755  
      4624       4625       4636       4635       4745       4746       4757       4756  
      4625       4626       4637       4636       4746       4747       4758       4757  
      4626       4627       4638       4637       4747       4748       4759       4758  
      4627       4628       4639       4638       4748       4749       4760       4759  
      4628       4629       4640       4639       4749       4750       4761       4760  
      4629       4630       4641       4640       4750       4751       4762       4761  
      4630       4631       4642       4641       4751       4752       4763       4762  
      4632       4633       4644       4643       4753       4754       4765       4764  
      4633       4634       4645       4644       4754       4755       4766       4765  
      4634       4635       4646       4645       4755       4756       4767       4766  
      4635       4636       4647       4646       4756       4757       4768       4767  
      4636       4637       4648       4647       4757       4758       4769       4768  
      4637       4638       4649       4648       4758       4759       4770       4769  
      4638       4639       4650       4649       4759       4760       4771       4770  
      4639       4640       4651       4650       4760       4761       4772       4771  
      4640       4641       4652       4651       4761       4762       4773       4772  
      4641       4642       4653       4652       4762       4763       4774       4773  
      4643       4644       4655       4654       4764       4765       4776       4775  
      4644       4645       4656       4655       4765       4766       4777       4776  
      4645       4646       4657       4656       4766       4767       4778       4777  
      4646       4647       4658       4657       4767       4768       4779       4778  
      4647       4648       4659       4658       4768       4769       4780       4779  
      4648       4649       4660       4659       4769       4770       4781       4780  
      4649       4650       4661       4660       4770       4771       4782       4781  
      4650       4651       4662       4661       4771       4772       4783       4782  
      4651       4652       4663       4662       4772       4773       4784       4783  
      4652       4653       4664       4663       4773       4774       4785       4784  
      4654       4655       4666       4665       4775       4776       4787       4786  
      4655       4656       4667       4666       4776       4777       4788       4787  
      4656       4657       4668       4667       4777       4778       4789       4788  
      4657       4658       4669       4668       4778       4779       4790       4789  
      4658       4659       4670       4669       4779       4780       4791       4790  
      4659       4660       4671       4670       4780       4781       4792       4791  
      4660       4661       4672       4671       4781       4782       4793       4792  
      4661       4662       4673       4672       4782       4783       4794       4793  
      4662       4663       4674       4673       4783       4784       4795       4794  
      4663       4664       4675       4674       4784       4785       4796       4795  
      4665       4666       4677       4676       4786       4787       4798       4797  
      4666       4667       4678       4677       4787       4788       4799       4798  
      4667       4668       4679       4678       4788       4789       4800       4799  
      4668       4669       4680       4679       4789       4790       4801       4800  
      4669       4670       4681       4680       4790       4791       4802       4801  
      4670       4671       4682       4681       4791       4792       4803       4802  
      4671       4672       4683       4682       4792       4793       4804       4803  
      4672       4673       4684       4683       4793       4794       4805       4804  
      4673       4674       4685       4684       4794       4795       4806       4805  
      4674       4675       4686       4685       4795       4796       4807       4806  
      4676       4677       4688       4687       4797       4798       4809       4808  
      4677       4678       4689       4688       4798       4799       4810       4809  
      4678       4679       4690       4689       4799       4800       4811       4810  
      4679       4680       4691       4690       4800       4801       4812       4811  
      4680       4681       4692       4691       4801       4802       4813       4812  
      4681       4682       4693       4692       4802       4803       4814       4813  
      4682       4683       4694       4693       4803       4804       4815       4814  
      4683       4684       4695       4694       4804       4805       4816       4815  
      4684       4685       4696       4695       4805       4806       4817       4816  
      4685       4686       4697       4696       4806       4807       4818       4817  
      4687       4688       4699       4698       4808       4809       4820       4819  
      4688       4689       4700       4699       4809       4810       4821       4820  
      4689       4690       4701       4700       4810       4811       4822       4821  
      4690       4691       4702       4701       4811       4812       4823       4822  
      4691       4692       4703       4702       4812       4813       4824       4823  
      4692       4693       4704       4703       4813       4814       4825       4824  
      4693       4694       4705       4704       4814       4815       4826       4825  
      4694       4695       4706       4705       4815       4816       4827       4826  
      4695       4696       4707       4706       4816       4817       4828       4827  
      4696       4697       4708       4707       4817       4818       4829       4828  
      4698       4699       4710       4709       4819       4820       4831       4830  
      4699       4700       4711       4710       4820       4821       4832       4831  
      4700       4701       4712       4711       4821       4822       4833       4832  
      4701       4702       4713       4712       4822       4823       4834       4833  
      4702       4703       4714       4713       4823       4824       4835       4834  
      4703       4704       4715       4714       4824       4825       4836       4835  
      4704       4705       4716       4715       4825       4826       4837       4836  
      4705       4706       4717       4716       4826       4827       4838       4837  
      4706       4707       4718       4717       4827       4828       4839       4838  
      4707       4708       4719       4718       4828       4829       4840       4839  
      4720       4721       4732       4731       4841       4842       4853       4852  
      4721       4722       4733       4732       4842       4843       4854       4853  
      4722       4723       4734       4733       4843       4844       4855       4854  
      4723       4724       4735       4734       4844       4845       4856       4855  
      4724       4725       4736       4735       4845       4846       4857       4856  
      4725       4726       4737       4736       4846       4847       4858       4857  
      4726       4727       4738       4737       4847       4848       4859       4858  
      4727       4728       4739       4738       4848       4849       4860       4859  
      4728       4729       4740       4739       4849       4850       4861       4860  
      4729       4730       4741       4740       4850       4851       4862       4861  
      4731       4732       4743       4742       4852       4853       4864       4863  
      4732       4733       4744       4743       4853       4854       4865       4864  
      4733       4734       4745       4744       4854       4855       4866       4865  
      4734       4735       4746       4745       4855       4856       4867       4866  
      4735       4736       4747       4746       4856       4857       4868       4867  
      4736       4737       4748       4747       4857       4858       4869       4868  
      4737       4738       4749       4748       4858       4859       4870       4869  
      4738       4739       4750       4749       4859       4860       4871       4870  
      4739       4740       4751       4750       4860       4861       4872       4871  
      4740       4741       4752       4751       4861       4862       4873       4872  
      4742       4743       4754       4753       4863       4864       4875       4874  
      4743       4744       4755       4754       4864       4865       4876       4875  
      4744       4745       4756       4755       4865       4866       4877       4876  
      4745       4746       4757       4756       4866       4867       4878       4877  
      4746       4747       4758       4757       4867       4868       4879       4878  
      4747       4748       4759       4758       4868       4869       4880       4879  
      4748       4749       4760       4759       4869       4870       4881       4880  
      4749       4750       4761       4760       4870       4871       4882       4881  
      4750       4751       4762       4761       4871       4872       4883       4882  
      4751       4752       4763       4762       4872       4873       4884       4883  
      4753       4754       4765       4764       4874       4875       4886       4885  
      4754       4755       4766       4765       4875       4876       4887       4886  
      4755       4756       4767       4766       4876       4877       4888       4887  
      4756       4757       4768       4767       4877       4878       4889       4888  
      4757       4758       4769       4768       4878       4879       4890       4889  
      4758       4759       4770       4769       4879       4880       4891       4890  
      4759       4760       4771       4770       4880       4881       4892       4891  
      4760       4761       4772       4771       4881       4882       4893       4892  
      4761       4762       4773       4772       4882       4883       4894       4893  
      4762       4763       4774       4773       4883       4884       4895       4894  
      4764       4765       4776       4775       4885       4886       4897       4896  
      4765       4766       4777       4776       4886       4887       4898       4897  
      4766       4767       4778       4777       4887       4888       4899       4898  
      4767       4768       4779       4778       4888       4889       4900       4899  
      4768       4769       4780       4779       4889       4890       4901       4900  
      4769       4770       4781       4780       4890       4891       4902       4901  
      4770       4771       4782       4781       4891       4892       4903       4902  
      4771       4772       4783       4782       4892       4893       4904       4903  
      4772       4773       4784       4783       4893       4894       4905       4904  
      4773       4774       4785       4784       4894       4895       4906       4905  
      4775       4776       4787       4786       4896       4897       4908       4907  
      4776       4777       4788       4787       4897       4898       4909       4908  
      4777       4778       4789       4788       4898       4899       4910       4909  
      4778       4779       4790       4789       4899       4900       4911       4910  
      4779       4780       4791       4790       4900       4901       4912       4911  
      4780       4781       4792       4791       4901       4902       4913       4912  
      4781       4782       4793       4792       4902       4903       4914       4913  
      4782       4783       4794       4793       4903       4904       4915       4914  
      4783       4784       4795       4794       4904       4905       4916       4915  
      4784       4785       4796       4795       4905       4906       4917       4916  
      4786       4787       4798       4797       4907       4908       4919       4918  
      4787       4788       4799       4798       4908       4909       4920       4919  
      4788       4789       4800       4799       4909       4910       4921       4920  
      4789       4790       4801       4800       4910       4911       4922       4921  
      4790       4791       4802       4801       4911       4912       4923       4922  
      4791       4792       4803       4802       4912       4913       4924       4923  
      4792       4793       4804       4803       4913       4914       4925       4924  
      4793       4794       4805       4804       4914       4915       4926       4925  
      4794       4795       4806       4805       4915       4916       4927       4926  
      4795       4796       4807       4806       4916       4917       4928       4927  
      4797       4798       4809       4808       4918       4919       4930       4929  
      4798       4799       4810       4809       4919       4920       4931       4930  
      4799       4800       4811       4810       4920       4921       4932       4931  
      4800       4801       4812       4811       4921       4922       4933       4932  
      4801       4802       4813       4812       4922       4923       4934       4933  
      4802       4803       4814       4813       4923       4924       4935       4934  
      4803       4804       4815       4814       4924       4925       4936       4935  
      4804       4805       4816       4815       4925       4926       4937       4936  
      4805       4806       4817       4816       4926       4927       4938       4937  
      4806       4807       4818       4817       4927       4928       4939       4938  
      4808       4809       4820       4819       4929       4930       4941       4940  
      4809       4810       4821       4820       4930       4931       4942       4941  
      4810       4811       4822       4821       4931       4932       4943       4942  
      4811       4812       4823       4822       4932       4933       4944       4943  
      4812       4813       4824       4823       4933       4934       4945       4944  
      4813       4814       4825       4824       4934       4935       4946       4945  
      4814       4815       4826       4825       4935       4936       4947       4946  
      4815       4816       4827       4826       4936       4937       4948       4947  
      4816       4817       4828       4827       4937       4938       4949       4948  
      4817       4818       4829       4828       4938       4939       4950       4949  
      4819       4820       4831       4830       4940       4941       4952       4951  
      4820       4821       4832       4831       4941       4942       4953       4952  
      4821       4822       4833       4832       4942       4943       4954       4953  
      4822       4823       4834       4833       4943       4944       4955       4954  
      4823       4824       4835       4834       4944       4945       4956       4955  
      4824       4825       4836       4835       4945       4946       4957       4956  
      4825       4826       4837       4836       4946       4947       4958       4957  
      4826       4827       4838       4837       4947       4948       4959       4958  
      4827       4828       4839       4838       4948       4949       4960       4959  
      4828       4829       4840       4839       4949       4950       4961       4960  
      4841       4842       4853       4852       4962       4963       4974       4973  
      4842       4843       4854       4853       4963       4964       4975       4974  
      4843       4844       4855       4854       4964       4965       4976       4975  
      4844       4845       4856       4855       4965       4966       4977       4976  
      4845       4846       4857       4856       4966       4967       4978       4977  
      4846       4847       4858       4857       4967       4968       4979       4978  
      4847       4848       4859       4858       4968       4969       4980       4979  
      4848       4849       4860       4859       4969       4970       4981       4980  
      4849       4850       4861       4860       4970       4971       4982       4981  
      4850       4851       4862       4861       4971       4972       4983       4982  
      4852       4853       4864       4863       4973       4974       4985       4984  
      4853       4854       4865       4864       4974       4975       4986       4985  
      4854       4855       4866       4865       4975       4976       4987       4986  
      4855       4856       4867       4866       4976       4977       4988       4987  
      4856       4857       4868       4867       4977       4978       4989       4988  
      4857       4858       4869       4868       4978       4979       4990       4989  
      4858       4859       4870       4869       4979       4980       4991       4990  
      4859       4860       4871       4870       4980       4981       4992       4991  
      4860       4861       4872       4871       4981       4982       4993       4992  
      4861       4862       4873       4872       4982       4983       4994       4993  
      4863       4864       4875       4874       4984       4985       4996       4995  
      4864       4865       4876       4875       4985       4986       4997       4996  
      4865       4866       4877       4876       4986       4987       4998       4997  
      4866       4867       4878       4877       4987       4988       4999       4998  
      4867       4868       4879       4878       4988       4989       5000       4999  
      4868       4869       4880       4879       4989       4990       5001       5000  
      4869       4870       4881       4880       4990       4991       5002       5001  
      4870       4871       4882       4881       4991       4992       5003       5002  
      4871       4872       4883       4882       4992       4993       5004       5003  
      4872       4873       4884       4883       4993       4994       5005       5004  
      4874       4875       4886       4885       4995       4996       5007       5006  
      4875       4876       4887       4886       4996       4997       5008       5007  
      4876       4877       4888       4887       4997       4998       5009       5008  
      4877       4878       4889       4888       4998       4999       5010       5009  
      4878       4879       4890       4889       4999       5000       5011       5010  
      4879       4880       4891       4890       5000       5001       5012       5011  
      4880       4881       4892       4891       5001       5002       5013       5012  
      4881       4882       4893       4892       5002       5003       5014       5013  
      4882       4883       4894       4893       5003       5004       5015       5014  
      4883       4884       4895       4894       5004       5005       5016       5015  
      4885       4886       4897       4896       5006       5007       5018       5017  
      4886       4887       4898       4897       5007       5008       5019       5018  
      4887       4888       4899       4898       5008       5009       5020       5019  
      4888       4889       4900       4899       5009       5010       5021       5020  
      4889       4890       4901       4900       5010       5011       5022       5021  
      4890       4891       4902       4901       5011       5012       5023       5022  
      4891       4892       4903       4902       5012       5013       5024       5023  
      4892       4893       4904       4903       5013       5014       5025       5024  
      4893       4894       4905       4904       5014       5015       5026       5025  
      4894       4895       4906       4905       5015       5016       5027       5026  
      4896       4897       4908       4907       5017       5018       5029       5028  
      4897       4898       4909       4908       5018       5019       5030       5029  
      4898       4899       4910       4909       5019       5020       5031       5030  
      4899       4900       4911       4910       5020       5021       5032       5031  
      4900       4901       4912       4911       5021       5022       5033       5032  
      4901       4902       4913       4912       5022       5023       5034       5033  
      4902       4903       4914       4913       5023       5024       5035       5034  
      4903       4904       4915       4914       5024       5025       5036       5035  
      4904       4905       4916       4915       5025       5026       5037       5036  
      4905       4906       4917       4916       5026       5027       5038       5037  
      4907       4908       4919       4918       5028       5029       5040       5039  
      4908       4909       4920       4919       5029       5030       5041       5040  
      4909       4910       4921       4920       5030       5031       5042       5041  
      4910       4911       4922       4921       5031       5032       5043       5042  
      4911       4912       4923       4922       5032       5033       5044       5043  
      4912       4913       4924       4923       5033       5034       5045       5044  
      4913       4914       4925       4924       5034       5035       5046       5045  
      4914       4915       4926       4925       5035       5036       5047       5046  
      4915       4916       4927       4926       5036       5037       5048       5047  
      4916       4917       4928       4927       5037       5038       5049       5048  
      4918       4919       4930       4929       5039       5040       5051       5050  
      4919       4920       4931       4930       5040       5041       5052       5051  
      4920       4921       4932       4931       5041       5042       5053       5052  
      4921       4922       4933       4932       5042       5043       5054       5053  
      4922       4923       4934       4933       5043       5044       5055       5054  
      4923       4924       4935       4934       5044       5045       5056       5055  
      4924       4925       4936       4935       5045       5046       5057       5056  
      4925       4926       4937       4936       5046       5047       5058       5057  
      4926       4927       4938       4937       5047       5048       5059       5058  
      4927       4928       4939       4938       5048       5049       5060       5059  
      4929       4930       4941       4940       5050       5051       5062       5061  
      4930       4931       4942       4941       5051       5052       5063       5062  
      4931       4932       4943       4942       5052       5053       5064       5063  
      4932       4933       4944       4943       5053       5054       5065       5064  
      4933       4934       4945       4944       5054       5055       5066       5065  
      4934       4935       4946       4945       5055       5056       5067       5066  
      4935       4936       4947       4946       5056       5057       5068       5067  
      4936       4937       4948       4947       5057       5058       5069       5068  
      4937       4938       4949       4948       5058       5059       5070       5069  
      4938       4939       4950       4949       5059       5060       5071       5070  
      4940       4941       4952       4951       5061       5062       5073       5072  
      4941       4942       4953       4952       5062       5063       5074       5073  
      4942       4943       4954       4953       5063       5064       5075       5074  
      4943       4944       4955       4954       5064       5065       5076       5075  
      4944       4945       4956       4955       5065       5066       5077       5076  
      4945       4946       4957       4956       5066       5067       5078       5077  
      4946       4947       4958       4957       5067       5068       5079       5078  
      4947       4948       4959       4958       5068       5069       5080       5079  
      4948       4949       4960       4959       5069       5070       5081       5080  
      4949       4950       4961       4960       5070       5071       5082       5081  
      4962       4963       4974       4973       5083       5084       5095       5094  
      4963       4964       4975       4974       5084       5085       5096       5095  
      4964       4965       4976       4975       5085       5086       5097       5096  
      4965       4966       4977       4976       5086       5087       5098       5097  
      4966       4967       4978       4977       5087       5088       5099       5098  
      4967       4968       4979       4978       5088       5089       5100       5099  
      4968       4969       4980       4979       5089       5090       5101       5100  
      4969       4970       4981       4980       5090       5091       5102       5101  
      4970       4971       4982       4981       5091       5092       5103       5102  
      4971       4972       4983       4982       5092       5093       5104       5103  
      4973       4974       4985       4984       5094       5095       5106       5105  
      4974       4975       4986       4985       5095       5096       5107       5106  
      4975       4976       4987       4986       5096       5097       5108       5107  
      4976       4977       4988       4987       5097       5098       5109       5108  
      4977       4978       4989       4988       5098       5099       5110       5109  
      4978       4979       4990       4989       5099       5100       5111       5110  
      4979       4980       4991       4990       5100       5101       5112       5111  
      4980       4981       4992       4991       5101       5102       5113       5112  
      4981       4982       4993       4992       5102       5103       5114       5113  
      4982       4983       4994       4993       5103       5104       5115       5114  
      4984       4985       4996       4995       5105       5106       5117       5116  
      4985       4986       4997       4996       5106       5107       5118       5117  
      4986       4987       4998       4997       5107       5108       5119       5118  
      4987       4988       4999       4998       5108       5109       5120       5119  
      4988       4989       5000       4999       5109       5110       5121       5120  
      4989       4990       5001       5000       5110       5111       5122       5121  
      4990       4991       5002       5001       5111       5112       5123       5122  
      4991       4992       5003       5002       5112       5113       5124       5123  
      4992       4993       5004       5003       5113       5114       5125       5124  
      4993       4994       5005       5004       5114       5115       5126       5125  
      4995       4996       5007       5006       5116       5117       5128       5127  
      4996       4997       5008       5007       5117       5118       5129       5128  
      4997       4998       5009       5008       5118       5119       5130       5129  
      4998       4999       5010       5009       5119       5120       5131       5130  
      4999       5000       5011       5010       5120       5121       5132       5131  
      5000       5001       5012       5011       5121       5122       5133       5132  
      5001       5002       5013       5012       5122       5123       5134       5133  
      5002       5003       5014       5013       5123       5124       5135       5134  
      5003       5004       5015       5014       5124       5125       5136       5135  
      5004       5005       5016       5015       5125       5126       5137       5136  
      5006       5007       5018       5017       5127       5128       5139       5138  
      5007       5008       5019       5018       5128       5129       5140       5139  
      5008       5009       5020       5019       5129       5130       5141       5140  
      5009       5010       5021       5020       5130       5131       5142       5141  
      5010       5011       5022       5021       5131       5132       5143       5142  
      5011       5012       5023       5022       5132       5133       5144       5143  
      5012       5013       5024       5023       5133       5134       5145       5144  
      5013       5014       5025       5024       5134       5135       5146       5145  
      5014       5015       5026       5025       5135       5136       5147       5146  
      5015       5016       5027       5026       5136       5137       5148       5147  
      5017       5018       5029       5028       5138       5139       5150       5149  
      5018       5019       5030       5029       5139       5140       5151       5150  
      5019       5020       5031       5030       5140       5141       5152       5151  
      5020       5021       5032       5031       5141       5142       5153       5152  
      5021       5022       5033       5032       5142       5143       5154       5153  
      5022       5023       5034       5033       5143       5144       5155       5154  
      5023       5024       5035       5034       5144       5145       5156       5155  
      5024       5025       5036       5035       5145       5146       5157       5156  
      5025       5026       5037       5036       5146       5147       5158       5157  
      5026       5027       5038       5037       5147       5148       5159       5158  
      5028       5029       5040       5039       5149       5150       5161       5160  
      5029       5030       5041       5040       5150       5151       5162       5161  
      5030       5031       5042       5041       5151       5152       5163       5162  
      5031       5032       5043       5042       5152       5153       5164       5163  
      5032       5033       5044       5043       5153       5154       5165       5164  
      5033       5034       5045       5044       5154       5155       5166       5165  
      5034       5035       5046       5045       5155       5156       5167       5166  
      5035       5036       5047       5046       5156       5157       5168       5167  
      5036       5037       5048       5047       5157       5158       5169       5168  
      5037       5038       5049       5048       5158       5159       5170       5169  
      5039       5040       5051       5050       5160       5161       5172       5171  
      5040       5041       5052       5051       5161       5162       5173       5172  
      5041       5042       5053       5052       5162       5163       5174       5173  
      5042       5043       5054       5053       5163       5164       5175       5174  
      5043       5044       5055       5054       5164       5165       5176       5175  
      5044       5045       5056       5055       5165       5166       5177       5176  
      5045       5046       5057       5056       5166       5167       5178       5177  
      5046       5047       5058       5057       5167       5168       5179       5178  
      5047       5048       5059       5058       5168       5169       5180       5179  
      5048       5049       5060       5059       5169       5170       5181       5180  
      5050       5051       5062       5061       5171       5172       5183       5182  
      5051       5052       5063       5062       5172       5173       5184       5183  
      5052       5053       5064       5063       5173       5174       5185       5184  
      5053       5054       5065       5064       5174       5175       5186       5185  
      5054       5055       5066       5065       5175       5176       5187       5186  
      5055       5056       5067       5066       5176       5177       5188       5187  
      5056       5057       5068       5067       5177       5178       5189       5188  
      5057       5058       5069       5068       5178       5179       5190       5189  
      5058       5059       5070       5069       5179       5180       5191       5190  
      5059       5060       5071       5070       5180       5181       5192       5191  
      5061       5062       5073       5072       5182       5183       5194       5193  
      5062       5063       5074       5073       5183       5184       5195       5194  
      5063       5064       5075       5074       5184       5185       5196       5195  
      5064       5065       5076       5075       5185       5186       5197       5196  
      5065       5066       5077       5076       5186       5187       5198       5197  
      5066       5067       5078       5077       5187       5188       5199       5198  
      5067       5068       5079       5078       5188       5189       5200       5199  
      5068       5069       5080       5079       5189       5190       5201       5200  
      5069       5070       5081       5080       5190       5191       5202       5201  
      5070       5071       5082       5081       5191       5192       5203       5202  
      5083       5084       5095       5094       5204       5205       5216       5215  
      5084       5085       5096       5095       5205       5206       5217       5216  
      5085       5086       5097       5096       5206       5207       5218       5217  
      5086       5087       5098       5097       5207       5208       5219       5218  
      5087       5088       5099       5098       5208       5209       5220       5219  
      5088       5089       5100       5099       5209       5210       5221       5220  
      5089       5090       5101       5100       5210       5211       5222       5221  
      5090       5091       5102       5101       5211       5212       5223       5222  
      5091       5092       5103       5102       5212       5213       5224       5223  
      5092       5093       5104       5103       5213       5214       5225       5224  
      5094       5095       5106       5105       5215       5216       5227       5226  
      5095       5096       5107       5106       5216       5217       5228       5227  
      5096       5097       5108       5107       5217       5218       5229       5228  
      5097       5098       5109       5108       5218       5219       5230       5229  
      5098       5099       5110       5109       5219       5220       5231       5230  
      5099       5100       5111       5110       5220       5221       5232       5231  
      5100       5101       5112       5111       5221       5222       5233       5232  
      5101       5102       5113       5112       5222       5223       5234       5233  
      5102       5103       5114       5113       5223       5224       5235       5234  
      5103       5104       5115       5114       5224       5225       5236       5235  
      5105       5106       5117       5116       5226       5227       5238       5237  
      5106       5107       5118       5117       5227       5228       5239       5238  
      5107       5108       5119       5118       5228       5229       5240       5239  
      5108       5109       5120       5119       5229       5230       5241       5240  
      5109       5110       5121       5120       5230       5231       5242       5241  
      5110       5111       5122       5121       5231       5232       5243       5242  
      5111       5112       5123       5122       5232       5233       5244       5243  
      5112       5113       5124       5123       5233       5234       5245       5244  
      5113       5114       5125       5124       5234       5235       5246       5245  
      5114       5115       5126       5125       5235       5236       5247       5246  
      5116       5117       5128       5127       5237       5238       5249       5248  
      5117       5118       5129       5128       5238       5239       5250       5249  
      5118       5119       5130       5129       5239       5240       5251       5250  
      5119       5120       5131       5130       5240       5241       5252       5251  
      5120       5121       5132       5131       5241       5242       5253       5252  
      5121       5122       5133       5132       5242       5243       5254       5253  
      5122       5123       5134       5133       5243       5244       5255       5254  
      5123       5124       5135       5134       5244       5245       5256       5255  
      5124       5125       5136       5135       5245       5246       5257       5256  
      5125       5126       5137       5136       5246       5247       5258       5257  
      5127       5128       5139       5138       5248       5249       5260       5259  
      5128       5129       5140       5139       5249       5250       5261       5260  
      5129       5130       5141       5140       5250       5251       5262       5261  
      5130       5131       5142       5141       5251       5252       5263       5262  
      5131       5132       5143       5142       5252       5253       5264       5263  
      5132       5133       5144       5143       5253       5254       5265       5264  
      5133       5134       5145       5144       5254       5255       5266       5265  
      5134       5135       5146       5145       5255       5256       5267       5266  
      5135       5136       5147       5146       5256       5257       5268       5267  
      5136       5137       5148       5147       5257       5258       5269       5268  
      5138       5139       5150       5149       5259       5260       5271       5270  
      5139       5140       5151       5150       5260       5261       5272       5271  
      5140       5141       5152       5151       5261       5262       5273       5272  
      5141       5142       5153       5152       5262       5263       5274       5273  
      5142       5143       5154       5153       5263       5264       5275       5274  
      5143       5144       5155       5154       5264       5265       5276       5275  
      5144       5145       5156       5155       5265       5266       5277       5276  
      5145       5146       5157       5156       5266       5267       5278       5277  
      5146       5147       5158       5157       5267       5268       5279       5278  
      5147       5148       5159       5158       5268       5269       5280       5279  
      5149       5150       5161       5160       5270       5271       5282       5281  
      5150       5151       5162       5161       5271       5272       5283       5282  
      5151       5152       5163       5162       5272       5273       5284       5283  
      5152       5153       5164       5163       5273       5274       5285       5284  
      5153       5154       5165       5164       5274       5275       5286       5285  
      5154       5155       5166       5165       5275       5276       5287       5286  
      5155       5156       5167       5166       5276       5277       5288       5287  
      5156       5157       5168       5167       5277       5278       5289       5288  
      5157       5158       5169       5168       5278       5279       5290       5289  
      5158       5159       5170       5169       5279       5280       5291       5290  
      5160       5161       5172       5171       5281       5282       5293       5292  
      5161       5162       5173       5172       5282       5283       5294       5293  
      5162       5163       5174       5173       5283       5284       5295       5294  
      5163       5164       5175       5174       5284       5285       5296       5295  
      5164       5165       5176       5175       5285       5286       5297       5296  
      5165       5166       5177       5176       5286       5287       5298       5297  
      5166       5167       5178       5177       5287       5288       5299       5298  
      5167       5168       5179       5178       5288       5289       5300       5299  
      5168       5169       5180       5179       5289       5290       5301       5300  
      5169       5170       5181       5180       5290       5291       5302       5301  
      5171       5172       5183       5182       5292       5293       5304       5303  
      5172       5173       5184       5183       5293       5294       5305       5304  
      5173       5174       5185       5184       5294       5295       5306       5305  
      5174       5175       5186       5185       5295       5296       5307       5306  
      5175       5176       5187       5186       5296       5297       5308       5307  
      5176       5177       5188       5187       5297       5298       5309       5308  
      5177       5178       5189       5188       5298       5299       5310       5309  
      5178       5179       5190       5189       5299       5300       5311       5310  
      5179       5180       5191       5190       5300       5301       5312       5311  
      5180       5181       5192       5191       5301       5302       5313       5312  
      5182       5183       5194       5193       5303       5304       5315       5314  
      5183       5184       5195       5194       5304       5305       5316       5315  
      5184       5185       5196       5195       5305       5306       5317       5316  
      5185       5186       5197       5196       5306       5307       5318       5317  
      5186       5187       5198       5197       5307       5308       5319       5318  
      5187       5188       5199       5198       5308       5309       5320       5319  
      5188       5189       5200       5199       5309       5310       5321       5320  
      5189       5190       5201       5200       5310       5311       5322       5321  
      5190       5191       5202       5201       5311       5312       5323       5322  
      5191       5192       5203       5202       5312       5313       5324       5323  
      5204       5205       5216       5215       5325       5326       5337       5336  
      5205       5206       5217       5216       5326       5327       5338       5337  
      5206       5207       5218       5217       5327       5328       5339       5338  
      5207       5208       5219       5218       5328       5329       5340       5339  
      5208       5209       5220       5219       5329       5330       5341       5340  
      5209       5210       5221       5220       5330       5331       5342       5341  
      5210       5211       5222       5221       5331       5332       5343       5342  
      5211       5212       5223       5222       5332       5333       5344       5343  
      5212       5213       5224       5223       5333       5334       5345       5344  
      5213       5214       5225       5224       5334       5335       5346       5345  
      5215       5216       5227       5226       5336       5337       5348       5347  
      5216       5217       5228       5227       5337       5338       5349       5348  
      5217       5218       5229       5228       5338       5339       5350       5349  
      5218       5219       5230       5229       5339       5340       5351       5350  
      5219       5220       5231       5230       5340       5341       5352       5351  
      5220       5221       5232       5231       5341       5342       5353       5352  
      5221       5222       5233       5232       5342       5343       5354       5353  
      5222       5223       5234       5233       5343       5344       5355       5354  
      5223       5224       5235       5234       5344       5345       5356       5355  
      5224       5225       5236       5235       5345       5346       5357       5356  
      5226       5227       5238       5237       5347       5348       5359       5358  
      5227       5228       5239       5238       5348       5349       5360       5359  
      5228       5229       5240       5239       5349       5350       5361       5360  
      5229       5230       5241       5240       5350       5351       5362       5361  
      5230       5231       5242       5241       5351       5352       5363       5362  
      5231       5232       5243       5242       5352       5353       5364       5363  
      5232       5233       5244       5243       5353       5354       5365       5364  
      5233       5234       5245       5244       5354       5355       5366       5365  
      5234       5235       5246       5245       5355       5356       5367       5366  
      5235       5236       5247       5246       5356       5357       5368       5367  
      5237       5238       5249       5248       5358       5359       5370       5369  
      5238       5239       5250       5249       5359       5360       5371       5370  
      5239       5240       5251       5250       5360       5361       5372       5371  
      5240       5241       5252       5251       5361       5362       5373       5372  
      5241       5242       5253       5252       5362       5363       5374       5373  
      5242       5243       5254       5253       5363       5364       5375       5374  
      5243       5244       5255       5254       5364       5365       5376       5375  
      5244       5245       5256       5255       5365       5366       5377       5376  
      5245       5246       5257       5256       5366       5367       5378       5377  
      5246       5247       5258       5257       5367       5368       5379       5378  
      5248       5249       5260       5259       5369       5370       5381       5380  
      5249       5250       5261       5260       5370       5371       5382       5381  
      5250       5251       5262       5261       5371       5372       5383       5382  
      5251       5252       5263       5262       5372       5373       5384       5383  
      5252       5253       5264       5263       5373       5374       5385       5384  
      5253       5254       5265       5264       5374       5375       5386       5385  
      5254       5255       5266       5265       5375       5376       5387       5386  
      5255       5256       5267       5266       5376       5377       5388       5387  
      5256       5257       5268       5267       5377       5378       5389       5388  
      5257       5258       5269       5268       5378       5379       5390       5389  
      5259       5260       5271       5270       5380       5381       5392       5391  
      5260       5261       5272       5271       5381       5382       5393       5392  
      5261       5262       5273       5272       5382       5383       5394       5393  
      5262       5263       5274       5273       5383       5384       5395       5394  
      5263       5264       5275       5274       5384       5385       5396       5395  
      5264       5265       5276       5275       5385       5386       5397       5396  
      5265       5266       5277       5276       5386       5387       5398       5397  
      5266       5267       5278       5277       5387       5388       5399       5398  
      5267       5268       5279       5278       5388       5389       5400       5399  
      5268       5269       5280       5279       5389       5390       5401       5400  
      5270       5271       5282       5281       5391       5392       5403       5402  
      5271       5272       5283       5282       5392       5393       5404       5403  
      5272       5273       5284       5283       5393       5394       5405       5404  
      5273       5274       5285       5284       5394       5395       5406       5405  
      5274       5275       5286       5285       5395       5396       5407       5406  
      5275       5276       5287       5286       5396       5397       5408       5407  
      5276       5277       5288       5287       5397       5398       5409       5408  
      5277       5278       5289       5288       5398       5399       5410       5409  
      5278       5279       5290       5289       5399       5400       5411       5410  
      5279       5280       5291       5290       5400       5401       5412       5411  
      5281       5282       5293       5292       5402       5403       5414       5413  
      5282       5283       5294       5293       5403       5404       5415       5414  
      5283       5284       5295       5294       5404       5405       5416       5415  
      5284       5285       5296       5295       5405       5406       5417       5416  
      5285       5286       5297       5296       5406       5407       5418       5417  
      5286       5287       5298       5297       5407       5408       5419       5418  
      5287       5288       5299       5298       5408       5409       5420       5419  
      5288       5289       5300       5299       5409       5410       5421       5420  
      5289       5290       5301       5300       5410       5411       5422       5421  
      5290       5291       5302       5301       5411       5412       5423       5422  
      5292       5293       5304       5303       5413       5414       5425       5424  
      5293       5294       5305       5304       5414       5415       5426       5425  
      5294       5295       5306       5305       5415       5416       5427       5426  
      5295       5296       5307       5306       5416       5417       5428       5427  
      5296       5297       5308       5307       5417       5418       5429       5428  
      5297       5298       5309       5308       5418       5419       5430       5429  
      5298       5299       5310       5309       5419       5420       5431       5430  
      5299       5300       5311       5310       5420       5421       5432       5431  
      5300       5301       5312       5311       5421       5422       5433       5432  
      5301       5302       5313       5312       5422       5423       5434       5433  
      5303       5304       5315       5314       5424       5425       5436       5435  
      5304       5305       5316       5315       5425       5426       5437       5436  
      5305       5306       5317       5316       5426       5427       5438       5437  
      5306       5307       5318       5317       5427       5428       5439       5438  
      5307       5308       5319       5318       5428       5429       5440       5439  
      5308       5309       5320       5319       5429       5430       5441       5440  
      5309       5310       5321       5320       5430       5431       5442       5441  
      5310       5311       5322       5321       5431       5432       5443       5442  
      5311       5312       5323       5322       5432       5433       5444       5443  
      5312       5313       5324       5323       5433       5434       5445       5444  
      5325       5326       5337       5336       5446       5447       5458       5457  
      5326       5327       5338       5337       5447       5448       5459       5458  
      5327       5328       5339       5338       5448       5449       5460       5459  
      5328       5329       5340       5339       5449       5450       5461       5460  
      5329       5330       5341       5340       5450       5451       5462       5461  
      5330       5331       5342       5341       5451       5452       5463       5462  
      5331       5332       5343       5342       5452       5453       5464       5463  
      5332       5333       5344       5343       5453       5454       5465       5464  
      5333       5334       5345       5344       5454       5455       5466       5465  
      5334       5335       5346       5345       5455       5456       5467       5466  
      5336       5337       5348       5347       5457       5458       5469       5468  
      5337       5338       5349       5348       5458       5459       5470       5469  
      5338       5339       5350       5349       5459       5460       5471       5470  
      5339       5340       5351       5350       5460       5461       5472       5471  
      5340       5341       5352       5351       5461       5462       5473       5472  
      5341       5342       5353       5352       5462       5463       5474       5473  
      5342       5343       5354       5353       5463       5464       5475       5474  
      5343       5344       5355       5354       5464       5465       5476       5475  
      5344       5345       5356       5355       5465       5466       5477       5476  
      5345       5346       5357       5356       5466       5467       5478       5477  
      5347       5348       5359       5358       5468       5469       5480       5479  
      5348       5349       5360       5359       5469       5470       5481       5480  
      5349       5350       5361       5360       5470       5471       5482       5481  
      5350       5351       5362       5361       5471       5472       5483       5482  
      5351       5352       5363       5362       5472       5473       5484       5483  
      5352       5353       5364       5363       5473       5474       5485       5484  
      5353       5354       5365       5364       5474       5475       5486       5485  
      5354       5355       5366       5365       5475       5476       5487       5486  
      5355       5356       5367       5366       5476       5477       5488       5487  
      5356       5357       5368       5367       5477       5478       5489       5488  
      5358       5359       5370       5369       5479       5480       5491       5490  
      5359       5360       5371       5370       5480       5481       5492       5491  
      5360       5361       5372       5371       5481       5482       5493       5492  
      5361       5362       5373       5372       5482       5483       5494       5493  
      5362       5363       5374       5373       5483       5484       5495       5494  
      5363       5364       5375       5374       5484       5485       5496       5495  
      5364       5365       5376       5375       5485       5486       5497       5496  
      5365       5366       5377       5376       5486       5487       5498       5497  
      5366       5367       5378       5377       5487       5488       5499       5498  
      5367       5368       5379       5378       5488       5489       5500       5499  
      5369       5370       5381       5380       5490       5491       5502       5501  
      5370       5371       5382       5381       5491       5492       5503       5502  
      5371       5372       5383       5382       5492       5493       5504       5503  
      5372       5373       5384       5383       5493       5494       5505       5504  
      5373       5374       5385       5384       5494       5495       5506       5505  
      5374       5375       5386       5385       5495       5496       5507       5506  
      5375       5376       5387       5386       5496       5497       5508       5507  
      5376       5377       5388       5387       5497       5498       5509       5508  
      5377       5378       5389       5388       5498       5499       5510       5509  
      5378       5379       5390       5389       5499       5500       5511       5510  
      5380       5381       5392       5391       5501       5502       5513       5512  
      5381       5382       5393       5392       5502       5503       5514       5513  
      5382       5383       5394       5393       5503       5504       5515       5514  
      5383       5384       5395       5394       5504       5505       5516       5515  
      5384       5385       5396       5395       5505       5506       5517       5516  
      5385       5386       5397       5396       5506       5507       5518       5517  
      5386       5387       5398       5397       5507       5508       5519       5518  
      5387       5388       5399       5398       5508       5509       5520       5519  
      5388       5389       5400       5399       5509       5510       5521       5520  
      5389       5390       5401       5400       5510       5511       5522       5521  
      5391       5392       5403       5402       5512       5513       5524       5523  
      5392       5393       5404       5403       5513       5514       5525       5524  
      5393       5394       5405       5404       5514       5515       5526       5525  
      5394       5395       5406       5405       5515       5516       5527       5526  
      5395       5396       5407       5406       5516       5517       5528       5527  
      5396       5397       5408       5407       5517       5518       5529       5528  
      5397       5398       5409       5408       5518       5519       5530       5529  
      5398       5399       5410       5409       5519       5520       5531       5530  
      5399       5400       5411       5410       5520       5521       5532       5531  
      5400       5401       5412       5411       5521       5522       5533       5532  
      5402       5403       5414       5413       5523       5524       5535       5534  
      5403       5404       5415       5414       5524       5525       5536       5535  
      5404       5405       5416       5415       5525       5526       5537       5536  
      5405       5406       5417       5416       5526       5527       5538       5537  
      5406       5407       5418       5417       5527       5528       5539       5538  
      5407       5408       5419       5418       5528       5529       5540       5539  
      5408       5409       5420       5419       5529       5530       5541       5540  
      5409       5410       5421       5420       5530       5531       5542       5541  
      5410       5411       5422       5421       5531       5532       5543       5542  
      5411       5412       5423       5422       5532       5533       5544       5543  
      5413       5414       5425       5424       5534       5535       5546       5545  
      5414       5415       5426       5425       5535       5536       5547       5546  
      5415       5416       5427       5426       5536       5537       5548       5547  
      5416       5417       5428       5427       5537       5538       5549       5548  
      5417       5418       5429       5428       5538       5539       5550       5549  
      5418       5419       5430       5429       5539       5540       5551       5550  
      5419       5420       5431       5430       5540       5541       5552       5551  
      5420       5421       5432       5431       5541       5542       5553       5552  
      5421       5422       5433       5432       5542       5543       5554       5553  
      5422       5423       5434       5433       5543       5544       5555       5554  
      5424       5425       5436       5435       5545       5546       5557       5556  
      5425       5426       5437       5436       5546       5547       5558       5557  
      5426       5427       5438       5437       5547       5548       5559       5558  
      5427       5428       5439       5438       5548       5549       5560       5559  
      5428       5429       5440       5439       5549       5550       5561       5560  
      5429       5430       5441       5440       5550       5551       5562       5561  
      5430       5431       5442       5441       5551       5552       5563       5562  
      5431       5432       5443       5442       5552       5553       5564       5563  
      5432       5433       5444       5443       5553       5554       5565       5564  
      5433       5434       5445       5444       5554       5555       5566       5565  
      5446       5447       5458       5457       5567       5568       5579       5578  
      5447       5448       5459       5458       5568       5569       5580       5579  
      5448       5449       5460       5459       5569       5570       5581       5580  
      5449       5450       5461       5460       5570       5571       5582       5581  
      5450       5451       5462       5461       5571       5572       5583       5582  
      5451       5452       5463       5462       5572       5573       5584       5583  
      5452       5453       5464       5463       5573       5574       5585       5584  
      5453       5454       5465       5464       5574       5575       5586       5585  
      5454       5455       5466       5465       5575       5576       5587       5586  
      5455       5456       5467       5466       5576       5577       5588       5587  
      5457       5458       5469       5468       5578       5579       5590       5589  
      5458       5459       5470       5469       5579       5580       5591       5590  
      5459       5460       5471       5470       5580       5581       5592       5591  
      5460       5461       5472       5471       5581       5582       5593       5592  
      5461       5462       5473       5472       5582       5583       5594       5593  
      5462       5463       5474       5473       5583       5584       5595       5594  
      5463       5464       5475       5474       5584       5585       5596       5595  
      5464       5465       5476       5475       5585       5586       5597       5596  
      5465       5466       5477       5476       5586       5587       5598       5597  
      5466       5467       5478       5477       5587       5588       5599       5598  
      5468       5469       5480       5479       5589       5590       5601       5600  
      5469       5470       5481       5480       5590       5591       5602       5601  
      5470       5471       5482       5481       5591       5592       5603       5602  
      5471       5472       5483       5482       5592       5593       5604       5603  
      5472       5473       5484       5483       5593       5594       5605       5604  
      5473       5474       5485       5484       5594       5595       5606       5605  
      5474       5475       5486       5485       5595       5596       5607       5606  
      5475       5476       5487       5486       5596       5597       5608       5607  
      5476       5477       5488       5487       5597       5598       5609       5608  
      5477       5478       5489       5488       5598       5599       5610       5609  
      5479       5480       5491       5490       5600       5601       5612       5611  
      5480       5481       5492       5491       5601       5602       5613       5612  
      5481       5482       5493       5492       5602       5603       5614       5613  
      5482       5483       5494       5493       5603       5604       5615       5614  
      5483       5484       5495       5494       5604       5605       5616       5615  
      5484       5485       5496       5495       5605       5606       5617       5616  
      5485       5486       5497       5496       5606       5607       5618       5617  
      5486       5487       5498       5497       5607       5608       5619       5618  
      5487       5488       5499       5498       5608       5609       5620       5619  
      5488       5489       5500       5499       5609       5610       5621       5620  
      5490       5491       5502       5501       5611       5612       5623       5622  
      5491       5492       5503       5502       5612       5613       5624       5623  
      5492       5493       5504       5503       5613       5614       5625       5624  
      5493       5494       5505       5504       5614       5615       5626       5625  
      5494       5495       5506       5505       5615       5616       5627       5626  
      5495       5496       5507       5506       5616       5617       5628       5627  
      5496       5497       5508       5507       5617       5618       5629       5628  
      5497       5498       5509       5508       5618       5619       5630       5629  
      5498       5499       5510       5509       5619       5620       5631       5630  
      5499       5500       5511       5510       5620       5621       5632       5631  
      5501       5502       5513       5512       5622       5623       5634       5633  
      5502       5503       5514       5513       5623       5624       5635       5634  
      5503       5504       5515       5514       5624       5625       5636       5635  
      5504       5505       5516       5515       5625       5626       5637       5636  
      5505       5506       5517       5516       5626       5627       5638       5637  
      5506       5507       5518       5517       5627       5628       5639       5638  
      5507       5508       5519       5518       5628       5629       5640       5639  
      5508       5509       5520       5519       5629       5630       5641       5640  
      5509       5510       5521       5520       5630       5631       5642       5641  
      5510       5511       5522       5521       5631       5632       5643       5642  
      5512       5513       5524       5523       5633       5634       5645       5644  
      5513       5514       5525       5524       5634       5635       5646       5645  
      5514       5515       5526       5525       5635       5636       5647       5646  
      5515       5516       5527       5526       5636       5637       5648       5647  
      5516       5517       5528       5527       5637       5638       5649       5648  
      5517       5518       5529       5528       5638       5639       5650       5649  
      5518       5519       5530       5529       5639       5640       5651       5650  
      5519       5520       5531       5530       5640       5641       5652       5651  
      5520       5521       5532       5531       5641       5642       5653       5652  
      5521       5522       5533       5532       5642       5643       5654       5653  
      5523       5524       5535       5534       5644       5645       5656       5655  
      5524       5525       5536       5535       5645       5646       5657       5656  
      5525       5526       5537       5536       5646       5647       5658       5657  
      5526       5527       5538       5537       5647       5648       5659       5658  
      5527       5528       5539       5538       5648       5649       5660       5659  
      5528       5529       5540       5539       5649       5650       5661       5660  
      5529       5530       5541       5540       5650       5651       5662       5661  
      5530       5531       5542       5541       5651       5652       5663       5662  
      5531       5532       5543       5542       5652       5653       5664       5663  
      5532       5533       5544       5543       5653       5654       5665       5664  
      5534       5535       5546       5545       5655       5656       5667       5666  
      5535       5536       5547       5546       5656       5657       5668       5667  
      5536       5537       5548       5547       5657       5658       5669       5668  
      5537       5538       5549       5548       5658       5659       5670       5669  
      5538       5539       5550       5549       5659       5660       5671       5670  
      5539       5540       5551       5550       5660       5661       5672       5671  
      5540       5541       5552       5551       5661       5662       5673       5672  
      5541       5542       5553       5552       5662       5663       5674       5673  
      5542       5543       5554       5553       5663       5664       5675       5674  
      5543       5544       5555       5554       5664       5665       5676       5675  
      5545       5546       5557       5556       5666       5667       5678       5677  
      5546       5547       5558       5557       5667       5668       5679       5678  
      5547       5548       5559       5558       5668       5669       5680       5679  
      5548       5549       5560       5559       5669       5670       5681       5680  
      5549       5550       5561       5560       5670       5671       5682       5681  
      5550       5551       5562       5561       5671       5672       5683       5682  
      5551       5552       5563       5562       5672       5673       5684       5683  
      5552       5553       5564       5563       5673       5674       5685       5684  
      5553       5554       5565       5564       5674       5675       5686       5685  
      5554       5555       5566       5565       5675       5676       5687       5686  
      5567       5568       5579       5578       5688       5689       5700       5699  
      5568       5569       5580       5579       5689       5690       5701       5700  
      5569       5570       5581       5580       5690       5691       5702       5701  
      5570       5571       5582       5581       5691       5692       5703       5702  
      5571       5572       5583       5582       5692       5693       5704       5703  
      5572       5573       5584       5583       5693       5694       5705       5704  
      5573       5574       5585       5584       5694       5695       5706       5705  
      5574       5575       5586       5585       5695       5696       5707       5706  
      5575       5576       5587       5586       5696       5697       5708       5707  
      5576       5577       5588       5587       5697       5698       5709       5708  
      5578       5579       5590       5589       5699       5700       5711       5710  
      5579       5580       5591       5590       5700       5701       5712       5711  
      5580       5581       5592       5591       5701       5702       5713       5712  
      5581       5582       5593       5592       5702       5703       5714       5713  
      5582       5583       5594       5593       5703       5704       5715       5714  
      5583       5584       5595       5594       5704       5705       5716       5715  
      5584       5585       5596       5595       5705       5706       5717       5716  
      5585       5586       5597       5596       5706       5707       5718       5717  
      5586       5587       5598       5597       5707       5708       5719       5718  
      5587       5588       5599       5598       5708       5709       5720       5719  
      5589       5590       5601       5600       5710       5711       5722       5721  
      5590       5591       5602       5601       5711       5712       5723       5722  
      5591       5592       5603       5602       5712       5713       5724       5723  
      5592       5593       5604       5603       5713       5714       5725       5724  
      5593       5594       5605       5604       5714       5715       5726       5725  
      5594       5595       5606       5605       5715       5716       5727       5726  
      5595       5596       5607       5606       5716       5717       5728       5727  
      5596       5597       5608       5607       5717       5718       5729       5728  
      5597       5598       5609       5608       5718       5719       5730       5729  
      5598       5599       5610       5609       5719       5720       5731       5730  
      5600       5601       5612       5611       5721       5722       5733       5732  
      5601       5602       5613       5612       5722       5723       5734       5733  
      5602       5603       5614       5613       5723       5724       5735       5734  
      5603       5604       5615       5614       5724       5725       5736       5735  
      5604       5605       5616       5615       5725       5726       5737       5736  
      5605       5606       5617       5616       5726       5727       5738       5737  
      5606       5607       5618       5617       5727       5728       5739       5738  
      5607       5608       5619       5618       5728       5729       5740       5739  
      5608       5609       5620       5619       5729       5730       5741       5740  
      5609       5610       5621       5620       5730       5731       5742       5741  
      5611       5612       5623       5622       5732       5733       5744       5743  
      5612       5613       5624       5623       5733       5734       5745       5744  
      5613       5614       5625       5624       5734       5735       5746       5745  
      5614       5615       5626       5625       5735       5736       5747       5746  
      5615       5616       5627       5626       5736       5737       5748       5747  
      5616       5617       5628       5627       5737       5738       5749       5748  
      5617       5618       5629       5628       5738       5739       5750       5749  
      5618       5619       5630       5629       5739       5740       5751       5750  
      5619       5620       5631       5630       5740       5741       5752       5751  
      5620       5621       5632       5631       5741       5742       5753       5752  
      5622       5623       5634       5633       5743       5744       5755       5754  
      5623       5624       5635       5634       5744       5745       5756       5755  
      5624       5625       5636       5635       5745       5746       5757       5756  
      5625       5626       5637       5636       5746       5747       5758       5757  
      5626       5627       5638       5637       5747       5748       5759       5758  
      5627       5628       5639       5638       5748       5749       5760       5759  
      5628       5629       5640       5639       5749       5750       5761       5760  
      5629       5630       5641       5640       5750       5751       5762       5761  
      5630       5631       5642       5641       5751       5752       5763       5762  
      5631       5632       5643       5642       5752       5753       5764       5763  
      5633       5634       5645       5644       5754       5755       5766       5765  
      5634       5635       5646       5645       5755       5756       5767       5766  
      5635       5636       5647       5646       5756       5757       5768       5767  
      5636       5637       5648       5647       5757       5758       5769       5768  
      5637       5638       5649       5648       5758       5759       5770       5769  
      5638       5639       5650       5649       5759       5760       5771       5770  
      5639       5640       5651       5650       5760       5761       5772       5771  
      5640       5641       5652       5651       5761       5762       5773       5772  
      5641       5642       5653       5652       5762       5763       5774       5773  
      5642       5643       5654       5653       5763       5764       5775       5774  
      5644       5645       5656       5655       5765       5766       5777       5776  
      5645       5646       5657       5656       5766       5767       5778       5777  
      5646       5647       5658       5657       5767       5768       5779       5778  
      5647       5648       5659       5658       5768       5769       5780       5779  
      5648       5649       5660       5659       5769       5770       5781       5780  
      5649       5650       5661       5660       5770       5771       5782       5781  
      5650       5651       5662       5661       5771       5772       5783       5782  
      5651       5652       5663       5662       5772       5773       5784       5783  
      5652       5653       5664       5663       5773       5774       5785       5784  
      5653       5654       5665       5664       5774       5775       5786       5785  
      5655       5656       5667       5666       5776       5777       5788       5787  
      5656       5657       5668       5667       5777       5778       5789       5788  
      5657       5658       5669       5668       5778       5779       5790       5789  
      5658       5659       5670       5669       5779       5780       5791       5790  
      5659       5660       5671       5670       5780       5781       5792       5791  
      5660       5661       5672       5671       5781       5782       5793       5792  
      5661       5662       5673       5672       5782       5783       5794       5793  
      5662       5663       5674       5673       5783       5784       5795       5794  
      5663       5664       5675       5674       5784       5785       5796       5795  
      5664       5665       5676       5675       5785       5786       5797       5796  
      5666       5667       5678       5677       5787       5788       5799       5798  
      5667       5668       5679       5678       5788       5789       5800       5799  
      5668       5669       5680       5679       5789       5790       5801       5800  
      5669       5670       5681       5680       5790       5791       5802       5801  
      5670       5671       5682       5681       5791       5792       5803       5802  
      5671       5672       5683       5682       5792       5793       5804       5803  
      5672       5673       5684       5683       5793       5794       5805       5804  
      5673       5674       5685       5684       5794       5795       5806       5805  
      5674       5675       5686       5685       5795       5796       5807       5806  
      5675       5676       5687       5686       5796       5797       5808       5807  
      5688       5689       5700       5699       5809       5810       5821       5820  
      5689       5690       5701       5700       5810       5811       5822       5821  
      5690       5691       5702       5701       5811       5812       5823       5822  
      5691       5692       5703       5702       5812       5813       5824       5823  
      5692       5693       5704       5703       5813       5814       5825       5824  
      5693       5694       5705       5704       5814       5815       5826       5825  
      5694       5695       5706       5705       5815       5816       5827       5826  
      5695       5696       5707       5706       5816       5817       5828       5827  
      5696       5697       5708       5707       5817       5818       5829       5828  
      5697       5698       5709       5708       5818       5819       5830       5829  
      5699       5700       5711       5710       5820       5821       5832       5831  
      5700       5701       5712       5711       5821       5822       5833       5832  
      5701       5702       5713       5712       5822       5823       5834       5833  
      5702       5703       5714       5713       5823       5824       5835       5834  
      5703       5704       5715       5714       5824       5825       5836       5835  
      5704       5705       5716       5715       5825       5826       5837       5836  
      5705       5706       5717       5716       5826       5827       5838       5837  
      5706       5707       5718       5717       5827       5828       5839       5838  
      5707       5708       5719       5718       5828       5829       5840       5839  
      5708       5709       5720       5719       5829       5830       5841       5840  
      5710       5711       5722       5721       5831       5832       5843       5842  
      5711       5712       5723       5722       5832       5833       5844       5843  
      5712       5713       5724       5723       5833       5834       5845       5844  
      5713       5714       5725       5724       5834       5835       5846       5845  
      5714       5715       5726       5725       5835       5836       5847       5846  
      5715       5716       5727       5726       5836       5837       5848       5847  
      5716       5717       5728       5727       5837       5838       5849       5848  
      5717       5718       5729       5728       5838       5839       5850       5849  
      5718       5719       5730       5729       5839       5840       5851       5850  
      5719       5720       5731       5730       5840       5841       5852       5851  
      5721       5722       5733       5732       5842       5843       5854       5853  
      5722       5723       5734       5733       5843       5844       5855       5854  
      5723       5724       5735       5734       5844       5845       5856       5855  
      5724       5725       5736       5735       5845       5846       5857       5856  
      5725       5726       5737       5736       5846       5847       5858       5857  
      5726       5727       5738       5737       5847       5848       5859       5858  
      5727       5728       5739       5738       5848       5849       5860       5859  
      5728       5729       5740       5739       5849       5850       5861       5860  
      5729       5730       5741       5740       5850       5851       5862       5861  
      5730       5731       5742       5741       5851       5852       5863       5862  
      5732       5733       5744       5743       5853       5854       5865       5864  
      5733       5734       5745       5744       5854       5855       5866       5865  
      5734       5735       5746       5745       5855       5856       5867       5866  
      5735       5736       5747       5746       5856       5857       5868       5867  
      5736       5737       5748       5747       5857       5858       5869       5868  
      5737       5738       5749       5748       5858       5859       5870       5869  
      5738       5739       5750       5749       5859       5860       5871       5870  
      5739       5740       5751       5750       5860       5861       5872       5871  
      5740       5741       5752       5751       5861       5862       5873       5872  
      5741       5742       5753       5752       5862       5863       5874       5873  
      5743       5744       5755       5754       5864       5865       5876       5875  
      5744       5745       5756       5755       5865       5866       5877       5876  
      5745       5746       5757       5756       5866       5867       5878       5877  
      5746       5747       5758       5757       5867       5868       5879       5878  
      5747       5748       5759       5758       5868       5869       5880       5879  
      5748       5749       5760       5759       5869       5870       5881       5880  
      5749       5750       5761       5760       5870       5871       5882       5881  
      5750       5751       5762       5761       5871       5872       5883       5882  
      5751       5752       5763       5762       5872       5873       5884       5883  
      5752       5753       5764       5763       5873       5874       5885       5884  
      5754       5755       5766       5765       5875       5876       5887       5886  
      5755       5756       5767       5766       5876       5877       5888       5887  
      5756       5757       5768       5767       5877       5878       5889       5888  
      5757       5758       5769       5768       5878       5879       5890       5889  
      5758       5759       5770       5769       5879       5880       5891       5890  
      5759       5760       5771       5770       5880       5881       5892       5891  
      5760       5761       5772       5771       5881       5882       5893       5892  
      5761       5762       5773       5772       5882       5883       5894       5893  
      5762       5763       5774       5773       5883       5884       5895       5894  
      5763       5764       5775       5774       5884       5885       5896       5895  
      5765       5766       5777       5776       5886       5887       5898       5897  
      5766       5767       5778       5777       5887       5888       5899       5898  
      5767       5768       5779       5778       5888       5889       5900       5899  
      5768       5769       5780       5779       5889       5890       5901       5900  
      5769       5770       5781       5780       5890       5891       5902       5901  
      5770       5771       5782       5781       5891       5892       5903       5902  
      5771       5772       5783       5782       5892       5893       5904       5903  
      5772       5773       5784       5783       5893       5894       5905       5904  
      5773       5774       5785       5784       5894       5895       5906       5905  
      5774       5775       5786       5785       5895       5896       5907       5906  
      5776       5777       5788       5787       5897       5898       5909       5908  
      5777       5778       5789       5788       5898       5899       5910       5909  
      5778       5779       5790       5789       5899       5900       5911       5910  
      5779       5780       5791       5790       5900       5901       5912       5911  
      5780       5781       5792       5791       5901       5902       5913       5912  
      5781       5782       5793       5792       5902       5903       5914       5913  
      5782       5783       5794       5793       5903       5904       5915       5914  
      5783       5784       5795       5794       5904       5905       5916       5915  
      5784       5785       5796       5795       5905       5906       5917       5916  
      5785       5786       5797       5796       5906       5907       5918       5917  
      5787       5788       5799       5798       5908       5909       5920       5919  
      5788       5789       5800       5799       5909       5910       5921       5920  
      5789       5790       5801       5800       5910       5911       5922       5921  
      5790       5791       5802       5801       5911       5912       5923       5922  
      5791       5792       5803       5802       5912       5913       5924       5923  
      5792       5793       5804       5803       5913       5914       5925       5924  
      5793       5794       5805       5804       5914       5915       5926       5925  
      5794       5795       5806       5805       5915       5916       5927       5926  
      5795       5796       5807       5806       5916       5917       5928       5927  
      5796       5797       5808       5807       5917       5918       5929       5928  
      5809       5810       5821       5820       5930       5931       5942       5941  
      5810       5811       5822       5821       5931       5932       5943       5942  
      5811       5812       5823       5822       5932       5933       5944       5943  
      5812       5813       5824       5823       5933       5934       5945       5944  
      5813       5814       5825       5824       5934       5935       5946       5945  
      5814       5815       5826       5825       5935       5936       5947       5946  
      5815       5816       5827       5826       5936       5937       5948       5947  
      5816       5817       5828       5827       5937       5938       5949       5948  
      5817       5818       5829       5828       5938       5939       5950       5949  
      5818       5819       5830       5829       5939       5940       5951       5950  
      5820       5821       5832       5831       5941       5942       5953       5952  
      5821       5822       5833       5832       5942       5943       5954       5953  
      5822       5823       5834       5833       5943       5944       5955       5954  
      5823       5824       5835       5834       5944       5945       5956       5955  
      5824       5825       5836       5835       5945       5946       5957       5956  
      5825       5826       5837       5836       5946       5947       5958       5957  
      5826       5827       5838       5837       5947       5948       5959       5958  
      5827       5828       5839       5838       5948       5949       5960       5959  
      5828       5829       5840       5839       5949       5950       5961       5960  
      5829       5830       5841       5840       5950       5951       5962       5961  
      5831       5832       5843       5842       5952       5953       5964       5963  
      5832       5833       5844       5843       5953       5954       5965       5964  
      5833       5834       5845       5844       5954       5955       5966       5965  
      5834       5835       5846       5845       5955       5956       5967       5966  
      5835       5836       5847       5846       5956       5957       5968       5967  
      5836       5837       5848       5847       5957       5958       5969       5968  
      5837       5838       5849       5848       5958       5959       5970       5969  
      5838       5839       5850       5849       5959       5960       5971       5970  
      5839       5840       5851       5850       5960       5961       5972       5971  
      5840       5841       5852       5851       5961       5962       5973       5972  
      5842       5843       5854       5853       5963       5964       5975       5974  
      5843       5844       5855       5854       5964       5965       5976       5975  
      5844       5845       5856       5855       5965       5966       5977       5976  
      5845       5846       5857       5856       5966       5967       5978       5977  
      5846       5847       5858       5857       5967       5968       5979       5978  
      5847       5848       5859       5858       5968       5969       5980       5979  
      5848       5849       5860       5859       5969       5970       5981       5980  
      5849       5850       5861       5860       5970       5971       5982       5981  
      5850       5851       5862       5861       5971       5972       5983       5982  
      5851       5852       5863       5862       5972       5973       5984       5983  
      5853       5854       5865       5864       5974       5975       5986       5985  
      5854       5855       5866       5865       5975       5976       5987       5986  
      5855       5856       5867       5866       5976       5977       5988       5987  
      5856       5857       5868       5867       5977       5978       5989       5988  
      5857       5858       5869       5868       5978       5979       5990       5989  
      5858       5859       5870       5869       5979       5980       5991       5990  
      5859       5860       5871       5870       5980       5981       5992       5991  
      5860       5861       5872       5871       5981       5982       5993       5992  
      5861       5862       5873       5872       5982       5983       5994       5993  
      5862       5863       5874       5873       5983       5984       5995       5994  
      5864       5865       5876       5875       5985       5986       5997       5996  
      5865       5866       5877       5876       5986       5987       5998       5997  
      5866       5867       5878       5877       5987       5988       5999       5998  
      5867       5868       5879       5878       5988       5989       6000       5999  
      5868       5869       5880       5879       5989       5990       6001       6000  
      5869       5870       5881       5880       5990       5991       6002       6001  
      5870       5871       5882       5881       5991       5992       6003       6002  
      5871       5872       5883       5882       5992       5993       6004       6003  
      5872       5873       5884       5883       5993       5994       6005       6004  
      5873       5874       5885       5884       5994       5995       6006       6005  
      5875       5876       5887       5886       5996       5997       6008       6007  
      5876       5877       5888       5887       5997       5998       6009       6008  
      5877       5878       5889       5888       5998       5999       6010       6009  
      5878       5879       5890       5889       5999       6000       6011       6010  
      5879       5880       5891       5890       6000       6001       6012       6011  
      5880       5881       5892       5891       6001       6002       6013       6012  
      5881       5882       5893       5892       6002       6003       6014       6013  
      5882       5883       5894       5893       6003       6004       6015       6014  
      5883       5884       5895       5894       6004       6005       6016       6015  
      5884       5885       5896       5895       6005       6006       6017       6016  
      5886       5887       5898       5897       6007       6008       6019       6018  
      5887       5888       5899       5898       6008       6009       6020       6019  
      5888       5889       5900       5899       6009       6010       6021       6020  
      5889       5890       5901       5900       6010       6011       6022       6021  
      5890       5891       5902       5901       6011       6012       6023       6022  
      5891       5892       5903       5902       6012       6013       6024       6023  
      5892       5893       5904       5903       6013       6014       6025       6024  
      5893       5894       5905       5904       6014       6015       6026       6025  
      5894       5895       5906       5905       6015       6016       6027       6026  
      5895       5896       5907       5906       6016       6017       6028       6027  
      5897       5898       5909       5908       6018       6019       6030       6029  
      5898       5899       5910       5909       6019       6020       6031       6030  
      5899       5900       5911       5910       6020       6021       6032       6031  
      5900       5901       5912       5911       6021       6022       6033       6032  
      5901       5902       5913       5912       6022       6023       6034       6033  
      5902       5903       5914       5913       6023       6024       6035       6034  
      5903       5904       5915       5914       6024       6025       6036       6035  
      5904       5905       5916       5915       6025       6026       6037       6036  
      5905       5906       5917       5916       6026       6027       6038       6037  
      5906       5907       5918       5917       6027       6028       6039       6038  
      5908       5909       5920       5919       6029       6030       6041       6040  
      5909       5910       5921       5920       6030       6031       6042       6041  
      5910       5911       5922       5921       6031       6032       6043       6042  
      5911       5912       5923       5922       6032       6033       6044       6043  
      5912       5913       5924       5923       6033       6034       6045       6044  
      5913       5914       5925       5924       6034       6035       6046       6045  
      5914       5915       5926       5925       6035       6036       6047       6046  
      5915       5916       5927       5926       6036       6037       6048       6047  
      5916       5917       5928       5927       6037       6038       6049       6048  
      5917       5918       5929       5928       6038       6039       6050       6049  
      5930       5931       5942       5941       6051       6052       6063       6062  
      5931       5932       5943       5942       6052       6053       6064       6063  
      5932       5933       5944       5943       6053       6054       6065       6064  
      5933       5934       5945       5944       6054       6055       6066       6065  
      5934       5935       5946       5945       6055       6056       6067       6066  
      5935       5936       5947       5946       6056       6057       6068       6067  
      5936       5937       5948       5947       6057       6058       6069       6068  
      5937       5938       5949       5948       6058       6059       6070       6069  
      5938       5939       5950       5949       6059       6060       6071       6070  
      5939       5940       5951       5950       6060       6061       6072       6071  
      5941       5942       5953       5952       6062       6063       6074       6073  
      5942       5943       5954       5953       6063       6064       6075       6074  
      5943       5944       5955       5954       6064       6065       6076       6075  
      5944       5945       5956       5955       6065       6066       6077       6076  
      5945       5946       5957       5956       6066       6067       6078       6077  
      5946       5947       5958       5957       6067       6068       6079       6078  
      5947       5948       5959       5958       6068       6069       6080       6079  
      5948       5949       5960       5959       6069       6070       6081       6080  
      5949       5950       5961       5960       6070       6071       6082       6081  
      5950       5951       5962       5961       6071       6072       6083       6082  
      5952       5953       5964       5963       6073       6074       6085       6084  
      5953       5954       5965       5964       6074       6075       6086       6085  
      5954       5955       5966       5965       6075       6076       6087       6086  
      5955       5956       5967       5966       6076       6077       6088       6087  
      5956       5957       5968       5967       6077       6078       6089       6088  
      5957       5958       5969       5968       6078       6079       6090       6089  
      5958       5959       5970       5969       6079       6080       6091       6090  
      5959       5960       5971       5970       6080       6081       6092       6091  
      5960       5961       5972       5971       6081       6082       6093       6092  
      5961       5962       5973       5972       6082       6083       6094       6093  
      5963       5964       5975       5974       6084       6085       6096       6095  
      5964       5965       5976       5975       6085       6086       6097       6096  
      5965       5966       5977       5976       6086       6087       6098       6097  
      5966       5967       5978       5977       6087       6088       6099       6098  
      5967       5968       5979       5978       6088       6089       6100       6099  
      5968       5969       5980       5979       6089       6090       6101       6100  
      5969       5970       5981       5980       6090       6091       6102       6101  
      5970       5971       5982       5981       6091       6092       6103       6102  
      5971       5972       5983       5982       6092       6093       6104       6103  
      5972       5973       5984       5983       6093       6094       6105       6104  
      5974       5975       5986       5985       6095       6096       6107       6106  
      5975       5976       5987       5986       6096       6097       6108       6107  
      5976       5977       5988       5987       6097       6098       6109       6108  
      5977       5978       5989       5988       6098       6099       6110       6109  
      5978       5979       5990       5989       6099       6100       6111       6110  
      5979       5980       5991       5990       6100       6101       6112       6111  
      5980       5981       5992       5991       6101       6102       6113       6112  
      5981       5982       5993       5992       6102       6103       6114       6113  
      5982       5983       5994       5993       6103       6104       6115       6114  
      5983       5984       5995       5994       6104       6105       6116       6115  
      5985       5986       5997       5996       6106       6107       6118       6117  
      5986       5987       5998       5997       6107       6108       6119       6118  
      5987       5988       5999       5998       6108       6109       6120       6119  
      5988       5989       6000       5999       6109       6110       6121       6120  
      5989       5990       6001       6000       6110       6111       6122       6121  
      5990       5991       6002       6001       6111       6112       6123       6122  
      5991       5992       6003       6002       6112       6113       6124       6123  
      5992       5993       6004       6003       6113       6114       6125       6124  
      5993       5994       6005       6004       6114       6115       6126       6125  
      5994       5995       6006       6005       6115       6116       6127       6126  
      5996       5997       6008       6007       6117       6118       6129       6128  
      5997       5998       6009       6008       6118       6119       6130       6129  
      5998       5999       6010       6009       6119       6120       6131       6130  
      5999       6000       6011       6010       6120       6121       6132       6131  
      6000       6001       6012       6011       6121       6122       6133       6132  
      6001       6002       6013       6012       6122       6123       6134       6133  
      6002       6003       6014       6013       6123       6124       6135       6134  
      6003       6004       6015       6014       6124       6125       6136       6135  
      6004       6005       6016       6015       6125       6126       6137       6136  
      6005       6006       6017       6016       6126       6127       6138       6137  
      6007       6008       6019       6018       6128       6129       6140       6139  
      6008       6009       6020       6019       6129       6130       6141       6140  
      6009       6010       6021       6020       6130       6131       6142       6141  
      6010       6011       6022       6021       6131       6132       6143       6142  
      6011       6012       6023       6022       6132       6133       6144       6143  
      6012       6013       6024       6023       6133       6134       6145       6144  
      6013       6014       6025       6024       6134       6135       6146       6145  
      6014       6015       6026       6025       6135       6136       6147       6146  
      6015       6016       6027       6026       6136       6137       6148       6147  
      6016       6017       6028       6027       6137       6138       6149       6148  
      6018       6019       6030       6029       6139       6140       6151       6150  
      6019       6020       6031       6030       6140       6141       6152       6151  
      6020       6021       6032       6031       6141       6142       6153       6152  
      6021       6022       6033       6032       6142       6143       6154       6153  
      6022       6023       6034       6033       6143       6144       6155       6154  
      6023       6024       6035       6034       6144       6145       6156       6155  
      6024       6025       6036       6035       6145       6146       6157       6156  
      6025       6026       6037       6036       6146       6147       6158       6157  
      6026       6027       6038       6037       6147       6148       6159       6158  
      6027       6028       6039       6038       6148       6149       6160       6159  
      6029       6030       6041       6040       6150       6151       6162       6161  
      6030       6031       6042       6041       6151       6152       6163       6162  
      6031       6032       6043       6042       6152       6153       6164       6163  
      6032       6033       6044       6043       6153       6154       6165       6164  
      6033       6034       6045       6044       6154       6155       6166       6165  
      6034       6035       6046       6045       6155       6156       6167       6166  
      6035       6036       6047       6046       6156       6157       6168       6167  
      6036       6037       6048       6047       6157       6158       6169       6168  
      6037       6038       6049       6048       6158       6159       6170       6169  
      6038       6039       6050       6049       6159       6160       6171       6170  
      6051       6052       6063       6062       6172       6173       6184       6183  
      6052       6053       6064       6063       6173       6174       6185       6184  
      6053       6054       6065       6064       6174       6175       6186       6185  
      6054       6055       6066       6065       6175       6176       6187       6186  
      6055       6056       6067       6066       6176       6177       6188       6187  
      6056       6057       6068       6067       6177       6178       6189       6188  
      6057       6058       6069       6068       6178       6179       6190       6189  
      6058       6059       6070       6069       6179       6180       6191       6190  
      6059       6060       6071       6070       6180       6181       6192       6191  
      6060       6061       6072       6071       6181       6182       6193       6192  
      6062       6063       6074       6073       6183       6184       6195       6194  
      6063       6064       6075       6074       6184       6185       6196       6195  
      6064       6065       6076       6075       6185       6186       6197       6196  
      6065       6066       6077       6076       6186       6187       6198       6197  
      6066       6067       6078       6077       6187       6188       6199       6198  
      6067       6068       6079       6078       6188       6189       6200       6199  
      6068       6069       6080       6079       6189       6190       6201       6200  
      6069       6070       6081       6080       6190       6191       6202       6201  
      6070       6071       6082       6081       6191       6192       6203       6202  
      6071       6072       6083       6082       6192       6193       6204       6203  
      6073       6074       6085       6084       6194       6195       6206       6205  
      6074       6075       6086       6085       6195       6196       6207       6206  
      6075       6076       6087       6086       6196       6197       6208       6207  
      6076       6077       6088       6087       6197       6198       6209       6208  
      6077       6078       6089       6088       6198       6199       6210       6209  
      6078       6079       6090       6089       6199       6200       6211       6210  
      6079       6080       6091       6090       6200       6201       6212       6211  
      6080       6081       6092       6091       6201       6202       6213       6212  
      6081       6082       6093       6092       6202       6203       6214       6213  
      6082       6083       6094       6093       6203       6204       6215       6214  
      6084       6085       6096       6095       6205       6206       6217       6216  
      6085       6086       6097       6096       6206       6207       6218       6217  
      6086       6087       6098       6097       6207       6208       6219       6218  
      6087       6088       6099       6098       6208       6209       6220       6219  
      6088       6089       6100       6099       6209       6210       6221       6220  
      6089       6090       6101       6100       6210       6211       6222       6221  
      6090       6091       6102       6101       6211       6212       6223       6222  
      6091       6092       6103       6102       6212       6213       6224       6223  
      6092       6093       6104       6103       6213       6214       6225       6224  
      6093       6094       6105       6104       6214       6215       6226       6225  
      6095       6096       6107       6106       6216       6217       6228       6227  
      6096       6097       6108       6107       6217       6218       6229       6228  
      6097       6098       6109       6108       6218       6219       6230       6229  
      6098       6099       6110       6109       6219       6220       6231       6230  
      6099       6100       6111       6110       6220       6221       6232       6231  
      6100       6101       6112       6111       6221       6222       6233       6232  
      6101       6102       6113       6112       6222       6223       6234       6233  
      6102       6103       6114       6113       6223       6224       6235       6234  
      6103       6104       6115       6114       6224       6225       6236       6235  
      6104       6105       6116       6115       6225       6226       6237       6236  
      6106       6107       6118       6117       6227       6228       6239       6238  
      6107       6108       6119       6118       6228       6229       6240       6239  
      6108       6109       6120       6119       6229       6230       6241       6240  
      6109       6110       6121       6120       6230       6231       6242       6241  
      6110       6111       6122       6121       6231       6232       6243       6242  
      6111       6112       6123       6122       6232       6233       6244       6243  
      6112       6113       6124       6123       6233       6234       6245       6244  
      6113       6114       6125       6124       6234       6235       6246       6245  
      6114       6115       6126       6125       6235       6236       6247       6246  
      6115       6116       6127       6126       6236       6237       6248       6247  
      6117       6118       6129       6128       6238       6239       6250       6249  
      6118       6119       6130       6129       6239       6240       6251       6250  
      6119       6120       6131       6130       6240       6241       6252       6251  
      6120       6121       6132       6131       6241       6242       6253       6252  
      6121       6122       6133       6132       6242       6243       6254       6253  
      6122       6123       6134       6133       6243       6244       6255       6254  
      6123       6124       6135       6134       6244       6245       6256       6255  
      6124       6125       6136       6135       6245       6246       6257       6256  
      6125       6126       6137       6136       6246       6247       6258       6257  
      6126       6127       6138       6137       6247       6248       6259       6258  
      6128       6129       6140       6139       6249       6250       6261       6260  
      6129       6130       6141       6140       6250       6251       6262       6261  
      6130       6131       6142       6141       6251       6252       6263       6262  
      6131       6132       6143       6142       6252       6253       6264       6263  
      6132       6133       6144       6143       6253       6254       6265       6264  
      6133       6134       6145       6144       6254       6255       6266       6265  
      6134       6135       6146       6145       6255       6256       6267       6266  
      6135       6136       6147       6146       6256       6257       6268       6267  
      6136       6137       6148       6147       6257       6258       6269       6268  
      6137       6138       6149       6148       6258       6259       6270       6269  
      6139       6140       6151       6150       6260       6261       6272       6271  
      6140       6141       6152       6151       6261       6262       6273       6272  
      6141       6142       6153       6152       6262       6263       6274       6273  
      6142       6143       6154       6153       6263       6264       6275       6274  
      6143       6144       6155       6154       6264       6265       6276       6275  
      6144       6145       6156       6155       6265       6266       6277       6276  
      6145       6146       6157       6156       6266       6267       6278       6277  
      6146       6147       6158       6157       6267       6268       6279       6278  
      6147       6148       6159       6158       6268       6269       6280       6279  
      6148       6149       6160       6159       6269       6270       6281       6280  
      6150       6151       6162       6161       6271       6272       6283       6282  
      6151       6152       6163       6162       6272       6273       6284       6283  
      6152       6153       6164       6163       6273       6274       6285       6284  
      6153       6154       6165       6164       6274       6275       6286       6285  
      6154       6155       6166       6165       6275       6276       6287       6286  
      6155       6156       6167       6166       6276       6277       6288       6287  
      6156       6157       6168       6167       6277       6278       6289       6288  
      6157       6158       6169       6168       6278       6279       6290       6289  
      6158       6159       6170       6169       6279       6280       6291       6290  
      6159       6160       6171       6170       6280       6281       6292       6291  
      6172       6173       6184       6183       6293       6294       6305       6304  
      6173       6174       6185       6184       6294       6295       6306       6305  
      6174       6175       6186       6185       6295       6296       6307       6306  
      6175       6176       6187       6186       6296       6297       6308       6307  
      6176       6177       6188       6187       6297       6298       6309       6308  
      6177       6178       6189       6188       6298       6299       6310       6309  
      6178       6179       6190       6189       6299       6300       6311       6310  
      6179       6180       6191       6190       6300       6301       6312       6311  
      6180       6181       6192       6191       6301       6302       6313       6312  
      6181       6182       6193       6192       6302       6303       6314       6313  
      6183       6184       6195       6194       6304       6305       6316       6315  
      6184       6185       6196       6195       6305       6306       6317       6316  
      6185       6186       6197       6196       6306       6307       6318       6317  
      6186       6187       6198       6197       6307       6308       6319       6318  
      6187       6188       6199       6198       6308       6309       6320       6319  
      6188       6189       6200       6199       6309       6310       6321       6320  
      6189       6190       6201       6200       6310       6311       6322       6321  
      6190       6191       6202       6201       6311       6312       6323       6322  
      6191       6192       6203       6202       6312       6313       6324       6323  
      6192       6193       6204       6203       6313       6314       6325       6324  
      6194       6195       6206       6205       6315       6316       6327       6326  
      6195       6196       6207       6206       6316       6317       6328       6327  
      6196       6197       6208       6207       6317       6318       6329       6328  
      6197       6198       6209       6208       6318       6319       6330       6329  
      6198       6199       6210       6209       6319       6320       6331       6330  
      6199       6200       6211       6210       6320       6321       6332       6331  
      6200       6201       6212       6211       6321       6322       6333       6332  
      6201       6202       6213       6212       6322       6323       6334       6333  
      6202       6203       6214       6213       6323       6324       6335       6334  
      6203       6204       6215       6214       6324       6325       6336       6335  
      6205       6206       6217       6216       6326       6327       6338       6337  
      6206       6207       6218       6217       6327       6328       6339       6338  
      6207       6208       6219       6218       6328       6329       6340       6339  
      6208       6209       6220       6219       6329       6330       6341       6340  
      6209       6210       6221       6220       6330       6331       6342       6341  
      6210       6211       6222       6221       6331       6332       6343       6342  
      6211       6212       6223       6222       6332       6333       6344       6343  
      6212       6213       6224       6223       6333       6334       6345       6344  
      6213       6214       6225       6224       6334       6335       6346       6345  
      6214       6215       6226       6225       6335       6336       6347       6346  
      6216       6217       6228       6227       6337       6338       6349       6348  
      6217       6218       6229       6228       6338       6339       6350       6349  
      6218       6219       6230       6229       6339       6340       6351       6350  
      6219       6220       6231       6230       6340       6341       6352       6351  
      6220       6221       6232       6231       6341       6342       6353       6352  
      6221       6222       6233       6232       6342       6343       6354       6353  
      6222       6223       6234       6233       6343       6344       6355       6354  
      6223       6224       6235       6234       6344       6345       6356       6355  
      6224       6225       6236       6235       6345       6346       6357       6356  
      6225       6226       6237       6236       6346       6347       6358       6357  
      6227       6228       6239       6238       6348       6349       6360       6359  
      6228       6229       6240       6239       6349       6350       6361       6360  
      6229       6230       6241       6240       6350       6351       6362       6361  
      6230       6231       6242       6241       6351       6352       6363       6362  
      6231       6232       6243       6242       6352       6353       6364       6363  
      6232       6233       6244       6243       6353       6354       6365       6364  
      6233       6234       6245       6244       6354       6355       6366       6365  
      6234       6235       6246       6245       6355       6356       6367       6366  
      6235       6236       6247       6246       6356       6357       6368       6367  
      6236       6237       6248       6247       6357       6358       6369       6368  
      6238       6239       6250       6249       6359       6360       6371       6370  
      6239       6240       6251       6250       6360       6361       6372       6371  
      6240       6241       6252       6251       6361       6362       6373       6372  
      6241       6242       6253       6252       6362       6363       6374       6373  
      6242       6243       6254       6253       6363       6364       6375       6374  
      6243       6244       6255       6254       6364       6365       6376       6375  
      6244       6245       6256       6255       6365       6366       6377       6376  
      6245       6246       6257       6256       6366       6367       6378       6377  
      6246       6247       6258       6257       6367       6368       6379       6378  
      6247       6248       6259       6258       6368       6369       6380       6379  
      6249       6250       6261       6260       6370       6371       6382       6381  
      6250       6251       6262       6261       6371       6372       6383       6382  
      6251       6252       6263       6262       6372       6373       6384       6383  
      6252       6253       6264       6263       6373       6374       6385       6384  
      6253       6254       6265       6264       6374       6375       6386       6385  
      6254       6255       6266       6265       6375       6376       6387       6386  
      6255       6256       6267       6266       6376       6377       6388       6387  
      6256       6257       6268       6267       6377       6378       6389       6388  
      6257       6258       6269       6268       6378       6379       6390       6389  
      6258       6259       6270       6269       6379       6380       6391       6390  
      6260       6261       6272       6271       6381       6382       6393       6392  
      6261       6262       6273       6272       6382       6383       6394       6393  
      6262       6263       6274       6273       6383       6384       6395       6394  
      6263       6264       6275       6274       6384       6385       6396       6395  
      6264       6265       6276       6275       6385       6386       6397       6396  
      6265       6266       6277       6276       6386       6387       6398       6397  
      6266       6267       6278       6277       6387       6388       6399       6398  
      6267       6268       6279       6278       6388       6389       6400       6399  
      6268       6269       6280       6279       6389       6390       6401       6400  
      6269       6270       6281       6280       6390       6391       6402       6401  
      6271       6272       6283       6282       6392       6393       6404       6403  
      6272       6273       6284       6283       6393       6394       6405       6404  
      6273       6274       6285       6284       6394       6395       6406       6405  
      6274       6275       6286       6285       6395       6396       6407       6406  
      6275       6276       6287       6286       6396       6397       6408       6407  
      6276       6277       6288       6287       6397       6398       6409       6408  
      6277       6278       6289       6288       6398       6399       6410       6409  
      6278       6279       6290       6289       6399       6400       6411       6410  
      6279       6280       6291       6290       6400       6401       6412       6411  
      6280       6281       6292       6291       6401       6402       6413       6412  
      6293       6294       6305       6304       6414       6415       6426       6425  
      6294       6295       6306       6305       6415       6416       6427       6426  
      6295       6296       6307       6306       6416       6417       6428       6427  
      6296       6297       6308       6307       6417       6418       6429       6428  
      6297       6298       6309       6308       6418       6419       6430       6429  
      6298       6299       6310       6309       6419       6420       6431       6430  
      6299       6300       6311       6310       6420       6421       6432       6431  
      6300       6301       6312       6311       6421       6422       6433       6432  
      6301       6302       6313       6312       6422       6423       6434       6433  
      6302       6303       6314       6313       6423       6424       6435       6434  
      6304       6305       6316       6315       6425       6426       6437       6436  
      6305       6306       6317       6316       6426       6427       6438       6437  
      6306       6307       6318       6317       6427       6428       6439       6438  
      6307       6308       6319       6318       6428       6429       6440       6439  
      6308       6309       6320       6319       6429       6430       6441       6440  
      6309       6310       6321       6320       6430       6431       6442       6441  
      6310       6311       6322       6321       6431       6432       6443       6442  
      6311       6312       6323       6322       6432       6433       6444       6443  
      6312       6313       6324       6323       6433       6434       6445       6444  
      6313       6314       6325       6324       6434       6435       6446       6445  
      6315       6316       6327       6326       6436       6437       6448       6447  
      6316       6317       6328       6327       6437       6438       6449       6448  
      6317       6318       6329       6328       6438       6439       6450       6449  
      6318       6319       6330       6329       6439       6440       6451       6450  
      6319       6320       6331       6330       6440       6441       6452       6451  
      6320       6321       6332       6331       6441       6442       6453       6452  
      6321       6322       6333       6332       6442       6443       6454       6453  
      6322       6323       6334       6333       6443       6444       6455       6454  
      6323       6324       6335       6334       6444       6445       6456       6455  
      6324       6325       6336       6335       6445       6446       6457       6456  
      6326       6327       6338       6337       6447       6448       6459       6458  
      6327       6328       6339       6338       6448       6449       6460       6459  
      6328       6329       6340       6339       6449       6450       6461       6460  
      6329       6330       6341       6340       6450       6451       6462       6461  
      6330       6331       6342       6341       6451       6452       6463       6462  
      6331       6332       6343       6342       6452       6453       6464       6463  
      6332       6333       6344       6343       6453       6454       6465       6464  
      6333       6334       6345       6344       6454       6455       6466       6465  
      6334       6335       6346       6345       6455       6456       6467       6466  
      6335       6336       6347       6346       6456       6457       6468       6467  
      6337       6338       6349       6348       6458       6459       6470       6469  
      6338       6339       6350       6349       6459       6460       6471       6470  
      6339       6340       6351       6350       6460       6461       6472       6471  
      6340       6341       6352       6351       6461       6462       6473       6472  
      6341       6342       6353       6352       6462       6463       6474       6473  
      6342       6343       6354       6353       6463       6464       6475       6474  
      6343       6344       6355       6354       6464       6465       6476       6475  
      6344       6345       6356       6355       6465       6466       6477       6476  
      6345       6346       6357       6356       6466       6467       6478       6477  
      6346       6347       6358       6357       6467       6468       6479       6478  
      6348       6349       6360       6359       6469       6470       6481       6480  
      6349       6350       6361       6360       6470       6471       6482       6481  
      6350       6351       6362       6361       6471       6472       6483       6482  
      6351       6352       6363       6362       6472       6473       6484       6483  
      6352       6353       6364       6363       6473       6474       6485       6484  
      6353       6354       6365       6364       6474       6475       6486       6485  
      6354       6355       6366       6365       6475       6476       6487       6486  
      6355       6356       6367       6366       6476       6477       6488       6487  
      6356       6357       6368       6367       6477       6478       6489       6488  
      6357       6358       6369       6368       6478       6479       6490       6489  
      6359       6360       6371       6370       6480       6481       6492       6491  
      6360       6361       6372       6371       6481       6482       6493       6492  
      6361       6362       6373       6372       6482       6483       6494       6493  
      6362       6363       6374       6373       6483       6484       6495       6494  
      6363       6364       6375       6374       6484       6485       6496       6495  
      6364       6365       6376       6375       6485       6486       6497       6496  
      6365       6366       6377       6376       6486       6487       6498       6497  
      6366       6367       6378       6377       6487       6488       6499       6498  
      6367       6368       6379       6378       6488       6489       6500       6499  
      6368       6369       6380       6379       6489       6490       6501       6500  
      6370       6371       6382       6381       6491       6492       6503       6502  
      6371       6372       6383       6382       6492       6493       6504       6503  
      6372       6373       6384       6383       6493       6494       6505       6504  
      6373       6374       6385       6384       6494       6495       6506       6505  
      6374       6375       6386       6385       6495       6496       6507       6506  
      6375       6376       6387       6386       6496       6497       6508       6507  
      6376       6377       6388       6387       6497       6498       6509       6508  
      6377       6378       6389       6388       6498       6499       6510       6509  
      6378       6379       6390       6389       6499       6500       6511       6510  
      6379       6380       6391       6390       6500       6501       6512       6511  
      6381       6382       6393       6392       6502       6503       6514       6513  
      6382       6383       6394       6393       6503       6504       6515       6514  
      6383       6384       6395       6394       6504       6505       6516       6515  
      6384       6385       6396       6395       6505       6506       6517       6516  
      6385       6386       6397       6396       6506       6507       6518       6517  
      6386       6387       6398       6397       6507       6508       6519       6518  
      6387       6388       6399       6398       6508       6509       6520       6519  
      6388       6389       6400       6399       6509       6510       6521       6520  
      6389       6390       6401       6400       6510       6511       6522       6521  
      6390       6391       6402       6401       6511       6512       6523       6522  
      6392       6393       6404       6403       6513       6514       6525       6524  
      6393       6394       6405       6404       6514       6515       6526       6525  
      6394       6395       6406       6405       6515       6516       6527       6526  
      6395       6396       6407       6406       6516       6517       6528       6527  
      6396       6397       6408       6407       6517       6518       6529       6528  
      6397       6398       6409       6408       6518       6519       6530       6529  
      6398       6399       6410       6409       6519       6520       6531       6530  
      6399       6400       6411       6410       6520       6521       6532       6531  
      6400       6401       6412       6411       6521       6522       6533       6532  
      6401       6402       6413       6412       6522       6523       6534       6533  
      6414       6415       6426       6425       6535       6536       6547       6546  
      6415       6416       6427       6426       6536       6537       6548       6547  
      6416       6417       6428       6427       6537       6538       6549       6548  
      6417       6418       6429       6428       6538       6539       6550       6549  
      6418       6419       6430       6429       6539       6540       6551       6550  
      6419       6420       6431       6430       6540       6541       6552       6551  
      6420       6421       6432       6431       6541       6542       6553       6552  
      6421       6422       6433       6432       6542       6543       6554       6553  
      6422       6423       6434       6433       6543       6544       6555       6554  
      6423       6424       6435       6434       6544       6545       6556       6555  
      6425       6426       6437       6436       6546       6547       6558       6557  
      6426       6427       6438       6437       6547       6548       6559       6558  
      6427       6428       6439       6438       6548       6549       6560       6559  
      6428       6429       6440       6439       6549       6550       6561       6560  
      6429       6430       6441       6440       6550       6551       6562       6561  
      6430       6431       6442       6441       6551       6552       6563       6562  
      6431       6432       6443       6442       6552       6553       6564       6563  
      6432       6433       6444       6443       6553       6554       6565       6564  
      6433       6434       6445       6444       6554       6555       6566       6565  
      6434       6435       6446       6445       6555       6556       6567       6566  
      6436       6437       6448       6447       6557       6558       6569       6568  
      6437       6438       6449       6448       6558       6559       6570       6569  
      6438       6439       6450       6449       6559       6560       6571       6570  
      6439       6440       6451       6450       6560       6561       6572       6571  
      6440       6441       6452       6451       6561       6562       6573       6572  
      6441       6442       6453       6452       6562       6563       6574       6573  
      6442       6443       6454       6453       6563       6564       6575       6574  
      6443       6444       6455       6454       6564       6565       6576       6575  
      6444       6445       6456       6455       6565       6566       6577       6576  
      6445       6446       6457       6456       6566       6567       6578       6577  
      6447       6448       6459       6458       6568       6569       6580       6579  
      6448       6449       6460       6459       6569       6570       6581       6580  
      6449       6450       6461       6460       6570       6571       6582       6581  
      6450       6451       6462       6461       6571       6572       6583       6582  
      6451       6452       6463       6462       6572       6573       6584       6583  
      6452       6453       6464       6463       6573       6574       6585       6584  
      6453       6454       6465       6464       6574       6575       6586       6585  
      6454       6455       6466       6465       6575       6576       6587       6586  
      6455       6456       6467       6466       6576       6577       6588       6587  
      6456       6457       6468       6467       6577       6578       6589       6588  
      6458       6459       6470       6469       6579       6580       6591       6590  
      6459       6460       6471       6470       6580       6581       6592       6591  
      6460       6461       6472       6471       6581       6582       6593       6592  
      6461       6462       6473       6472       6582       6583       6594       6593  
      6462       6463       6474       6473       6583       6584       6595       6594  
      6463       6464       6475       6474       6584       6585       6596       6595  
      6464       6465       6476       6475       6585       6586       6597       6596  
      6465       6466       6477       6476       6586       6587       6598       6597  
      6466       6467       6478       6477       6587       6588       6599       6598  
      6467       6468       6479       6478       6588       6589       6600       6599  
      6469       6470       6481       6480       6590       6591       6602       6601  
      6470       6471       6482       6481       6591       6592       6603       6602  
      6471       6472       6483       6482       6592       6593       6604       6603  
      6472       6473       6484       6483       6593       6594       6605       6604  
      6473       6474       6485       6484       6594       6595       6606       6605  
      6474       6475       6486       6485       6595       6596       6607       6606  
      6475       6476       6487       6486       6596       6597       6608       6607  
      6476       6477       6488       6487       6597       6598       6609       6608  
      6477       6478       6489       6488       6598       6599       6610       6609  
      6478       6479       6490       6489       6599       6600       6611       6610  
      6480       6481       6492       6491       6601       6602       6613       6612  
      6481       6482       6493       6492       6602       6603       6614       6613  
      6482       6483       6494       6493       6603       6604       6615       6614  
      6483       6484       6495       6494       6604       6605       6616       6615  
      6484       6485       6496       6495       6605       6606       6617       6616  
      6485       6486       6497       6496       6606       6607       6618       6617  
      6486       6487       6498       6497       6607       6608       6619       6618  
      6487       6488       6499       6498       6608       6609       6620       6619  
      6488       6489       6500       6499       6609       6610       6621       6620  
      6489       6490       6501       6500       6610       6611       6622       6621  
      6491       6492       6503       6502       6612       6613       6624       6623  
      6492       6493       6504       6503       6613       6614       6625       6624  
      6493       6494       6505       6504       6614       6615       6626       6625  
      6494       6495       6506       6505       6615       6616       6627       6626  
      6495       6496       6507       6506       6616       6617       6628       6627  
      6496       6497       6508       6507       6617       6618       6629       6628  
      6497       6498       6509       6508       6618       6619       6630       6629  
      6498       6499       6510       6509       6619       6620       6631       6630  
      6499       6500       6511       6510       6620       6621       6632       6631  
      6500       6501       6512       6511       6621       6622       6633       6632  
      6502       6503       6514       6513       6623       6624       6635       6634  
      6503       6504       6515       6514       6624       6625       6636       6635  
      6504       6505       6516       6515       6625       6626       6637       6636  
      6505       6506       6517       6516       6626       6627       6638       6637  
      6506       6507       6518       6517       6627       6628       6639       6638  
      6507       6508       6519       6518       6628       6629       6640       6639  
      6508       6509       6520       6519       6629       6630       6641       6640  
      6509       6510       6521       6520       6630       6631       6642       6641  
      6510       6511       6522       6521       6631       6632       6643       6642  
      6511       6512       6523       6522       6632       6633       6644       6643  
      6513       6514       6525       6524       6634       6635       6646       6645  
      6514       6515       6526       6525       6635       6636       6647       6646  
      6515       6516       6527       6526       6636       6637       6648       6647  
      6516       6517       6528       6527       6637       6638       6649       6648  
      6517       6518       6529       6528       6638       6639       6650       6649  
      6518       6519       6530       6529       6639       6640       6651       6650  
      6519       6520       6531       6530       6640       6641       6652       6651  
      6520       6521       6532       6531       6641       6642       6653       6652  
      6521       6522       6533       6532       6642       6643       6654       6653  
      6522       6523       6534       6533       6643       6644       6655       6654  
      6535       6536       6547       6546       6656       6657       6668       6667  
      6536       6537       6548       6547       6657       6658       6669       6668  
      6537       6538       6549       6548       6658       6659       6670       6669  
      6538       6539       6550       6549       6659       6660       6671       6670  
      6539       6540       6551       6550       6660       6661       6672       6671  
      6540       6541       6552       6551       6661       6662       6673       6672  
      6541       6542       6553       6552       6662       6663       6674       6673  
      6542       6543       6554       6553       6663       6664       6675       6674  
      6543       6544       6555       6554       6664       6665       6676       6675  
      6544       6545       6556       6555       6665       6666       6677       6676  
      6546       6547       6558       6557       6667       6668       6679       6678  
      6547       6548       6559       6558       6668       6669       6680       6679  
      6548       6549       6560       6559       6669       6670       6681       6680  
      6549       6550       6561       6560       6670       6671       6682       6681  
      6550       6551       6562       6561       6671       6672       6683       6682  
      6551       6552       6563       6562       6672       6673       6684       6683  
      6552       6553       6564       6563       6673       6674       6685       6684  
      6553       6554       6565       6564       6674       6675       6686       6685  
      6554       6555       6566       6565       6675       6676       6687       6686  
      6555       6556       6567       6566       6676       6677       6688       6687  
      6557       6558       6569       6568       6678       6679       6690       6689  
      6558       6559       6570       6569       6679       6680       6691       6690  
      6559       6560       6571       6570       6680       6681       6692       6691  
      6560       6561       6572       6571       6681       6682       6693       6692  
      6561       6562       6573       6572       6682       6683       6694       6693  
      6562       6563       6574       6573       6683       6684       6695       6694  
      6563       6564       6575       6574       6684       6685       6696       6695  
      6564       6565       6576       6575       6685       6686       6697       6696  
      6565       6566       6577       6576       6686       6687       6698       6697  
      6566       6567       6578       6577       6687       6688       6699       6698  
      6568       6569       6580       6579       6689       6690       6701       6700  
      6569       6570       6581       6580       6690       6691       6702       6701  
      6570       6571       6582       6581       6691       6692       6703       6702  
      6571       6572       6583       6582       6692       6693       6704       6703  
      6572       6573       6584       6583       6693       6694       6705       6704  
      6573       6574       6585       6584       6694       6695       6706       6705  
      6574       6575       6586       6585       6695       6696       6707       6706  
      6575       6576       6587       6586       6696       6697       6708       6707  
      6576       6577       6588       6587       6697       6698       6709       6708  
      6577       6578       6589       6588       6698       6699       6710       6709  
      6579       6580       6591       6590       6700       6701       6712       6711  
      6580       6581       6592       6591       6701       6702       6713       6712  
      6581       6582       6593       6592       6702       6703       6714       6713  
      6582       6583       6594       6593       6703       6704       6715       6714  
      6583       6584       6595       6594       6704       6705       6716       6715  
      6584       6585       6596       6595       6705       6706       6717       6716  
      6585       6586       6597       6596       6706       6707       6718       6717  
      6586       6587       6598       6597       6707       6708       6719       6718  
      6587       6588       6599       6598       6708       6709       6720       6719  
      6588       6589       6600       6599       6709       6710       6721       6720  
      6590       6591       6602       6601       6711       6712       6723       6722  
      6591       6592       6603       6602       6712       6713       6724       6723  
      6592       6593       6604       6603       6713       6714       6725       6724  
      6593       6594       6605       6604       6714       6715       6726       6725  
      6594       6595       6606       6605       6715       6716       6727       6726  
      6595       6596       6607       6606       6716       6717       6728       6727  
      6596       6597       6608       6607       6717       6718       6729       6728  
      6597       6598       6609       6608       6718       6719       6730       6729  
      6598       6599       6610       6609       6719       6720       6731       6730  
      6599       6600       6611       6610       6720       6721       6732       6731  
      6601       6602       6613       6612       6722       6723       6734       6733  
      6602       6603       6614       6613       6723       6724       6735       6734  
      6603       6604       6615       6614       6724       6725       6736       6735  
      6604       6605       6616       6615       6725       6726       6737       6736  
      6605       6606       6617       6616       6726       6727       6738       6737  
      6606       6607       6618       6617       6727       6728       6739       6738  
      6607       6608       6619       6618       6728       6729       6740       6739  
      6608       6609       6620       6619       6729       6730       6741       6740  
      6609       6610       6621       6620       6730       6731       6742       6741  
      6610       6611       6622       6621       6731       6732       6743       6742  
      6612       6613       6624       6623       6733       6734       6745       6744  
      6613       6614       6625       6624       6734       6735       6746       6745  
      6614       6615       6626       6625       6735       6736       6747       6746  
      6615       6616       6627       6626       6736       6737       6748       6747  
      6616       6617       6628       6627       6737       6738       6749       6748  
      6617       6618       6629       6628       6738       6739       6750       6749  
      6618       6619       6630       6629       6739       6740       6751       6750  
      6619       6620       6631       6630       6740       6741       6752       6751  
      6620       6621       6632       6631       6741       6742       6753       6752  
      6621       6622       6633       6632       6742       6743       6754       6753  
      6623       6624       6635       6634       6744       6745       6756       6755  
      6624       6625       6636       6635       6745       6746       6757       6756  
      6625       6626       6637       6636       6746       6747       6758       6757  
      6626       6627       6638       6637       6747       6748       6759       6758  
      6627       6628       6639       6638       6748       6749       6760       6759  
      6628       6629       6640       6639       6749       6750       6761       6760  
      6629       6630       6641       6640       6750       6751       6762       6761  
      6630       6631       6642       6641       6751       6752       6763       6762  
      6631       6632       6643       6642       6752       6753       6764       6763  
      6632       6633       6644       6643       6753       6754       6765       6764  
      6634       6635       6646       6645       6755       6756       6767       6766  
      6635       6636       6647       6646       6756       6757       6768       6767  
      6636       6637       6648       6647       6757       6758       6769       6768  
      6637       6638       6649       6648       6758       6759       6770       6769  
      6638       6639       6650       6649       6759       6760       6771       6770  
      6639       6640       6651       6650       6760       6761       6772       6771  
      6640       6641       6652       6651       6761       6762       6773       6772  
      6641       6642       6653       6652       6762       6763       6774       6773  
      6642       6643       6654       6653       6763       6764       6775       6774  
      6643       6644       6655       6654       6764       6765       6776       6775  
      6656       6657       6668       6667       6777       6778       6789       6788  
      6657       6658       6669       6668       6778       6779       6790       6789  
      6658       6659       6670       6669       6779       6780       6791       6790  
      6659       6660       6671       6670       6780       6781       6792       6791  
      6660       6661       6672       6671       6781       6782       6793       6792  
      6661       6662       6673       6672       6782       6783       6794       6793  
      6662       6663       6674       6673       6783       6784       6795       6794  
      6663       6664       6675       6674       6784       6785       6796       6795  
      6664       6665       6676       6675       6785       6786       6797       6796  
      6665       6666       6677       6676       6786       6787       6798       6797  
      6667       6668       6679       6678       6788       6789       6800       6799  
      6668       6669       6680       6679       6789       6790       6801       6800  
      6669       6670       6681       6680       6790       6791       6802       6801  
      6670       6671       6682       6681       6791       6792       6803       6802  
      6671       6672       6683       6682       6792       6793       6804       6803  
      6672       6673       6684       6683       6793       6794       6805       6804  
      6673       6674       6685       6684       6794       6795       6806       6805  
      6674       6675       6686       6685       6795       6796       6807       6806  
      6675       6676       6687       6686       6796       6797       6808       6807  
      6676       6677       6688       6687       6797       6798       6809       6808  
      6678       6679       6690       6689       6799       6800       6811       6810  
      6679       6680       6691       6690       6800       6801       6812       6811  
      6680       6681       6692       6691       6801       6802       6813       6812  
      6681       6682       6693       6692       6802       6803       6814       6813  
      6682       6683       6694       6693       6803       6804       6815       6814  
      6683       6684       6695       6694       6804       6805       6816       6815  
      6684       6685       6696       6695       6805       6806       6817       6816  
      6685       6686       6697       6696       6806       6807       6818       6817  
      6686       6687       6698       6697       6807       6808       6819       6818  
      6687       6688       6699       6698       6808       6809       6820       6819  
      6689       6690       6701       6700       6810       6811       6822       6821  
      6690       6691       6702       6701       6811       6812       6823       6822  
      6691       6692       6703       6702       6812       6813       6824       6823  
      6692       6693       6704       6703       6813       6814       6825       6824  
      6693       6694       6705       6704       6814       6815       6826       6825  
      6694       6695       6706       6705       6815       6816       6827       6826  
      6695       6696       6707       6706       6816       6817       6828       6827  
      6696       6697       6708       6707       6817       6818       6829       6828  
      6697       6698       6709       6708       6818       6819       6830       6829  
      6698       6699       6710       6709       6819       6820       6831       6830  
      6700       6701       6712       6711       6821       6822       6833       6832  
      6701       6702       6713       6712       6822       6823       6834       6833  
      6702       6703       6714       6713       6823       6824       6835       6834  
      6703       6704       6715       6714       6824       6825       6836       6835  
      6704       6705       6716       6715       6825       6826       6837       6836  
      6705       6706       6717       6716       6826       6827       6838       6837  
      6706       6707       6718       6717       6827       6828       6839       6838  
      6707       6708       6719       6718       6828       6829       6840       6839  
      6708       6709       6720       6719       6829       6830       6841       6840  
      6709       6710       6721       6720       6830       6831       6842       6841  
      6711       6712       6723       6722       6832       6833       6844       6843  
      6712       6713       6724       6723       6833       6834       6845       6844  
      6713       6714       6725       6724       6834       6835       6846       6845  
      6714       6715       6726       6725       6835       6836       6847       6846  
      6715       6716       6727       6726       6836       6837       6848       6847  
      6716       6717       6728       6727       6837       6838       6849       6848  
      6717       6718       6729       6728       6838       6839       6850       6849  
      6718       6719       6730       6729       6839       6840       6851       6850  
      6719       6720       6731       6730       6840       6841       6852       6851  
      6720       6721       6732       6731       6841       6842       6853       6852  
      6722       6723       6734       6733       6843       6844       6855       6854  
      6723       6724       6735       6734       6844       6845       6856       6855  
      6724       6725       6736       6735       6845       6846       6857       6856  
      6725       6726       6737       6736       6846       6847       6858       6857  
      6726       6727       6738       6737       6847       6848       6859       6858  
      6727       6728       6739       6738       6848       6849       6860       6859  
      6728       6729       6740       6739       6849       6850       6861       6860  
      6729       6730       6741       6740       6850       6851       6862       6861  
      6730       6731       6742       6741       6851       6852       6863       6862  
      6731       6732       6743       6742       6852       6853       6864       6863  
      6733       6734       6745       6744       6854       6855       6866       6865  
      6734       6735       6746       6745       6855       6856       6867       6866  
      6735       6736       6747       6746       6856       6857       6868       6867  
      6736       6737       6748       6747       6857       6858       6869       6868  
      6737       6738       6749       6748       6858       6859       6870       6869  
      6738       6739       6750       6749       6859       6860       6871       6870  
      6739       6740       6751       6750       6860       6861       6872       6871  
      6740       6741       6752       6751       6861       6862       6873       6872  
      6741       6742       6753       6752       6862       6863       6874       6873  
      6742       6743       6754       6753       6863       6864       6875       6874  
      6744       6745       6756       6755       6865       6866       6877       6876  
      6745       6746       6757       6756       6866       6867       6878       6877  
      6746       6747       6758       6757       6867       6868       6879       6878  
      6747       6748       6759       6758       6868       6869       6880       6879  
      6748       6749       6760       6759       6869       6870       6881       6880  
      6749       6750       6761       6760       6870       6871       6882       6881  
      6750       6751       6762       6761       6871       6872       6883       6882  
      6751       6752       6763       6762       6872       6873       6884       6883  
      6752       6753       6764       6763       6873       6874       6885       6884  
      6753       6754       6765       6764       6874       6875       6886       6885  
      6755       6756       6767       6766       6876       6877       6888       6887  
      6756       6757       6768       6767       6877       6878       6889       6888  
      6757       6758       6769       6768       6878       6879       6890       6889  
      6758       6759       6770       6769       6879       6880       6891       6890  
      6759       6760       6771       6770       6880       6881       6892       6891  
      6760       6761       6772       6771       6881       6882       6893       6892  
      6761       6762       6773       6772       6882       6883       6894       6893  
      6762       6763       6774       6773       6883       6884       6895       6894  
      6763       6764       6775       6774       6884       6885       6896       6895  
      6764       6765       6776       6775       6885       6886       6897       6896  
      6777       6778       6789       6788       6898       6899       6910       6909  
      6778       6779       6790       6789       6899       6900       6911       6910  
      6779       6780       6791       6790       6900       6901       6912       6911  
      6780       6781       6792       6791       6901       6902       6913       6912  
      6781       6782       6793       6792       6902       6903       6914       6913  
      6782       6783       6794       6793       6903       6904       6915       6914  
      6783       6784       6795       6794       6904       6905       6916       6915  
      6784       6785       6796       6795       6905       6906       6917       6916  
      6785       6786       6797       6796       6906       6907       6918       6917  
      6786       6787       6798       6797       6907       6908       6919       6918  
      6788       6789       6800       6799       6909       6910       6921       6920  
      6789       6790       6801       6800       6910       6911       6922       6921  
      6790       6791       6802       6801       6911       6912       6923       6922  
      6791       6792       6803       6802       6912       6913       6924       6923  
      6792       6793       6804       6803       6913       6914       6925       6924  
      6793       6794       6805       6804       6914       6915       6926       6925  
      6794       6795       6806       6805       6915       6916       6927       6926  
      6795       6796       6807       6806       6916       6917       6928       6927  
      6796       6797       6808       6807       6917       6918       6929       6928  
      6797       6798       6809       6808       6918       6919       6930       6929  
      6799       6800       6811       6810       6920       6921       6932       6931  
      6800       6801       6812       6811       6921       6922       6933       6932  
      6801       6802       6813       6812       6922       6923       6934       6933  
      6802       6803       6814       6813       6923       6924       6935       6934  
      6803       6804       6815       6814       6924       6925       6936       6935  
      6804       6805       6816       6815       6925       6926       6937       6936  
      6805       6806       6817       6816       6926       6927       6938       6937  
      6806       6807       6818       6817       6927       6928       6939       6938  
      6807       6808       6819       6818       6928       6929       6940       6939  
      6808       6809       6820       6819       6929       6930       6941       6940  
      6810       6811       6822       6821       6931       6932       6943       6942  
      6811       6812       6823       6822       6932       6933       6944       6943  
      6812       6813       6824       6823       6933       6934       6945       6944  
      6813       6814       6825       6824       6934       6935       6946       6945  
      6814       6815       6826       6825       6935       6936       6947       6946  
      6815       6816       6827       6826       6936       6937       6948       6947  
      6816       6817       6828       6827       6937       6938       6949       6948  
      6817       6818       6829       6828       6938       6939       6950       6949  
      6818       6819       6830       6829       6939       6940       6951       6950  
      6819       6820       6831       6830       6940       6941       6952       6951  
      6821       6822       6833       6832       6942       6943       6954       6953  
      6822       6823       6834       6833       6943       6944       6955       6954  
      6823       6824       6835       6834       6944       6945       6956       6955  
      6824       6825       6836       6835       6945       6946       6957       6956  
      6825       6826       6837       6836       6946       6947       6958       6957  
      6826       6827       6838       6837       6947       6948       6959       6958  
      6827       6828       6839       6838       6948       6949       6960       6959  
      6828       6829       6840       6839       6949       6950       6961       6960  
      6829       6830       6841       6840       6950       6951       6962       6961  
      6830       6831       6842       6841       6951       6952       6963       6962  
      6832       6833       6844       6843       6953       6954       6965       6964  
      6833       6834       6845       6844       6954       6955       6966       6965  
      6834       6835       6846       6845       6955       6956       6967       6966  
      6835       6836       6847       6846       6956       6957       6968       6967  
      6836       6837       6848       6847       6957       6958       6969       6968  
      6837       6838       6849       6848       6958       6959       6970       6969  
      6838       6839       6850       6849       6959       6960       6971       6970  
      6839       6840       6851       6850       6960       6961       6972       6971  
      6840       6841       6852       6851       6961       6962       6973       6972  
      6841       6842       6853       6852       6962       6963       6974       6973  
      6843       6844       6855       6854       6964       6965       6976       6975  
      6844       6845       6856       6855       6965       6966       6977       6976  
      6845       6846       6857       6856       6966       6967       6978       6977  
      6846       6847       6858       6857       6967       6968       6979       6978  
      6847       6848       6859       6858       6968       6969       6980       6979  
      6848       6849       6860       6859       6969       6970       6981       6980  
      6849       6850       6861       6860       6970       6971       6982       6981  
      6850       6851       6862       6861       6971       6972       6983       6982  
      6851       6852       6863       6862       6972       6973       6984       6983  
      6852       6853       6864       6863       6973       6974       6985       6984  
      6854       6855       6866       6865       6975       6976       6987       6986  
      6855       6856       6867       6866       6976       6977       6988       6987  
      6856       6857       6868       6867       6977       6978       6989       6988  
      6857       6858       6869       6868       6978       6979       6990       6989  
      6858       6859       6870       6869       6979       6980       6991       6990  
      6859       6860       6871       6870       6980       6981       6992       6991  
      6860       6861       6872       6871       6981       6982       6993       6992  
      6861       6862       6873       6872       6982       6983       6994       6993  
      6862       6863       6874       6873       6983       6984       6995       6994  
      6863       6864       6875       6874       6984       6985       6996       6995  
      6865       6866       6877       6876       6986       6987       6998       6997  
      6866       6867       6878       6877       6987       6988       6999       6998  
      6867       6868       6879       6878       6988       6989       7000       6999  
      6868       6869       6880       6879       6989       6990       7001       7000  
      6869       6870       6881       6880       6990       6991       7002       7001  
      6870       6871       6882       6881       6991       6992       7003       7002  
      6871       6872       6883       6882       6992       6993       7004       7003  
      6872       6873       6884       6883       6993       6994       7005       7004  
      6873       6874       6885       6884       6994       6995       7006       7005  
      6874       6875       6886       6885       6995       6996       7007       7006  
      6876       6877       6888       6887       6997       6998       7009       7008  
      6877       6878       6889       6888       6998       6999       7010       7009  
      6878       6879       6890       6889       6999       7000       7011       7010  
      6879       6880       6891       6890       7000       7001       7012       7011  
      6880       6881       6892       6891       7001       7002       7013       7012  
      6881       6882       6893       6892       7002       7003       7014       7013  
      6882       6883       6894       6893       7003       7004       7015       7014  
      6883       6884       6895       6894       7004       7005       7016       7015  
      6884       6885       6896       6895       7005       7006       7017       7016  
      6885       6886       6897       6896       7006       7007       7018       7017  
      6898       6899       6910       6909       7019       7020       7031       7030  
      6899       6900       6911       6910       7020       7021       7032       7031  
      6900       6901       6912       6911       7021       7022       7033       7032  
      6901       6902       6913       6912       7022       7023       7034       7033  
      6902       6903       6914       6913       7023       7024       7035       7034  
      6903       6904       6915       6914       7024       7025       7036       7035  
      6904       6905       6916       6915       7025       7026       7037       7036  
      6905       6906       6917       6916       7026       7027       7038       7037  
      6906       6907       6918       6917       7027       7028       7039       7038  
      6907       6908       6919       6918       7028       7029       7040       7039  
      6909       6910       6921       6920       7030       7031       7042       7041  
      6910       6911       6922       6921       7031       7032       7043       7042  
      6911       6912       6923       6922       7032       7033       7044       7043  
      6912       6913       6924       6923       7033       7034       7045       7044  
      6913       6914       6925       6924       7034       7035       7046       7045  
      6914       6915       6926       6925       7035       7036       7047       7046  
      6915       6916       6927       6926       7036       7037       7048       7047  
      6916       6917       6928       6927       7037       7038       7049       7048  
      6917       6918       6929       6928       7038       7039       7050       7049  
      6918       6919       6930       6929       7039       7040       7051       7050  
      6920       6921       6932       6931       7041       7042       7053       7052  
      6921       6922       6933       6932       7042       7043       7054       7053  
      6922       6923       6934       6933       7043       7044       7055       7054  
      6923       6924       6935       6934       7044       7045       7056       7055  
      6924       6925       6936       6935       7045       7046       7057       7056  
      6925       6926       6937       6936       7046       7047       7058       7057  
      6926       6927       6938       6937       7047       7048       7059       7058  
      6927       6928       6939       6938       7048       7049       7060       7059  
      6928       6929       6940       6939       7049       7050       7061       7060  
      6929       6930       6941       6940       7050       7051       7062       7061  
      6931       6932       6943       6942       7052       7053       7064       7063  
      6932       6933       6944       6943       7053       7054       7065       7064  
      6933       6934       6945       6944       7054       7055       7066       7065  
      6934       6935       6946       6945       7055       7056       7067       7066  
      6935       6936       6947       6946       7056       7057       7068       7067  
      6936       6937       6948       6947       7057       7058       7069       7068  
      6937       6938       6949       6948       7058       7059       7070       7069  
      6938       6939       6950       6949       7059       7060       7071       7070  
      6939       6940       6951       6950       7060       7061       7072       7071  
      6940       6941       6952       6951       7061       7062       7073       7072  
      6942       6943       6954       6953       7063       7064       7075       7074  
      6943       6944       6955       6954       7064       7065       7076       7075  
      6944       6945       6956       6955       7065       7066       7077       7076  
      6945       6946       6957       6956       7066       7067       7078       7077  
      6946       6947       6958       6957       7067       7068       7079       7078  
      6947       6948       6959       6958       7068       7069       7080       7079  
      6948       6949       6960       6959       7069       7070       7081       7080  
      6949       6950       6961       6960       7070       7071       7082       7081  
      6950       6951       6962       6961       7071       7072       7083       7082  
      6951       6952       6963       6962       7072       7073       7084       7083  
      6953       6954       6965       6964       7074       7075       7086       7085  
      6954       6955       6966       6965       7075       7076       7087       7086  
      6955       6956       6967       6966       7076       7077       7088       7087  
      6956       6957       6968       6967       7077       7078       7089       7088  
      6957       6958       6969       6968       7078       7079       7090       7089  
      6958       6959       6970       6969       7079       7080       7091       7090  
      6959       6960       6971       6970       7080       7081       7092       7091  
      6960       6961       6972       6971       7081       7082       7093       7092  
      6961       6962       6973       6972       7082       7083       7094       7093  
      6962       6963       6974       6973       7083       7084       7095       7094  
      6964       6965       6976       6975       7085       7086       7097       7096  
      6965       6966       6977       6976       7086       7087       7098       7097  
      6966       6967       6978       6977       7087       7088       7099       7098  
      6967       6968       6979       6978       7088       7089       7100       7099  
      6968       6969       6980       6979       7089       7090       7101       7100  
      6969       6970       6981       6980       7090       7091       7102       7101  
      6970       6971       6982       6981       7091       7092       7103       7102  
      6971       6972       6983       6982       7092       7093       7104       7103  
      6972       6973       6984       6983       7093       7094       7105       7104  
      6973       6974       6985       6984       7094       7095       7106       7105  
      6975       6976       6987       6986       7096       7097       7108       7107  
      6976       6977       6988       6987       7097       7098       7109       7108  
      6977       6978       6989       6988       7098       7099       7110       7109  
      6978       6979       6990       6989       7099       7100       7111       7110  
      6979       6980       6991       6990       7100       7101       7112       7111  
      6980       6981       6992       6991       7101       7102       7113       7112  
      6981       6982       6993       6992       7102       7103       7114       7113  
      6982       6983       6994       6993       7103       7104       7115       7114  
      6983       6984       6995       6994       7104       7105       7116       7115  
      6984       6985       6996       6995       7105       7106       7117       7116  
      6986       6987       6998       6997       7107       7108       7119       7118  
      6987       6988       6999       6998       7108       7109       7120       7119  
      6988       6989       7000       6999       7109       7110       7121       7120  
      6989       6990       7001       7000       7110       7111       7122       7121  
      6990       6991       7002       7001       7111       7112       7123       7122  
      6991       6992       7003       7002       7112       7113       7124       7123  
      6992       6993       7004       7003       7113       7114       7125       7124  
      6993       6994       7005       7004       7114       7115       7126       7125  
      6994       6995       7006       7005       7115       7116       7127       7126  
      6995       6996       7007       7006       7116       7117       7128       7127  
      6997       6998       7009       7008       7118       7119       7130       7129  
      6998       6999       7010       7009       7119       7120       7131       7130  
      6999       7000       7011       7010       7120       7121       7132       7131  
      7000       7001       7012       7011       7121       7122       7133       7132  
      7001       7002       7013       7012       7122       7123       7134       7133  
      7002       7003       7014       7013       7123       7124       7135       7134  
      7003       7004       7015       7014       7124       7125       7136       7135  
      7004       7005       7016       7015       7125       7126       7137       7136  
      7005       7006       7017       7016       7126       7127       7138       7137  
      7006       7007       7018       7017       7127       7128       7139       7138  
      7019       7020       7031       7030       7140       7141       7152       7151  
      7020       7021       7032       7031       7141       7142       7153       7152  
      7021       7022       7033       7032       7142       7143       7154       7153  
      7022       7023       7034       7033       7143       7144       7155       7154  
      7023       7024       7035       7034       7144       7145       7156       7155  
      7024       7025       7036       7035       7145       7146       7157       7156  
      7025       7026       7037       7036       7146       7147       7158       7157  
      7026       7027       7038       7037       7147       7148       7159       7158  
      7027       7028       7039       7038       7148       7149       7160       7159  
      7028       7029       7040       7039       7149       7150       7161       7160  
      7030       7031       7042       7041       7151       7152       7163       7162  
      7031       7032       7043       7042       7152       7153       7164       7163  
      7032       7033       7044       7043       7153       7154       7165       7164  
      7033       7034       7045       7044       7154       7155       7166       7165  
      7034       7035       7046       7045       7155       7156       7167       7166  
      7035       7036       7047       7046       7156       7157       7168       7167  
      7036       7037       7048       7047       7157       7158       7169       7168  
      7037       7038       7049       7048       7158       7159       7170       7169  
      7038       7039       7050       7049       7159       7160       7171       7170  
      7039       7040       7051       7050       7160       7161       7172       7171  
      7041       7042       7053       7052       7162       7163       7174       7173  
      7042       7043       7054       7053       7163       7164       7175       7174  
      7043       7044       7055       7054       7164       7165       7176       7175  
      7044       7045       7056       7055       7165       7166       7177       7176  
      7045       7046       7057       7056       7166       7167       7178       7177  
      7046       7047       7058       7057       7167       7168       7179       7178  
      7047       7048       7059       7058       7168       7169       7180       7179  
      7048       7049       7060       7059       7169       7170       7181       7180  
      7049       7050       7061       7060       7170       7171       7182       7181  
      7050       7051       7062       7061       7171       7172       7183       7182  
      7052       7053       7064       7063       7173       7174       7185       7184  
      7053       7054       7065       7064       7174       7175       7186       7185  
      7054       7055       7066       7065       7175       7176       7187       7186  
      7055       7056       7067       7066       7176       7177       7188       7187  
      7056       7057       7068       7067       7177       7178       7189       7188  
      7057       7058       7069       7068       7178       7179       7190       7189  
      7058       7059       7070       7069       7179       7180       7191       7190  
      7059       7060       7071       7070       7180       7181       7192       7191  
      7060       7061       7072       7071       7181       7182       7193       7192  
      7061       7062       7073       7072       7182       7183       7194       7193  
      7063       7064       7075       7074       7184       7185       7196       7195  
      7064       7065       7076       7075       7185       7186       7197       7196  
      7065       7066       7077       7076       7186       7187       7198       7197  
      7066       7067       7078       7077       7187       7188       7199       7198  
      7067       7068       7079       7078       7188       7189       7200       7199  
      7068       7069       7080       7079       7189       7190       7201       7200  
      7069       7070       7081       7080       7190       7191       7202       7201  
      7070       7071       7082       7081       7191       7192       7203       7202  
      7071       7072       7083       7082       7192       7193       7204       7203  
      7072       7073       7084       7083       7193       7194       7205       7204  
      7074       7075       7086       7085       7195       7196       7207       7206  
      7075       7076       7087       7086       7196       7197       7208       7207  
      7076       7077       7088       7087       7197       7198       7209       7208  
      7077       7078       7089       7088       7198       7199       7210       7209  
      7078       7079       7090       7089       7199       7200       7211       7210  
      7079       7080       7091       7090       7200       7201       7212       7211  
      7080       7081       7092       7091       7201       7202       7213       7212  
      7081       7082       7093       7092       7202       7203       7214       7213  
      7082       7083       7094       7093       7203       7204       7215       7214  
      7083       7084       7095       7094       7204       7205       7216       7215  
      7085       7086       7097       7096       7206       7207       7218       7217  
      7086       7087       7098       7097       7207       7208       7219       7218  
      7087       7088       7099       7098       7208       7209       7220       7219  
      7088       7089       7100       7099       7209       7210       7221       7220  
      7089       7090       7101       7100       7210       7211       7222       7221  
      7090       7091       7102       7101       7211       7212       7223       7222  
      7091       7092       7103       7102       7212       7213       7224       7223  
      7092       7093       7104       7103       7213       7214       7225       7224  
      7093       7094       7105       7104       7214       7215       7226       7225  
      7094       7095       7106       7105       7215       7216       7227       7226  
      7096       7097       7108       7107       7217       7218       7229       7228  
      7097       7098       7109       7108       7218       7219       7230       7229  
      7098       7099       7110       7109       7219       7220       7231       7230  
      7099       7100       7111       7110       7220       7221       7232       7231  
      7100       7101       7112       7111       7221       7222       7233       7232  
      7101       7102       7113       7112       7222       7223       7234       7233  
      7102       7103       7114       7113       7223       7224       7235       7234  
      7103       7104       7115       7114       7224       7225       7236       7235  
      7104       7105       7116       7115       7225       7226       7237       7236  
      7105       7106       7117       7116       7226       7227       7238       7237  
      7107       7108       7119       7118       7228       7229       7240       7239  
      7108       7109       7120       7119       7229       7230       7241       7240  
      7109       7110       7121       7120       7230       7231       7242       7241  
      7110       7111       7122       7121       7231       7232       7243       7242  
      7111       7112       7123       7122       7232       7233       7244       7243  
      7112       7113       7124       7123       7233       7234       7245       7244  
      7113       7114       7125       7124       7234       7235       7246       7245  
      7114       7115       7126       7125       7235       7236       7247       7246  
      7115       7116       7127       7126       7236       7237       7248       7247  
      7116       7117       7128       7127       7237       7238       7249       7248  
      7118       7119       7130       7129       7239       7240       7251       7250  
      7119       7120       7131       7130       7240       7241       7252       7251  
      7120       7121       7132       7131       7241       7242       7253       7252  
      7121       7122       7133       7132       7242       7243       7254       7253  
      7122       7123       7134       7133       7243       7244       7255       7254  
      7123       7124       7135       7134       7244       7245       7256       7255  
      7124       7125       7136       7135       7245       7246       7257       7256  
      7125       7126       7137       7136       7246       7247       7258       7257  
      7126       7127       7138       7137       7247       7248       7259       7258  
      7127       7128       7139       7138       7248       7249       7260       7259  
      7140       7141       7152       7151       7261       7262       7273       7272  
      7141       7142       7153       7152       7262       7263       7274       7273  
      7142       7143       7154       7153       7263       7264       7275       7274  
      7143       7144       7155       7154       7264       7265       7276       7275  
      7144       7145       7156       7155       7265       7266       7277       7276  
      7145       7146       7157       7156       7266       7267       7278       7277  
      7146       7147       7158       7157       7267       7268       7279       7278  
      7147       7148       7159       7158       7268       7269       7280       7279  
      7148       7149       7160       7159       7269       7270       7281       7280  
      7149       7150       7161       7160       7270       7271       7282       7281  
      7151       7152       7163       7162       7272       7273       7284       7283  
      7152       7153       7164       7163       7273       7274       7285       7284  
      7153       7154       7165       7164       7274       7275       7286       7285  
      7154       7155       7166       7165       7275       7276       7287       7286  
      7155       7156       7167       7166       7276       7277       7288       7287  
      7156       7157       7168       7167       7277       7278       7289       7288  
      7157       7158       7169       7168       7278       7279       7290       7289  
      7158       7159       7170       7169       7279       7280       7291       7290  
      7159       7160       7171       7170       7280       7281       7292       7291  
      7160       7161       7172       7171       7281       7282       7293       7292  
      7162       7163       7174       7173       7283       7284       7295       7294  
      7163       7164       7175       7174       7284       7285       7296       7295  
      7164       7165       7176       7175       7285       7286       7297       7296  
      7165       7166       7177       7176       7286       7287       7298       7297  
      7166       7167       7178       7177       7287       7288       7299       7298  
      7167       7168       7179       7178       7288       7289       7300       7299  
      7168       7169       7180       7179       7289       7290       7301       7300  
      7169       7170       7181       7180       7290       7291       7302       7301  
      7170       7171       7182       7181       7291       7292       7303       7302  
      7171       7172       7183       7182       7292       7293       7304       7303  
      7173       7174       7185       7184       7294       7295       7306       7305  
      7174       7175       7186       7185       7295       7296       7307       7306  
      7175       7176       7187       7186       7296       7297       7308       7307  
      7176       7177       7188       7187       7297       7298       7309       7308  
      7177       7178       7189       7188       7298       7299       7310       7309  
      7178       7179       7190       7189       7299       7300       7311       7310  
      7179       7180       7191       7190       7300       7301       7312       7311  
      7180       7181       7192       7191       7301       7302       7313       7312  
      7181       7182       7193       7192       7302       7303       7314       7313  
      7182       7183       7194       7193       7303       7304       7315       7314  
      7184       7185       7196       7195       7305       7306       7317       7316  
      7185       7186       7197       7196       7306       7307       7318       7317  
      7186       7187       7198       7197       7307       7308       7319       7318  
      7187       7188       7199       7198       7308       7309       7320       7319  
      7188       7189       7200       7199       7309       7310       7321       7320  
      7189       7190       7201       7200       7310       7311       7322       7321  
      7190       7191       7202       7201       7311       7312       7323       7322  
      7191       7192       7203       7202       7312       7313       7324       7323  
      7192       7193       7204       7203       7313       7314       7325       7324  
      7193       7194       7205       7204       7314       7315       7326       7325  
      7195       7196       7207       7206       7316       7317       7328       7327  
      7196       7197       7208       7207       7317       7318       7329       7328  
      7197       7198       7209       7208       7318       7319       7330       7329  
      7198       7199       7210       7209       7319       7320       7331       7330  
      7199       7200       7211       7210       7320       7321       7332       7331  
      7200       7201       7212       7211       7321       7322       7333       7332  
      7201       7202       7213       7212       7322       7323       7334       7333  
      7202       7203       7214       7213       7323       7324       7335       7334  
      7203       7204       7215       7214       7324       7325       7336       7335  
      7204       7205       7216       7215       7325       7326       7337       7336  
      7206       7207       7218       7217       7327       7328       7339       7338  
      7207       7208       7219       7218       7328       7329       7340       7339  
      7208       7209       7220       7219       7329       7330       7341       7340  
      7209       7210       7221       7220       7330       7331       7342       7341  
      7210       7211       7222       7221       7331       7332       7343       7342  
      7211       7212       7223       7222       7332       7333       7344       7343  
      7212       7213       7224       7223       7333       7334       7345       7344  
      7213       7214       7225       7224       7334       7335       7346       7345  
      7214       7215       7226       7225       7335       7336       7347       7346  
      7215       7216       7227       7226       7336       7337       7348       7347  
      7217       7218       7229       7228       7338       7339       7350       7349  
      7218       7219       7230       7229       7339       7340       7351       7350  
      7219       7220       7231       7230       7340       7341       7352       7351  
      7220       7221       7232       7231       7341       7342       7353       7352  
      7221       7222       7233       7232       7342       7343       7354       7353  
      7222       7223       7234       7233       7343       7344       7355       7354  
      7223       7224       7235       7234       7344       7345       7356       7355  
      7224       7225       7236       7235       7345       7346       7357       7356  
      7225       7226       7237       7236       7346       7347       7358       7357  
      7226       7227       7238       7237       7347       7348       7359       7358  
      7228       7229       7240       7239       7349       7350       7361       7360  
      7229       7230       7241       7240       7350       7351       7362       7361  
      7230       7231       7242       7241       7351       7352       7363       7362  
      7231       7232       7243       7242       7352       7353       7364       7363  
      7232       7233       7244       7243       7353       7354       7365       7364  
      7233       7234       7245       7244       7354       7355       7366       7365  
      7234       7235       7246       7245       7355       7356       7367       7366  
      7235       7236       7247       7246       7356       7357       7368       7367  
      7236       7237       7248       7247       7357       7358       7369       7368  
      7237       7238       7249       7248       7358       7359       7370       7369  
      7239       7240       7251       7250       7360       7361       7372       7371  
      7240       7241       7252       7251       7361       7362       7373       7372  
      7241       7242       7253       7252       7362       7363       7374       7373  
      7242       7243       7254       7253       7363       7364       7375       7374  
      7243       7244       7255       7254       7364       7365       7376       7375  
      7244       7245       7256       7255       7365       7366       7377       7376  
      7245       7246       7257       7256       7366       7367       7378       7377  
      7246       7247       7258       7257       7367       7368       7379       7378  
      7247       7248       7259       7258       7368       7369       7380       7379  
      7248       7249       7260       7259       7369       7370       7381       7380  
      7261       7262       7273       7272       7382       7383       7394       7393  
      7262       7263       7274       7273       7383       7384       7395       7394  
      7263       7264       7275       7274       7384       7385       7396       7395  
      7264       7265       7276       7275       7385       7386       7397       7396  
      7265       7266       7277       7276       7386       7387       7398       7397  
      7266       7267       7278       7277       7387       7388       7399       7398  
      7267       7268       7279       7278       7388       7389       7400       7399  
      7268       7269       7280       7279       7389       7390       7401       7400  
      7269       7270       7281       7280       7390       7391       7402       7401  
      7270       7271       7282       7281       7391       7392       7403       7402  
      7272       7273       7284       7283       7393       7394       7405       7404  
      7273       7274       7285       7284       7394       7395       7406       7405  
      7274       7275       7286       7285       7395       7396       7407       7406  
      7275       7276       7287       7286       7396       7397       7408       7407  
      7276       7277       7288       7287       7397       7398       7409       7408  
      7277       7278       7289       7288       7398       7399       7410       7409  
      7278       7279       7290       7289       7399       7400       7411       7410  
      7279       7280       7291       7290       7400       7401       7412       7411  
      7280       7281       7292       7291       7401       7402       7413       7412  
      7281       7282       7293       7292       7402       7403       7414       7413  
      7283       7284       7295       7294       7404       7405       7416       7415  
      7284       7285       7296       7295       7405       7406       7417       7416  
      7285       7286       7297       7296       7406       7407       7418       7417  
      7286       7287       7298       7297       7407       7408       7419       7418  
      7287       7288       7299       7298       7408       7409       7420       7419  
      7288       7289       7300       7299       7409       7410       7421       7420  
      7289       7290       7301       7300       7410       7411       7422       7421  
      7290       7291       7302       7301       7411       7412       7423       7422  
      7291       7292       7303       7302       7412       7413       7424       7423  
      7292       7293       7304       7303       7413       7414       7425       7424  
      7294       7295       7306       7305       7415       7416       7427       7426  
      7295       7296       7307       7306       7416       7417       7428       7427  
      7296       7297       7308       7307       7417       7418       7429       7428  
      7297       7298       7309       7308       7418       7419       7430       7429  
      7298       7299       7310       7309       7419       7420       7431       7430  
      7299       7300       7311       7310       7420       7421       7432       7431  
      7300       7301       7312       7311       7421       7422       7433       7432  
      7301       7302       7313       7312       7422       7423       7434       7433  
      7302       7303       7314       7313       7423       7424       7435       7434  
      7303       7304       7315       7314       7424       7425       7436       7435  
      7305       7306       7317       7316       7426       7427       7438       7437  
      7306       7307       7318       7317       7427       7428       7439       7438  
      7307       7308       7319       7318       7428       7429       7440       7439  
      7308       7309       7320       7319       7429       7430       7441       7440  
      7309       7310       7321       7320       7430       7431       7442       7441  
      7310       7311       7322       7321       7431       7432       7443       7442  
      7311       7312       7323       7322       7432       7433       7444       7443  
      7312       7313       7324       7323       7433       7434       7445       7444  
      7313       7314       7325       7324       7434       7435       7446       7445  
      7314       7315       7326       7325       7435       7436       7447       7446  
      7316       7317       7328       7327       7437       7438       7449       7448  
      7317       7318       7329       7328       7438       7439       7450       7449  
      7318       7319       7330       7329       7439       7440       7451       7450  
      7319       7320       7331       7330       7440       7441       7452       7451  
      7320       7321       7332       7331       7441       7442       7453       7452  
      7321       7322       7333       7332       7442       7443       7454       7453  
      7322       7323       7334       7333       7443       7444       7455       7454  
      7323       7324       7335       7334       7444       7445       7456       7455  
      7324       7325       7336       7335       7445       7446       7457       7456  
      7325       7326       7337       7336       7446       7447       7458       7457  
      7327       7328       7339       7338       7448       7449       7460       7459  
      7328       7329       7340       7339       7449       7450       7461       7460  
      7329       7330       7341       7340       7450       7451       7462       7461  
      7330       7331       7342       7341       7451       7452       7463       7462  
      7331       7332       7343       7342       7452       7453       7464       7463  
      7332       7333       7344       7343       7453       7454       7465       7464  
      7333       7334       7345       7344       7454       7455       7466       7465  
      7334       7335       7346       7345       7455       7456       7467       7466  
      7335       7336       7347       7346       7456       7457       7468       7467  
      7336       7337       7348       7347       7457       7458       7469       7468  
      7338       7339       7350       7349       7459       7460       7471       7470  
      7339       7340       7351       7350       7460       7461       7472       7471  
      7340       7341       7352       7351       7461       7462       7473       7472  
      7341       7342       7353       7352       7462       7463       7474       7473  
      7342       7343       7354       7353       7463       7464       7475       7474  
      7343       7344       7355       7354       7464       7465       7476       7475  
      7344       7345       7356       7355       7465       7466       7477       7476  
      7345       7346       7357       7356       7466       7467       7478       7477  
      7346       7347       7358       7357       7467       7468       7479       7478  
      7347       7348       7359       7358       7468       7469       7480       7479  
      7349       7350       7361       7360       7470       7471       7482       7481  
      7350       7351       7362       7361       7471       7472       7483       7482  
      7351       7352       7363       7362       7472       7473       7484       7483  
      7352       7353       7364       7363       7473       7474       7485       7484  
      7353       7354       7365       7364       7474       7475       7486       7485  
      7354       7355       7366       7365       7475       7476       7487       7486  
      7355       7356       7367       7366       7476       7477       7488       7487  
      7356       7357       7368       7367       7477       7478       7489       7488  
      7357       7358       7369       7368       7478       7479       7490       7489  
      7358       7359       7370       7369       7479       7480       7491       7490  
      7360       7361       7372       7371       7481       7482       7493       7492  
      7361       7362       7373       7372       7482       7483       7494       7493  
      7362       7363       7374       7373       7483       7484       7495       7494  
      7363       7364       7375       7374       7484       7485       7496       7495  
      7364       7365       7376       7375       7485       7486       7497       7496  
      7365       7366       7377       7376       7486       7487       7498       7497  
      7366       7367       7378       7377       7487       7488       7499       7498  
      7367       7368       7379       7378       7488       7489       7500       7499  
      7368       7369       7380       7379       7489       7490       7501       7500  
      7369       7370       7381       7380       7490       7491       7502       7501  
      7382       7383       7394       7393       7503       7504       7515       7514  
      7383       7384       7395       7394       7504       7505       7516       7515  
      7384       7385       7396       7395       7505       7506       7517       7516  
      7385       7386       7397       7396       7506       7507       7518       7517  
      7386       7387       7398       7397       7507       7508       7519       7518  
      7387       7388       7399       7398       7508       7509       7520       7519  
      7388       7389       7400       7399       7509       7510       7521       7520  
      7389       7390       7401       7400       7510       7511       7522       7521  
      7390       7391       7402       7401       7511       7512       7523       7522  
      7391       7392       7403       7402       7512       7513       7524       7523  
      7393       7394       7405       7404       7514       7515       7526       7525  
      7394       7395       7406       7405       7515       7516       7527       7526  
      7395       7396       7407       7406       7516       7517       7528       7527  
      7396       7397       7408       7407       7517       7518       7529       7528  
      7397       7398       7409       7408       7518       7519       7530       7529  
      7398       7399       7410       7409       7519       7520       7531       7530  
      7399       7400       7411       7410       7520       7521       7532       7531  
      7400       7401       7412       7411       7521       7522       7533       7532  
      7401       7402       7413       7412       7522       7523       7534       7533  
      7402       7403       7414       7413       7523       7524       7535       7534  
      7404       7405       7416       7415       7525       7526       7537       7536  
      7405       7406       7417       7416       7526       7527       7538       7537  
      7406       7407       7418       7417       7527       7528       7539       7538  
      7407       7408       7419       7418       7528       7529       7540       7539  
      7408       7409       7420       7419       7529       7530       7541       7540  
      7409       7410       7421       7420       7530       7531       7542       7541  
      7410       7411       7422       7421       7531       7532       7543       7542  
      7411       7412       7423       7422       7532       7533       7544       7543  
      7412       7413       7424       7423       7533       7534       7545       7544  
      7413       7414       7425       7424       7534       7535       7546       7545  
      7415       7416       7427       7426       7536       7537       7548       7547  
      7416       7417       7428       7427       7537       7538       7549       7548  
      7417       7418       7429       7428       7538       7539       7550       7549  
      7418       7419       7430       7429       7539       7540       7551       7550  
      7419       7420       7431       7430       7540       7541       7552       7551  
      7420       7421       7432       7431       7541       7542       7553       7552  
      7421       7422       7433       7432       7542       7543       7554       7553  
      7422       7423       7434       7433       7543       7544       7555       7554  
      7423       7424       7435       7434       7544       7545       7556       7555  
      7424       7425       7436       7435       7545       7546       7557       7556  
      7426       7427       7438       7437       7547       7548       7559       7558  
      7427       7428       7439       7438       7548       7549       7560       7559  
      7428       7429       7440       7439       7549       7550       7561       7560  
      7429       7430       7441       7440       7550       7551       7562       7561  
      7430       7431       7442       7441       7551       7552       7563       7562  
      7431       7432       7443       7442       7552       7553       7564       7563  
      7432       7433       7444       7443       7553       7554       7565       7564  
      7433       7434       7445       7444       7554       7555       7566       7565  
      7434       7435       7446       7445       7555       7556       7567       7566  
      7435       7436       7447       7446       7556       7557       7568       7567  
      7437       7438       7449       7448       7558       7559       7570       7569  
      7438       7439       7450       7449       7559       7560       7571       7570  
      7439       7440       7451       7450       7560       7561       7572       7571  
      7440       7441       7452       7451       7561       7562       7573       7572  
      7441       7442       7453       7452       7562       7563       7574       7573  
      7442       7443       7454       7453       7563       7564       7575       7574  
      7443       7444       7455       7454       7564       7565       7576       7575  
      7444       7445       7456       7455       7565       7566       7577       7576  
      7445       7446       7457       7456       7566       7567       7578       7577  
      7446       7447       7458       7457       7567       7568       7579       7578  
      7448       7449       7460       7459       7569       7570       7581       7580  
      7449       7450       7461       7460       7570       7571       7582       7581  
      7450       7451       7462       7461       7571       7572       7583       7582  
      7451       7452       7463       7462       7572       7573       7584       7583  
      7452       7453       7464       7463       7573       7574       7585       7584  
      7453       7454       7465       7464       7574       7575       7586       7585  
      7454       7455       7466       7465       7575       7576       7587       7586  
      7455       7456       7467       7466       7576       7577       7588       7587  
      7456       7457       7468       7467       7577       7578       7589       7588  
      7457       7458       7469       7468       7578       7579       7590       7589  
      7459       7460       7471       7470       7580       7581       7592       7591  
      7460       7461       7472       7471       7581       7582       7593       7592  
      7461       7462       7473       7472       7582       7583       7594       7593  
      7462       7463       7474       7473       7583       7584       7595       7594  
      7463       7464       7475       7474       7584       7585       7596       7595  
      7464       7465       7476       7475       7585       7586       7597       7596  
      7465       7466       7477       7476       7586       7587       7598       7597  
      7466       7467       7478       7477       7587       7588       7599       7598  
      7467       7468       7479       7478       7588       7589       7600       7599  
      7468       7469       7480       7479       7589       7590       7601       7600  
      7470       7471       7482       7481       7591       7592       7603       7602  
      7471       7472       7483       7482       7592       7593       7604       7603  
      7472       7473       7484       7483       7593       7594       7605       7604  
      7473       7474       7485       7484       7594       7595       7606       7605  
      7474       7475       7486       7485       7595       7596       7607       7606  
      7475       7476       7487       7486       7596       7597       7608       7607  
      7476       7477       7488       7487       7597       7598       7609       7608  
      7477       7478       7489       7488       7598       7599       7610       7609  
      7478       7479       7490       7489       7599       7600       7611       7610  
      7479       7480       7491       7490       7600       7601       7612       7611  
      7481       7482       7493       7492       7602       7603       7614       7613  
      7482       7483       7494       7493       7603       7604       7615       7614  
      7483       7484       7495       7494       7604       7605       7616       7615  
      7484       7485       7496       7495       7605       7606       7617       7616  
      7485       7486       7497       7496       7606       7607       7618       7617  
      7486       7487       7498       7497       7607       7608       7619       7618  
      7487       7488       7499       7498       7608       7609       7620       7619  
      7488       7489       7500       7499       7609       7610       7621       7620  
      7489       7490       7501       7500       7610       7611       7622       7621  
      7490       7491       7502       7501       7611       7612       7623       7622  
      7503       7504       7515       7514       7624       7625       7636       7635  
      7504       7505       7516       7515       7625       7626       7637       7636  
      7505       7506       7517       7516       7626       7627       7638       7637  
      7506       7507       7518       7517       7627       7628       7639       7638  
      7507       7508       7519       7518       7628       7629       7640       7639  
      7508       7509       7520       7519       7629       7630       7641       7640  
      7509       7510       7521       7520       7630       7631       7642       7641  
      7510       7511       7522       7521       7631       7632       7643       7642  
      7511       7512       7523       7522       7632       7633       7644       7643  
      7512       7513       7524       7523       7633       7634       7645       7644  
      7514       7515       7526       7525       7635       7636       7647       7646  
      7515       7516       7527       7526       7636       7637       7648       7647  
      7516       7517       7528       7527       7637       7638       7649       7648  
      7517       7518       7529       7528       7638       7639       7650       7649  
      7518       7519       7530       7529       7639       7640       7651       7650  
      7519       7520       7531       7530       7640       7641       7652       7651  
      7520       7521       7532       7531       7641       7642       7653       7652  
      7521       7522       7533       7532       7642       7643       7654       7653  
      7522       7523       7534       7533       7643       7644       7655       7654  
      7523       7524       7535       7534       7644       7645       7656       7655  
      7525       7526       7537       7536       7646       7647       7658       7657  
      7526       7527       7538       7537       7647       7648       7659       7658  
      7527       7528       7539       7538       7648       7649       7660       7659  
      7528       7529       7540       7539       7649       7650       7661       7660  
      7529       7530       7541       7540       7650       7651       7662       7661  
      7530       7531       7542       7541       7651       7652       7663       7662  
      7531       7532       7543       7542       7652       7653       7664       7663  
      7532       7533       7544       7543       7653       7654       7665       7664  
      7533       7534       7545       7544       7654       7655       7666       7665  
      7534       7535       7546       7545       7655       7656       7667       7666  
      7536       7537       7548       7547       7657       7658       7669       7668  
      7537       7538       7549       7548       7658       7659       7670       7669  
      7538       7539       7550       7549       7659       7660       7671       7670  
      7539       7540       7551       7550       7660       7661       7672       7671  
      7540       7541       7552       7551       7661       7662       7673       7672  
      7541       7542       7553       7552       7662       7663       7674       7673  
      7542       7543       7554       7553       7663       7664       7675       7674  
      7543       7544       7555       7554       7664       7665       7676       7675  
      7544       7545       7556       7555       7665       7666       7677       7676  
      7545       7546       7557       7556       7666       7667       7678       7677  
      7547       7548       7559       7558       7668       7669       7680       7679  
      7548       7549       7560       7559       7669       7670       7681       7680  
      7549       7550       7561       7560       7670       7671       7682       7681  
      7550       7551       7562       7561       7671       7672       7683       7682  
      7551       7552       7563       7562       7672       7673       7684       7683  
      7552       7553       7564       7563       7673       7674       7685       7684  
      7553       7554       7565       7564       7674       7675       7686       7685  
      7554       7555       7566       7565       7675       7676       7687       7686  
      7555       7556       7567       7566       7676       7677       7688       7687  
      7556       7557       7568       7567       7677       7678       7689       7688  
      7558       7559       7570       7569       7679       7680       7691       7690  
      7559       7560       7571       7570       7680       7681       7692       7691  
      7560       7561       7572       7571       7681       7682       7693       7692  
      7561       7562       7573       7572       7682       7683       7694       7693  
      7562       7563       7574       7573       7683       7684       7695       7694  
      7563       7564       7575       7574       7684       7685       7696       7695  
      7564       7565       7576       7575       7685       7686       7697       7696  
      7565       7566       7577       7576       7686       7687       7698       7697  
      7566       7567       7578       7577       7687       7688       7699       7698  
      7567       7568       7579       7578       7688       7689       7700       7699  
      7569       7570       7581       7580       7690       7691       7702       7701  
      7570       7571       7582       7581       7691       7692       7703       7702  
      7571       7572       7583       7582       7692       7693       7704       7703  
      7572       7573       7584       7583       7693       7694       7705       7704  
      7573       7574       7585       7584       7694       7695       7706       7705  
      7574       7575       7586       7585       7695       7696       7707       7706  
      7575       7576       7587       7586       7696       7697       7708       7707  
      7576       7577       7588       7587       7697       7698       7709       7708  
      7577       7578       7589       7588       7698       7699       7710       7709  
      7578       7579       7590       7589       7699       7700       7711       7710  
      7580       7581       7592       7591       7701       7702       7713       7712  
      7581       7582       7593       7592       7702       7703       7714       7713  
      7582       7583       7594       7593       7703       7704       7715       7714  
      7583       7584       7595       7594       7704       7705       7716       7715  
      7584       7585       7596       7595       7705       7706       7717       7716  
      7585       7586       7597       7596       7706       7707       7718       7717  
      7586       7587       7598       7597       7707       7708       7719       7718  
      7587       7588       7599       7598       7708       7709       7720       7719  
      7588       7589       7600       7599       7709       7710       7721       7720  
      7589       7590       7601       7600       7710       7711       7722       7721  
      7591       7592       7603       7602       7712       7713       7724       7723  
      7592       7593       7604       7603       7713       7714       7725       7724  
      7593       7594       7605       7604       7714       7715       7726       7725  
      7594       7595       7606       7605       7715       7716       7727       7726  
      7595       7596       7607       7606       7716       7717       7728       7727  
      7596       7597       7608       7607       7717       7718       7729       7728  
      7597       7598       7609       7608       7718       7719       7730       7729  
      7598       7599       7610       7609       7719       7720       7731       7730  
      7599       7600       7611       7610       7720       7721       7732       7731  
      7600       7601       7612       7611       7721       7722       7733       7732  
      7602       7603       7614       7613       7723       7724       7735       7734  
      7603       7604       7615       7614       7724       7725       7736       7735  
      7604       7605       7616       7615       7725       7726       7737       7736  
      7605       7606       7617       7616       7726       7727       7738       7737  
      7606       7607       7618       7617       7727       7728       7739       7738  
      7607       7608       7619       7618       7728       7729       7740       7739  
      7608       7609       7620       7619       7729       7730       7741       7740  
      7609       7610       7621       7620       7730       7731       7742       7741  
      7610       7611       7622       7621       7731       7732       7743       7742  
      7611       7612       7623       7622       7732       7733       7744       7743  
      7624       7625       7636       7635       7745       7746       7757       7756  
      7625       7626       7637       7636       7746       7747       7758       7757  
      7626       7627       7638       7637       7747       7748       7759       7758  
      7627       7628       7639       7638       7748       7749       7760       7759  
      7628       7629       7640       7639       7749       7750       7761       7760  
      7629       7630       7641       7640       7750       7751       7762       7761  
      7630       7631       7642       7641       7751       7752       7763       7762  
      7631       7632       7643       7642       7752       7753       7764       7763  
      7632       7633       7644       7643       7753       7754       7765       7764  
      7633       7634       7645       7644       7754       7755       7766       7765  
      7635       7636       7647       7646       7756       7757       7768       7767  
      7636       7637       7648       7647       7757       7758       7769       7768  
      7637       7638       7649       7648       7758       7759       7770       7769  
      7638       7639       7650       7649       7759       7760       7771       7770  
      7639       7640       7651       7650       7760       7761       7772       7771  
      7640       7641       7652       7651       7761       7762       7773       7772  
      7641       7642       7653       7652       7762       7763       7774       7773  
      7642       7643       7654       7653       7763       7764       7775       7774  
      7643       7644       7655       7654       7764       7765       7776       7775  
      7644       7645       7656       7655       7765       7766       7777       7776  
      7646       7647       7658       7657       7767       7768       7779       7778  
      7647       7648       7659       7658       7768       7769       7780       7779  
      7648       7649       7660       7659       7769       7770       7781       7780  
      7649       7650       7661       7660       7770       7771       7782       7781  
      7650       7651       7662       7661       7771       7772       7783       7782  
      7651       7652       7663       7662       7772       7773       7784       7783  
      7652       7653       7664       7663       7773       7774       7785       7784  
      7653       7654       7665       7664       7774       7775       7786       7785  
      7654       7655       7666       7665       7775       7776       7787       7786  
      7655       7656       7667       7666       7776       7777       7788       7787  
      7657       7658       7669       7668       7778       7779       7790       7789  
      7658       7659       7670       7669       7779       7780       7791       7790  
      7659       7660       7671       7670       7780       7781       7792       7791  
      7660       7661       7672       7671       7781       7782       7793       7792  
      7661       7662       7673       7672       7782       7783       7794       7793  
      7662       7663       7674       7673       7783       7784       7795       7794  
      7663       7664       7675       7674       7784       7785       7796       7795  
      7664       7665       7676       7675       7785       7786       7797       7796  
      7665       7666       7677       7676       7786       7787       7798       7797  
      7666       7667       7678       7677       7787       7788       7799       7798  
      7668       7669       7680       7679       7789       7790       7801       7800  
      7669       7670       7681       7680       7790       7791       7802       7801  
      7670       7671       7682       7681       7791       7792       7803       7802  
      7671       7672       7683       7682       7792       7793       7804       7803  
      7672       7673       7684       7683       7793       7794       7805       7804  
      7673       7674       7685       7684       7794       7795       7806       7805  
      7674       7675       7686       7685       7795       7796       7807       7806  
      7675       7676       7687       7686       7796       7797       7808       7807  
      7676       7677       7688       7687       7797       7798       7809       7808  
      7677       7678       7689       7688       7798       7799       7810       7809  
      7679       7680       7691       7690       7800       7801       7812       7811  
      7680       7681       7692       7691       7801       7802       7813       7812  
      7681       7682       7693       7692       7802       7803       7814       7813  
      7682       7683       7694       7693       7803       7804       7815       7814  
      7683       7684       7695       7694       7804       7805       7816       7815  
      7684       7685       7696       7695       7805       7806       7817       7816  
      7685       7686       7697       7696       7806       7807       7818       7817  
      7686       7687       7698       7697       7807       7808       7819       7818  
      7687       7688       7699       7698       7808       7809       7820       7819  
      7688       7689       7700       7699       7809       7810       7821       7820  
      7690       7691       7702       7701       7811       7812       7823       7822  
      7691       7692       7703       7702       7812       7813       7824       7823  
      7692       7693       7704       7703       7813       7814       7825       7824  
      7693       7694       7705       7704       7814       7815       7826       7825  
      7694       7695       7706       7705       7815       7816       7827       7826  
      7695       7696       7707       7706       7816       7817       7828       7827  
      7696       7697       7708       7707       7817       7818       7829       7828  
      7697       7698       7709       7708       7818       7819       7830       7829  
      7698       7699       7710       7709       7819       7820       7831       7830  
      7699       7700       7711       7710       7820       7821       7832       7831  
      7701       7702       7713       7712       7822       7823       7834       7833  
      7702       7703       7714       7713       7823       7824       7835       7834  
      7703       7704       7715       7714       7824       7825       7836       7835  
      7704       7705       7716       7715       7825       7826       7837       7836  
      7705       7706       7717       7716       7826       7827       7838       7837  
      7706       7707       7718       7717       7827       7828       7839       7838  
      7707       7708       7719       7718       7828       7829       7840       7839  
      7708       7709       7720       7719       7829       7830       7841       7840  
      7709       7710       7721       7720       7830       7831       7842       7841  
      7710       7711       7722       7721       7831       7832       7843       7842  
      7712       7713       7724       7723       7833       7834       7845       7844  
      7713       7714       7725       7724       7834       7835       7846       7845  
      7714       7715       7726       7725       7835       7836       7847       7846  
      7715       7716       7727       7726       7836       7837       7848       7847  
      7716       7717       7728       7727       7837       7838       7849       7848  
      7717       7718       7729       7728       7838       7839       7850       7849  
      7718       7719       7730       7729       7839       7840       7851       7850  
      7719       7720       7731       7730       7840       7841       7852       7851  
      7720       7721       7732       7731       7841       7842       7853       7852  
      7721       7722       7733       7732       7842       7843       7854       7853  
      7723       7724       7735       7734       7844       7845       7856       7855  
      7724       7725       7736       7735       7845       7846       7857       7856  
      7725       7726       7737       7736       7846       7847       7858       7857  
      7726       7727       7738       7737       7847       7848       7859       7858  
      7727       7728       7739       7738       7848       7849       7860       7859  
      7728       7729       7740       7739       7849       7850       7861       7860  
      7729       7730       7741       7740       7850       7851       7862       7861  
      7730       7731       7742       7741       7851       7852       7863       7862  
      7731       7732       7743       7742       7852       7853       7864       7863  
      7732       7733       7744       7743       7853       7854       7865       7864  
      7745       7746       7757       7756       7866       7867       7878       7877  
      7746       7747       7758       7757       7867       7868       7879       7878  
      7747       7748       7759       7758       7868       7869       7880       7879  
      7748       7749       7760       7759       7869       7870       7881       7880  
      7749       7750       7761       7760       7870       7871       7882       7881  
      7750       7751       7762       7761       7871       7872       7883       7882  
      7751       7752       7763       7762       7872       7873       7884       7883  
      7752       7753       7764       7763       7873       7874       7885       7884  
      7753       7754       7765       7764       7874       7875       7886       7885  
      7754       7755       7766       7765       7875       7876       7887       7886  
      7756       7757       7768       7767       7877       7878       7889       7888  
      7757       7758       7769       7768       7878       7879       7890       7889  
      7758       7759       7770       7769       7879       7880       7891       7890  
      7759       7760       7771       7770       7880       7881       7892       7891  
      7760       7761       7772       7771       7881       7882       7893       7892  
      7761       7762       7773       7772       7882       7883       7894       7893  
      7762       7763       7774       7773       7883       7884       7895       7894  
      7763       7764       7775       7774       7884       7885       7896       7895  
      7764       7765       7776       7775       7885       7886       7897       7896  
      7765       7766       7777       7776       7886       7887       7898       7897  
      7767       7768       7779       7778       7888       7889       7900       7899  
      7768       7769       7780       7779       7889       7890       7901       7900  
      7769       7770       7781       7780       7890       7891       7902       7901  
      7770       7771       7782       7781       7891       7892       7903       7902  
      7771       7772       7783       7782       7892       7893       7904       7903  
      7772       7773       7784       7783       7893       7894       7905       7904  
      7773       7774       7785       7784       7894       7895       7906       7905  
      7774       7775       7786       7785       7895       7896       7907       7906  
      7775       7776       7787       7786       7896       7897       7908       7907  
      7776       7777       7788       7787       7897       7898       7909       7908  
      7778       7779       7790       7789       7899       7900       7911       7910  
      7779       7780       7791       7790       7900       7901       7912       7911  
      7780       7781       7792       7791       7901       7902       7913       7912  
      7781       7782       7793       7792       7902       7903       7914       7913  
      7782       7783       7794       7793       7903       7904       7915       7914  
      7783       7784       7795       7794       7904       7905       7916       7915  
      7784       7785       7796       7795       7905       7906       7917       7916  
      7785       7786       7797       7796       7906       7907       7918       7917  
      7786       7787       7798       7797       7907       7908       7919       7918  
      7787       7788       7799       7798       7908       7909       7920       7919  
      7789       7790       7801       7800       7910       7911       7922       7921  
      7790       7791       7802       7801       7911       7912       7923       7922  
      7791       7792       7803       7802       7912       7913       7924       7923  
      7792       7793       7804       7803       7913       7914       7925       7924  
      7793       7794       7805       7804       7914       7915       7926       7925  
      7794       7795       7806       7805       7915       7916       7927       7926  
      7795       7796       7807       7806       7916       7917       7928       7927  
      7796       7797       7808       7807       7917       7918       7929       7928  
      7797       7798       7809       7808       7918       7919       7930       7929  
      7798       7799       7810       7809       7919       7920       7931       7930  
      7800       7801       7812       7811       7921       7922       7933       7932  
      7801       7802       7813       7812       7922       7923       7934       7933  
      7802       7803       7814       7813       7923       7924       7935       7934  
      7803       7804       7815       7814       7924       7925       7936       7935  
      7804       7805       7816       7815       7925       7926       7937       7936  
      7805       7806       7817       7816       7926       7927       7938       7937  
      7806       7807       7818       7817       7927       7928       7939       7938  
      7807       7808       7819       7818       7928       7929       7940       7939  
      7808       7809       7820       7819       7929       7930       7941       7940  
      7809       7810       7821       7820       7930       7931       7942       7941  
      7811       7812       7823       7822       7932       7933       7944       7943  
      7812       7813       7824       7823       7933       7934       7945       7944  
      7813       7814       7825       7824       7934       7935       7946       7945  
      7814       7815       7826       7825       7935       7936       7947       7946  
      7815       7816       7827       7826       7936       7937       7948       7947  
      7816       7817       7828       7827       7937       7938       7949       7948  
      7817       7818       7829       7828       7938       7939       7950       7949  
      7818       7819       7830       7829       7939       7940       7951       7950  
      7819       7820       7831       7830       7940       7941       7952       7951  
      7820       7821       7832       7831       7941       7942       7953       7952  
      7822       7823       7834       7833       7943       7944       7955       7954  
      7823       7824       7835       7834       7944       7945       7956       7955  
      7824       7825       7836       7835       7945       7946       7957       7956  
      7825       7826       7837       7836       7946       7947       7958       7957  
      7826       7827       7838       7837       7947       7948       7959       7958  
      7827       7828       7839       7838       7948       7949       7960       7959  
      7828       7829       7840       7839       7949       7950       7961       7960  
      7829       7830       7841       7840       7950       7951       7962       7961  
      7830       7831       7842       7841       7951       7952       7963       7962  
      7831       7832       7843       7842       7952       7953       7964       7963  
      7833       7834       7845       7844       7954       7955       7966       7965  
      7834       7835       7846       7845       7955       7956       7967       7966  
      7835       7836       7847       7846       7956       7957       7968       7967  
      7836       7837       7848       7847       7957       7958       7969       7968  
      7837       7838       7849       7848       7958       7959       7970       7969  
      7838       7839       7850       7849       7959       7960       7971       7970  
      7839       7840       7851       7850       7960       7961       7972       7971  
      7840       7841       7852       7851       7961       7962       7973       7972  
      7841       7842       7853       7852       7962       7963       7974       7973  
      7842       7843       7854       7853       7963       7964       7975       7974  
      7844       7845       7856       7855       7965       7966       7977       7976  
      7845       7846       7857       7856       7966       7967       7978       7977  
      7846       7847       7858       7857       7967       7968       7979       7978  
      7847       7848       7859       7858       7968       7969       7980       7979  
      7848       7849       7860       7859       7969       7970       7981       7980  
      7849       7850       7861       7860       7970       7971       7982       7981  
      7850       7851       7862       7861       7971       7972       7983       7982  
      7851       7852       7863       7862       7972       7973       7984       7983  
      7852       7853       7864       7863       7973       7974       7985       7984  
      7853       7854       7865       7864       7974       7975       7986       7985  
      7866       7867       7878       7877       7987       7988       7999       7998  
      7867       7868       7879       7878       7988       7989       8000       7999  
      7868       7869       7880       7879       7989       7990       8001       8000  
      7869       7870       7881       7880       7990       7991       8002       8001  
      7870       7871       7882       7881       7991       7992       8003       8002  
      7871       7872       7883       7882       7992       7993       8004       8003  
      7872       7873       7884       7883       7993       7994       8005       8004  
      7873       7874       7885       7884       7994       7995       8006       8005  
      7874       7875       7886       7885       7995       7996       8007       8006  
      7875       7876       7887       7886       7996       7997       8008       8007  
      7877       7878       7889       7888       7998       7999       8010       8009  
      7878       7879       7890       7889       7999       8000       8011       8010  
      7879       7880       7891       7890       8000       8001       8012       8011  
      7880       7881       7892       7891       8001       8002       8013       8012  
      7881       7882       7893       7892       8002       8003       8014       8013  
      7882       7883       7894       7893       8003       8004       8015       8014  
      7883       7884       7895       7894       8004       8005       8016       8015  
      7884       7885       7896       7895       8005       8006       8017       8016  
      7885       7886       7897       7896       8006       8007       8018       8017  
      7886       7887       7898       7897       8007       8008       8019       8018  
      7888       7889       7900       7899       8009       8010       8021       8020  
      7889       7890       7901       7900       8010       8011       8022       8021  
      7890       7891       7902       7901       8011       8012       8023       8022  
      7891       7892       7903       7902       8012       8013       8024       8023  
      7892       7893       7904       7903       8013       8014       8025       8024  
      7893       7894       7905       7904       8014       8015       8026       8025  
      7894       7895       7906       7905       8015       8016       8027       8026  
      7895       7896       7907       7906       8016       8017       8028       8027  
      7896       7897       7908       7907       8017       8018       8029       8028  
      7897       7898       7909       7908       8018       8019       8030       8029  
      7899       7900       7911       7910       8020       8021       8032       8031  
      7900       7901       7912       7911       8021       8022       8033       8032  
      7901       7902       7913       7912       8022       8023       8034       8033  
      7902       7903       7914       7913       8023       8024       8035       8034  
      7903       7904       7915       7914       8024       8025       8036       8035  
      7904       7905       7916       7915       8025       8026       8037       8036  
      7905       7906       7917       7916       8026       8027       8038       8037  
      7906       7907       7918       7917       8027       8028       8039       8038  
      7907       7908       7919       7918       8028       8029       8040       8039  
      7908       7909       7920       7919       8029       8030       8041       8040  
      7910       7911       7922       7921       8031       8032       8043       8042  
      7911       7912       7923       7922       8032       8033       8044       8043  
      7912       7913       7924       7923       8033       8034       8045       8044  
      7913       7914       7925       7924       8034       8035       8046       8045  
      7914       7915       7926       7925       8035       8036       8047       8046  
      7915       7916       7927       7926       8036       8037       8048       8047  
      7916       7917       7928       7927       8037       8038       8049       8048  
      7917       7918       7929       7928       8038       8039       8050       8049  
      7918       7919       7930       7929       8039       8040       8051       8050  
      7919       7920       7931       7930       8040       8041       8052       8051  
      7921       7922       7933       7932       8042       8043       8054       8053  
      7922       7923       7934       7933       8043       8044       8055       8054  
      7923       7924       7935       7934       8044       8045       8056       8055  
      7924       7925       7936       7935       8045       8046       8057       8056  
      7925       7926       7937       7936       8046       8047       8058       8057  
      7926       7927       7938       7937       8047       8048       8059       8058  
      7927       7928       7939       7938       8048       8049       8060       8059  
      7928       7929       7940       7939       8049       8050       8061       8060  
      7929       7930       7941       7940       8050       8051       8062       8061  
      7930       7931       7942       7941       8051       8052       8063       8062  
      7932       7933       7944       7943       8053       8054       8065       8064  
      7933       7934       7945       7944       8054       8055       8066       8065  
      7934       7935       7946       7945       8055       8056       8067       8066  
      7935       7936       7947       7946       8056       8057       8068       8067  
      7936       7937       7948       7947       8057       8058       8069       8068  
      7937       7938       7949       7948       8058       8059       8070       8069  
      7938       7939       7950       7949       8059       8060       8071       8070  
      7939       7940       7951       7950       8060       8061       8072       8071  
      7940       7941       7952       7951       8061       8062       8073       8072  
      7941       7942       7953       7952       8062       8063       8074       8073  
      7943       7944       7955       7954       8064       8065       8076       8075  
      7944       7945       7956       7955       8065       8066       8077       8076  
      7945       7946       7957       7956       8066       8067       8078       8077  
      7946       7947       7958       7957       8067       8068       8079       8078  
      7947       7948       7959       7958       8068       8069       8080       8079  
      7948       7949       7960       7959       8069       8070       8081       8080  
      7949       7950       7961       7960       8070       8071       8082       8081  
      7950       7951       7962       7961       8071       8072       8083       8082  
      7951       7952       7963       7962       8072       8073       8084       8083  
      7952       7953       7964       7963       8073       8074       8085       8084  
      7954       7955       7966       7965       8075       8076       8087       8086  
      7955       7956       7967       7966       8076       8077       8088       8087  
      7956       7957       7968       7967       8077       8078       8089       8088  
      7957       7958       7969       7968       8078       8079       8090       8089  
      7958       7959       7970       7969       8079       8080       8091       8090  
      7959       7960       7971       7970       8080       8081       8092       8091  
      7960       7961       7972       7971       8081       8082       8093       8092  
      7961       7962       7973       7972       8082       8083       8094       8093  
      7962       7963       7974       7973       8083       8084       8095       8094  
      7963       7964       7975       7974       8084       8085       8096       8095  
      7965       7966       7977       7976       8086       8087       8098       8097  
      7966       7967       7978       7977       8087       8088       8099       8098  
      7967       7968       7979       7978       8088       8089       8100       8099  
      7968       7969       7980       7979       8089       8090       8101       8100  
      7969       7970       7981       7980       8090       8091       8102       8101  
      7970       7971       7982       7981       8091       8092       8103       8102  
      7971       7972       7983       7982       8092       8093       8104       8103  
      7972       7973       7984       7983       8093       8094       8105       8104  
      7973       7974       7985       7984       8094       8095       8106       8105  
      7974       7975       7986       7985       8095       8096       8107       8106  
      7987       7988       7999       7998       8108       8109       8120       8119  
      7988       7989       8000       7999       8109       8110       8121       8120  
      7989       7990       8001       8000       8110       8111       8122       8121  
      7990       7991       8002       8001       8111       8112       8123       8122  
      7991       7992       8003       8002       8112       8113       8124       8123  
      7992       7993       8004       8003       8113       8114       8125       8124  
      7993       7994       8005       8004       8114       8115       8126       8125  
      7994       7995       8006       8005       8115       8116       8127       8126  
      7995       7996       8007       8006       8116       8117       8128       8127  
      7996       7997       8008       8007       8117       8118       8129       8128  
      7998       7999       8010       8009       8119       8120       8131       8130  
      7999       8000       8011       8010       8120       8121       8132       8131  
      8000       8001       8012       8011       8121       8122       8133       8132  
      8001       8002       8013       8012       8122       8123       8134       8133  
      8002       8003       8014       8013       8123       8124       8135       8134  
      8003       8004       8015       8014       8124       8125       8136       8135  
      8004       8005       8016       8015       8125       8126       8137       8136  
      8005       8006       8017       8016       8126       8127       8138       8137  
      8006       8007       8018       8017       8127       8128       8139       8138  
      8007       8008       8019       8018       8128       8129       8140       8139  
      8009       8010       8021       8020       8130       8131       8142       8141  
      8010       8011       8022       8021       8131       8132       8143       8142  
      8011       8012       8023       8022       8132       8133       8144       8143  
      8012       8013       8024       8023       8133       8134       8145       8144  
      8013       8014       8025       8024       8134       8135       8146       8145  
      8014       8015       8026       8025       8135       8136       8147       8146  
      8015       8016       8027       8026       8136       8137       8148       8147  
      8016       8017       8028       8027       8137       8138       8149       8148  
      8017       8018       8029       8028       8138       8139       8150       8149  
      8018       8019       8030       8029       8139       8140       8151       8150  
      8020       8021       8032       8031       8141       8142       8153       8152  
      8021       8022       8033       8032       8142       8143       8154       8153  
      8022       8023       8034       8033       8143       8144       8155       8154  
      8023       8024       8035       8034       8144       8145       8156       8155  
      8024       8025       8036       8035       8145       8146       8157       8156  
      8025       8026       8037       8036       8146       8147       8158       8157  
      8026       8027       8038       8037       8147       8148       8159       8158  
      8027       8028       8039       8038       8148       8149       8160       8159  
      8028       8029       8040       8039       8149       8150       8161       8160  
      8029       8030       8041       8040       8150       8151       8162       8161  
      8031       8032       8043       8042       8152       8153       8164       8163  
      8032       8033       8044       8043       8153       8154       8165       8164  
      8033       8034       8045       8044       8154       8155       8166       8165  
      8034       8035       8046       8045       8155       8156       8167       8166  
      8035       8036       8047       8046       8156       8157       8168       8167  
      8036       8037       8048       8047       8157       8158       8169       8168  
      8037       8038       8049       8048       8158       8159       8170       8169  
      8038       8039       8050       8049       8159       8160       8171       8170  
      8039       8040       8051       8050       8160       8161       8172       8171  
      8040       8041       8052       8051       8161       8162       8173       8172  
      8042       8043       8054       8053       8163       8164       8175       8174  
      8043       8044       8055       8054       8164       8165       8176       8175  
      8044       8045       8056       8055       8165       8166       8177       8176  
      8045       8046       8057       8056       8166       8167       8178       8177  
      8046       8047       8058       8057       8167       8168       8179       8178  
      8047       8048       8059       8058       8168       8169       8180       8179  
      8048       8049       8060       8059       8169       8170       8181       8180  
      8049       8050       8061       8060       8170       8171       8182       8181  
      8050       8051       8062       8061       8171       8172       8183       8182  
      8051       8052       8063       8062       8172       8173       8184       8183  
      8053       8054       8065       8064       8174       8175       8186       8185  
      8054       8055       8066       8065       8175       8176       8187       8186  
      8055       8056       8067       8066       8176       8177       8188       8187  
      8056       8057       8068       8067       8177       8178       8189       8188  
      8057       8058       8069       8068       8178       8179       8190       8189  
      8058       8059       8070       8069       8179       8180       8191       8190  
      8059       8060       8071       8070       8180       8181       8192       8191  
      8060       8061       8072       8071       8181       8182       8193       8192  
      8061       8062       8073       8072       8182       8183       8194       8193  
      8062       8063       8074       8073       8183       8184       8195       8194  
      8064       8065       8076       8075       8185       8186       8197       8196  
      8065       8066       8077       8076       8186       8187       8198       8197  
      8066       8067       8078       8077       8187       8188       8199       8198  
      8067       8068       8079       8078       8188       8189       8200       8199  
      8068       8069       8080       8079       8189       8190       8201       8200  
      8069       8070       8081       8080       8190       8191       8202       8201  
      8070       8071       8082       8081       8191       8192       8203       8202  
      8071       8072       8083       8082       8192       8193       8204       8203  
      8072       8073       8084       8083       8193       8194       8205       8204  
      8073       8074       8085       8084       8194       8195       8206       8205  
      8075       8076       8087       8086       8196       8197       8208       8207  
      8076       8077       8088       8087       8197       8198       8209       8208  
      8077       8078       8089       8088       8198       8199       8210       8209  
      8078       8079       8090       8089       8199       8200       8211       8210  
      8079       8080       8091       8090       8200       8201       8212       8211  
      8080       8081       8092       8091       8201       8202       8213       8212  
      8081       8082       8093       8092       8202       8203       8214       8213  
      8082       8083       8094       8093       8203       8204       8215       8214  
      8083       8084       8095       8094       8204       8205       8216       8215  
      8084       8085       8096       8095       8205       8206       8217       8216  
      8086       8087       8098       8097       8207       8208       8219       8218  
      8087       8088       8099       8098       8208       8209       8220       8219  
      8088       8089       8100       8099       8209       8210       8221       8220  
      8089       8090       8101       8100       8210       8211       8222       8221  
      8090       8091       8102       8101       8211       8212       8223       8222  
      8091       8092       8103       8102       8212       8213       8224       8223  
      8092       8093       8104       8103       8213       8214       8225       8224  
      8093       8094       8105       8104       8214       8215       8226       8225  
      8094       8095       8106       8105       8215       8216       8227       8226  
      8095       8096       8107       8106       8216       8217       8228       8227  
      8108       8109       8120       8119       8229       8230       8241       8240  
      8109       8110       8121       8120       8230       8231       8242       8241  
      8110       8111       8122       8121       8231       8232       8243       8242  
      8111       8112       8123       8122       8232       8233       8244       8243  
      8112       8113       8124       8123       8233       8234       8245       8244  
      8113       8114       8125       8124       8234       8235       8246       8245  
      8114       8115       8126       8125       8235       8236       8247       8246  
      8115       8116       8127       8126       8236       8237       8248       8247  
      8116       8117       8128       8127       8237       8238       8249       8248  
      8117       8118       8129       8128       8238       8239       8250       8249  
      8119       8120       8131       8130       8240       8241       8252       8251  
      8120       8121       8132       8131       8241       8242       8253       8252  
      8121       8122       8133       8132       8242       8243       8254       8253  
      8122       8123       8134       8133       8243       8244       8255       8254  
      8123       8124       8135       8134       8244       8245       8256       8255  
      8124       8125       8136       8135       8245       8246       8257       8256  
      8125       8126       8137       8136       8246       8247       8258       8257  
      8126       8127       8138       8137       8247       8248       8259       8258  
      8127       8128       8139       8138       8248       8249       8260       8259  
      8128       8129       8140       8139       8249       8250       8261       8260  
      8130       8131       8142       8141       8251       8252       8263       8262  
      8131       8132       8143       8142       8252       8253       8264       8263  
      8132       8133       8144       8143       8253       8254       8265       8264  
      8133       8134       8145       8144       8254       8255       8266       8265  
      8134       8135       8146       8145       8255       8256       8267       8266  
      8135       8136       8147       8146       8256       8257       8268       8267  
      8136       8137       8148       8147       8257       8258       8269       8268  
      8137       8138       8149       8148       8258       8259       8270       8269  
      8138       8139       8150       8149       8259       8260       8271       8270  
      8139       8140       8151       8150       8260       8261       8272       8271  
      8141       8142       8153       8152       8262       8263       8274       8273  
      8142       8143       8154       8153       8263       8264       8275       8274  
      8143       8144       8155       8154       8264       8265       8276       8275  
      8144       8145       8156       8155       8265       8266       8277       8276  
      8145       8146       8157       8156       8266       8267       8278       8277  
      8146       8147       8158       8157       8267       8268       8279       8278  
      8147       8148       8159       8158       8268       8269       8280       8279  
      8148       8149       8160       8159       8269       8270       8281       8280  
      8149       8150       8161       8160       8270       8271       8282       8281  
      8150       8151       8162       8161       8271       8272       8283       8282  
      8152       8153       8164       8163       8273       8274       8285       8284  
      8153       8154       8165       8164       8274       8275       8286       8285  
      8154       8155       8166       8165       8275       8276       8287       8286  
      8155       8156       8167       8166       8276       8277       8288       8287  
      8156       8157       8168       8167       8277       8278       8289       8288  
      8157       8158       8169       8168       8278       8279       8290       8289  
      8158       8159       8170       8169       8279       8280       8291       8290  
      8159       8160       8171       8170       8280       8281       8292       8291  
      8160       8161       8172       8171       8281       8282       8293       8292  
      8161       8162       8173       8172       8282       8283       8294       8293  
      8163       8164       8175       8174       8284       8285       8296       8295  
      8164       8165       8176       8175       8285       8286       8297       8296  
      8165       8166       8177       8176       8286       8287       8298       8297  
      8166       8167       8178       8177       8287       8288       8299       8298  
      8167       8168       8179       8178       8288       8289       8300       8299  
      8168       8169       8180       8179       8289       8290       8301       8300  
      8169       8170       8181       8180       8290       8291       8302       8301  
      8170       8171       8182       8181       8291       8292       8303       8302  
      8171       8172       8183       8182       8292       8293       8304       8303  
      8172       8173       8184       8183       8293       8294       8305       8304  
      8174       8175       8186       8185       8295       8296       8307       8306  
      8175       8176       8187       8186       8296       8297       8308       8307  
      8176       8177       8188       8187       8297       8298       8309       8308  
      8177       8178       8189       8188       8298       8299       8310       8309  
      8178       8179       8190       8189       8299       8300       8311       8310  
      8179       8180       8191       8190       8300       8301       8312       8311  
      8180       8181       8192       8191       8301       8302       8313       8312  
      8181       8182       8193       8192       8302       8303       8314       8313  
      8182       8183       8194       8193       8303       8304       8315       8314  
      8183       8184       8195       8194       8304       8305       8316       8315  
      8185       8186       8197       8196       8306       8307       8318       8317  
      8186       8187       8198       8197       8307       8308       8319       8318  
      8187       8188       8199       8198       8308       8309       8320       8319  
      8188       8189       8200       8199       8309       8310       8321       8320  
      8189       8190       8201       8200       8310       8311       8322       8321  
      8190       8191       8202       8201       8311       8312       8323       8322  
      8191       8192       8203       8202       8312       8313       8324       8323  
      8192       8193       8204       8203       8313       8314       8325       8324  
      8193       8194       8205       8204       8314       8315       8326       8325  
      8194       8195       8206       8205       8315       8316       8327       8326  
      8196       8197       8208       8207       8317       8318       8329       8328  
      8197       8198       8209       8208       8318       8319       8330       8329  
      8198       8199       8210       8209       8319       8320       8331       8330  
      8199       8200       8211       8210       8320       8321       8332       8331  
      8200       8201       8212       8211       8321       8322       8333       8332  
      8201       8202       8213       8212       8322       8323       8334       8333  
      8202       8203       8214       8213       8323       8324       8335       8334  
      8203       8204       8215       8214       8324       8325       8336       8335  
      8204       8205       8216       8215       8325       8326       8337       8336  
      8205       8206       8217       8216       8326       8327       8338       8337  
      8207       8208       8219       8218       8328       8329       8340       8339  
      8208       8209       8220       8219       8329       8330       8341       8340  
      8209       8210       8221       8220       8330       8331       8342       8341  
      8210       8211       8222       8221       8331       8332       8343       8342  
      8211       8212       8223       8222       8332       8333       8344       8343  
      8212       8213       8224       8223       8333       8334       8345       8344  
      8213       8214       8225       8224       8334       8335       8346       8345  
      8214       8215       8226       8225       8335       8336       8347       8346  
      8215       8216       8227       8226       8336       8337       8348       8347  
      8216       8217       8228       8227       8337       8338       8349       8348  
      8229       8230       8241       8240       8350       8351       8362       8361  
      8230       8231       8242       8241       8351       8352       8363       8362  
      8231       8232       8243       8242       8352       8353       8364       8363  
      8232       8233       8244       8243       8353       8354       8365       8364  
      8233       8234       8245       8244       8354       8355       8366       8365  
      8234       8235       8246       8245       8355       8356       8367       8366  
      8235       8236       8247       8246       8356       8357       8368       8367  
      8236       8237       8248       8247       8357       8358       8369       8368  
      8237       8238       8249       8248       8358       8359       8370       8369  
      8238       8239       8250       8249       8359       8360       8371       8370  
      8240       8241       8252       8251       8361       8362       8373       8372  
      8241       8242       8253       8252       8362       8363       8374       8373  
      8242       8243       8254       8253       8363       8364       8375       8374  
      8243       8244       8255       8254       8364       8365       8376       8375  
      8244       8245       8256       8255       8365       8366       8377       8376  
      8245       8246       8257       8256       8366       8367       8378       8377  
      8246       8247       8258       8257       8367       8368       8379       8378  
      8247       8248       8259       8258       8368       8369       8380       8379  
      8248       8249       8260       8259       8369       8370       8381       8380  
      8249       8250       8261       8260       8370       8371       8382       8381  
      8251       8252       8263       8262       8372       8373       8384       8383  
      8252       8253       8264       8263       8373       8374       8385       8384  
      8253       8254       8265       8264       8374       8375       8386       8385  
      8254       8255       8266       8265       8375       8376       8387       8386  
      8255       8256       8267       8266       8376       8377       8388       8387  
      8256       8257       8268       8267       8377       8378       8389       8388  
      8257       8258       8269       8268       8378       8379       8390       8389  
      8258       8259       8270       8269       8379       8380       8391       8390  
      8259       8260       8271       8270       8380       8381       8392       8391  
      8260       8261       8272       8271       8381       8382       8393       8392  
      8262       8263       8274       8273       8383       8384       8395       8394  
      8263       8264       8275       8274       8384       8385       8396       8395  
      8264       8265       8276       8275       8385       8386       8397       8396  
      8265       8266       8277       8276       8386       8387       8398       8397  
      8266       8267       8278       8277       8387       8388       8399       8398  
      8267       8268       8279       8278       8388       8389       8400       8399  
      8268       8269       8280       8279       8389       8390       8401       8400  
      8269       8270       8281       8280       8390       8391       8402       8401  
      8270       8271       8282       8281       8391       8392       8403       8402  
      8271       8272       8283       8282       8392       8393       8404       8403  
      8273       8274       8285       8284       8394       8395       8406       8405  
      8274       8275       8286       8285       8395       8396       8407       8406  
      8275       8276       8287       8286       8396       8397       8408       8407  
      8276       8277       8288       8287       8397       8398       8409       8408  
      8277       8278       8289       8288       8398       8399       8410       8409  
      8278       8279       8290       8289       8399       8400       8411       8410  
      8279       8280       8291       8290       8400       8401       8412       8411  
      8280       8281       8292       8291       8401       8402       8413       8412  
      8281       8282       8293       8292       8402       8403       8414       8413  
      8282       8283       8294       8293       8403       8404       8415       8414  
      8284       8285       8296       8295       8405       8406       8417       8416  
      8285       8286       8297       8296       8406       8407       8418       8417  
      8286       8287       8298       8297       8407       8408       8419       8418  
      8287       8288       8299       8298       8408       8409       8420       8419  
      8288       8289       8300       8299       8409       8410       8421       8420  
      8289       8290       8301       8300       8410       8411       8422       8421  
      8290       8291       8302       8301       8411       8412       8423       8422  
      8291       8292       8303       8302       8412       8413       8424       8423  
      8292       8293       8304       8303       8413       8414       8425       8424  
      8293       8294       8305       8304       8414       8415       8426       8425  
      8295       8296       8307       8306       8416       8417       8428       8427  
      8296       8297       8308       8307       8417       8418       8429       8428  
      8297       8298       8309       8308       8418       8419       8430       8429  
      8298       8299       8310       8309       8419       8420       8431       8430  
      8299       8300       8311       8310       8420       8421       8432       8431  
      8300       8301       8312       8311       8421       8422       8433       8432  
      8301       8302       8313       8312       8422       8423       8434       8433  
      8302       8303       8314       8313       8423       8424       8435       8434  
      8303       8304       8315       8314       8424       8425       8436       8435  
      8304       8305       8316       8315       8425       8426       8437       8436  
      8306       8307       8318       8317       8427       8428       8439       8438  
      8307       8308       8319       8318       8428       8429       8440       8439  
      8308       8309       8320       8319       8429       8430       8441       8440  
      8309       8310       8321       8320       8430       8431       8442       8441  
      8310       8311       8322       8321       8431       8432       8443       8442  
      8311       8312       8323       8322       8432       8433       8444       8443  
      8312       8313       8324       8323       8433       8434       8445       8444  
      8313       8314       8325       8324       8434       8435       8446       8445  
      8314       8315       8326       8325       8435       8436       8447       8446  
      8315       8316       8327       8326       8436       8437       8448       8447  
      8317       8318       8329       8328       8438       8439       8450       8449  
      8318       8319       8330       8329       8439       8440       8451       8450  
      8319       8320       8331       8330       8440       8441       8452       8451  
      8320       8321       8332       8331       8441       8442       8453       8452  
      8321       8322       8333       8332       8442       8443       8454       8453  
      8322       8323       8334       8333       8443       8444       8455       8454  
      8323       8324       8335       8334       8444       8445       8456       8455  
      8324       8325       8336       8335       8445       8446       8457       8456  
      8325       8326       8337       8336       8446       8447       8458       8457  
      8326       8327       8338       8337       8447       8448       8459       8458  
      8328       8329       8340       8339       8449       8450       8461       8460  
      8329       8330       8341       8340       8450       8451       8462       8461  
      8330       8331       8342       8341       8451       8452       8463       8462  
      8331       8332       8343       8342       8452       8453       8464       8463  
      8332       8333       8344       8343       8453       8454       8465       8464  
      8333       8334       8345       8344       8454       8455       8466       8465  
      8334       8335       8346       8345       8455       8456       8467       8466  
      8335       8336       8347       8346       8456       8457       8468       8467  
      8336       8337       8348       8347       8457       8458       8469       8468  
      8337       8338       8349       8348       8458       8459       8470       8469  
      8350       8351       8362       8361       8471       8472       8483       8482  
      8351       8352       8363       8362       8472       8473       8484       8483  
      8352       8353       8364       8363       8473       8474       8485       8484  
      8353       8354       8365       8364       8474       8475       8486       8485  
      8354       8355       8366       8365       8475       8476       8487       8486  
      8355       8356       8367       8366       8476       8477       8488       8487  
      8356       8357       8368       8367       8477       8478       8489       8488  
      8357       8358       8369       8368       8478       8479       8490       8489  
      8358       8359       8370       8369       8479       8480       8491       8490  
      8359       8360       8371       8370       8480       8481       8492       8491  
      8361       8362       8373       8372       8482       8483       8494       8493  
      8362       8363       8374       8373       8483       8484       8495       8494  
      8363       8364       8375       8374       8484       8485       8496       8495  
      8364       8365       8376       8375       8485       8486       8497       8496  
      8365       8366       8377       8376       8486       8487       8498       8497  
      8366       8367       8378       8377       8487       8488       8499       8498  
      8367       8368       8379       8378       8488       8489       8500       8499  
      8368       8369       8380       8379       8489       8490       8501       8500  
      8369       8370       8381       8380       8490       8491       8502       8501  
      8370       8371       8382       8381       8491       8492       8503       8502  
      8372       8373       8384       8383       8493       8494       8505       8504  
      8373       8374       8385       8384       8494       8495       8506       8505  
      8374       8375       8386       8385       8495       8496       8507       8506  
      8375       8376       8387       8386       8496       8497       8508       8507  
      8376       8377       8388       8387       8497       8498       8509       8508  
      8377       8378       8389       8388       8498       8499       8510       8509  
      8378       8379       8390       8389       8499       8500       8511       8510  
      8379       8380       8391       8390       8500       8501       8512       8511  
      8380       8381       8392       8391       8501       8502       8513       8512  
      8381       8382       8393       8392       8502       8503       8514       8513  
      8383       8384       8395       8394       8504       8505       8516       8515  
      8384       8385       8396       8395       8505       8506       8517       8516  
      8385       8386       8397       8396       8506       8507       8518       8517  
      8386       8387       8398       8397       8507       8508       8519       8518  
      8387       8388       8399       8398       8508       8509       8520       8519  
      8388       8389       8400       8399       8509       8510       8521       8520  
      8389       8390       8401       8400       8510       8511       8522       8521  
      8390       8391       8402       8401       8511       8512       8523       8522  
      8391       8392       8403       8402       8512       8513       8524       8523  
      8392       8393       8404       8403       8513       8514       8525       8524  
      8394       8395       8406       8405       8515       8516       8527       8526  
      8395       8396       8407       8406       8516       8517       8528       8527  
      8396       8397       8408       8407       8517       8518       8529       8528  
      8397       8398       8409       8408       8518       8519       8530       8529  
      8398       8399       8410       8409       8519       8520       8531       8530  
      8399       8400       8411       8410       8520       8521       8532       8531  
      8400       8401       8412       8411       8521       8522       8533       8532  
      8401       8402       8413       8412       8522       8523       8534       8533  
      8402       8403       8414       8413       8523       8524       8535       8534  
      8403       8404       8415       8414       8524       8525       8536       8535  
      8405       8406       8417       8416       8526       8527       8538       8537  
      8406       8407       8418       8417       8527       8528       8539       8538  
      8407       8408       8419       8418       8528       8529       8540       8539  
      8408       8409       8420       8419       8529       8530       8541       8540  
      8409       8410       8421       8420       8530       8531       8542       8541  
      8410       8411       8422       8421       8531       8532       8543       8542  
      8411       8412       8423       8422       8532       8533       8544       8543  
      8412       8413       8424       8423       8533       8534       8545       8544  
      8413       8414       8425       8424       8534       8535       8546       8545  
      8414       8415       8426       8425       8535       8536       8547       8546  
      8416       8417       8428       8427       8537       8538       8549       8548  
      8417       8418       8429       8428       8538       8539       8550       8549  
      8418       8419       8430       8429       8539       8540       8551       8550  
      8419       8420       8431       8430       8540       8541       8552       8551  
      8420       8421       8432       8431       8541       8542       8553       8552  
      8421       8422       8433       8432       8542       8543       8554       8553  
      8422       8423       8434       8433       8543       8544       8555       8554  
      8423       8424       8435       8434       8544       8545       8556       8555  
      8424       8425       8436       8435       8545       8546       8557       8556  
      8425       8426       8437       8436       8546       8547       8558       8557  
      8427       8428       8439       8438       8548       8549       8560       8559  
      8428       8429       8440       8439       8549       8550       8561       8560  
      8429       8430       8441       8440       8550       8551       8562       8561  
      8430       8431       8442       8441       8551       8552       8563       8562  
      8431       8432       8443       8442       8552       8553       8564       8563  
      8432       8433       8444       8443       8553       8554       8565       8564  
      8433       8434       8445       8444       8554       8555       8566       8565  
      8434       8435       8446       8445       8555       8556       8567       8566  
      8435       8436       8447       8446       8556       8557       8568       8567  
      8436       8437       8448       8447       8557       8558       8569       8568  
      8438       8439       8450       8449       8559       8560       8571       8570  
      8439       8440       8451       8450       8560       8561       8572       8571  
      8440       8441       8452       8451       8561       8562       8573       8572  
      8441       8442       8453       8452       8562       8563       8574       8573  
      8442       8443       8454       8453       8563       8564       8575       8574  
      8443       8444       8455       8454       8564       8565       8576       8575  
      8444       8445       8456       8455       8565       8566       8577       8576  
      8445       8446       8457       8456       8566       8567       8578       8577  
      8446       8447       8458       8457       8567       8568       8579       8578  
      8447       8448       8459       8458       8568       8569       8580       8579  
      8449       8450       8461       8460       8570       8571       8582       8581  
      8450       8451       8462       8461       8571       8572       8583       8582  
      8451       8452       8463       8462       8572       8573       8584       8583  
      8452       8453       8464       8463       8573       8574       8585       8584  
      8453       8454       8465       8464       8574       8575       8586       8585  
      8454       8455       8466       8465       8575       8576       8587       8586  
      8455       8456       8467       8466       8576       8577       8588       8587  
      8456       8457       8468       8467       8577       8578       8589       8588  
      8457       8458       8469       8468       8578       8579       8590       8589  
      8458       8459       8470       8469       8579       8580       8591       8590  
      8471       8472       8483       8482       8592       8593       8604       8603  
      8472       8473       8484       8483       8593       8594       8605       8604  
      8473       8474       8485       8484       8594       8595       8606       8605  
      8474       8475       8486       8485       8595       8596       8607       8606  
      8475       8476       8487       8486       8596       8597       8608       8607  
      8476       8477       8488       8487       8597       8598       8609       8608  
      8477       8478       8489       8488       8598       8599       8610       8609  
      8478       8479       8490       8489       8599       8600       8611       8610  
      8479       8480       8491       8490       8600       8601       8612       8611  
      8480       8481       8492       8491       8601       8602       8613       8612  
      8482       8483       8494       8493       8603       8604       8615       8614  
      8483       8484       8495       8494       8604       8605       8616       8615  
      8484       8485       8496       8495       8605       8606       8617       8616  
      8485       8486       8497       8496       8606       8607       8618       8617  
      8486       8487       8498       8497       8607       8608       8619       8618  
      8487       8488       8499       8498       8608       8609       8620       8619  
      8488       8489       8500       8499       8609       8610       8621       8620  
      8489       8490       8501       8500       8610       8611       8622       8621  
      8490       8491       8502       8501       8611       8612       8623       8622  
      8491       8492       8503       8502       8612       8613       8624       8623  
      8493       8494       8505       8504       8614       8615       8626       8625  
      8494       8495       8506       8505       8615       8616       8627       8626  
      8495       8496       8507       8506       8616       8617       8628       8627  
      8496       8497       8508       8507       8617       8618       8629       8628  
      8497       8498       8509       8508       8618       8619       8630       8629  
      8498       8499       8510       8509       8619       8620       8631       8630  
      8499       8500       8511       8510       8620       8621       8632       8631  
      8500       8501       8512       8511       8621       8622       8633       8632  
      8501       8502       8513       8512       8622       8623       8634       8633  
      8502       8503       8514       8513       8623       8624       8635       8634  
      8504       8505       8516       8515       8625       8626       8637       8636  
      8505       8506       8517       8516       8626       8627       8638       8637  
      8506       8507       8518       8517       8627       8628       8639       8638  
      8507       8508       8519       8518       8628       8629       8640       8639  
      8508       8509       8520       8519       8629       8630       8641       8640  
      8509       8510       8521       8520       8630       8631       8642       8641  
      8510       8511       8522       8521       8631       8632       8643       8642  
      8511       8512       8523       8522       8632       8633       8644       8643  
      8512       8513       8524       8523       8633       8634       8645       8644  
      8513       8514       8525       8524       8634       8635       8646       8645  
      8515       8516       8527       8526       8636       8637       8648       8647  
      8516       8517       8528       8527       8637       8638       8649       8648  
      8517       8518       8529       8528       8638       8639       8650       8649  
      8518       8519       8530       8529       8639       8640       8651       8650  
      8519       8520       8531       8530       8640       8641       8652       8651  
      8520       8521       8532       8531       8641       8642       8653       8652  
      8521       8522       8533       8532       8642       8643       8654       8653  
      8522       8523       8534       8533       8643       8644       8655       8654  
      8523       8524       8535       8534       8644       8645       8656       8655  
      8524       8525       8536       8535       8645       8646       8657       8656  
      8526       8527       8538       8537       8647       8648       8659       8658  
      8527       8528       8539       8538       8648       8649       8660       8659  
      8528       8529       8540       8539       8649       8650       8661       8660  
      8529       8530       8541       8540       8650       8651       8662       8661  
      8530       8531       8542       8541       8651       8652       8663       8662  
      8531       8532       8543       8542       8652       8653       8664       8663  
      8532       8533       8544       8543       8653       8654       8665       8664  
      8533       8534       8545       8544       8654       8655       8666       8665  
      8534       8535       8546       8545       8655       8656       8667       8666  
      8535       8536       8547       8546       8656       8657       8668       8667  
      8537       8538       8549       8548       8658       8659       8670       8669  
      8538       8539       8550       8549       8659       8660       8671       8670  
      8539       8540       8551       8550       8660       8661       8672       8671  
      8540       8541       8552       8551       8661       8662       8673       8672  
      8541       8542       8553       8552       8662       8663       8674       8673  
      8542       8543       8554       8553       8663       8664       8675       8674  
      8543       8544       8555       8554       8664       8665       8676       8675  
      8544       8545       8556       8555       8665       8666       8677       8676  
      8545       8546       8557       8556       8666       8667       8678       8677  
      8546       8547       8558       8557       8667       8668       8679       8678  
      8548       8549       8560       8559       8669       8670       8681       8680  
      8549       8550       8561       8560       8670       8671       8682       8681  
      8550       8551       8562       8561       8671       8672       8683       8682  
      8551       8552       8563       8562       8672       8673       8684       8683  
      8552       8553       8564       8563       8673       8674       8685       8684  
      8553       8554       8565       8564       8674       8675       8686       8685  
      8554       8555       8566       8565       8675       8676       8687       8686  
      8555       8556       8567       8566       8676       8677       8688       8687  
      8556       8557       8568       8567       8677       8678       8689       8688  
      8557       8558       8569       8568       8678       8679       8690       8689  
      8559       8560       8571       8570       8680       8681       8692       8691  
      8560       8561       8572       8571       8681       8682       8693       8692  
      8561       8562       8573       8572       8682       8683       8694       8693  
      8562       8563       8574       8573       8683       8684       8695       8694  
      8563       8564       8575       8574       8684       8685       8696       8695  
      8564       8565       8576       8575       8685       8686       8697       8696  
      8565       8566       8577       8576       8686       8687       8698       8697  
      8566       8567       8578       8577       8687       8688       8699       8698  
      8567       8568       8579       8578       8688       8689       8700       8699  
      8568       8569       8580       8579       8689       8690       8701       8700  
      8570       8571       8582       8581       8691       8692       8703       8702  
      8571       8572       8583       8582       8692       8693       8704       8703  
      8572       8573       8584       8583       8693       8694       8705       8704  
      8573       8574       8585       8584       8694       8695       8706       8705  
      8574       8575       8586       8585       8695       8696       8707       8706  
      8575       8576       8587       8586       8696       8697       8708       8707  
      8576       8577       8588       8587       8697       8698       8709       8708  
      8577       8578       8589       8588       8698       8699       8710       8709  
      8578       8579       8590       8589       8699       8700       8711       8710  
      8579       8580       8591       8590       8700       8701       8712       8711  
      8592       8593       8604       8603       8713       8714       8725       8724  
      8593       8594       8605       8604       8714       8715       8726       8725  
      8594       8595       8606       8605       8715       8716       8727       8726  
      8595       8596       8607       8606       8716       8717       8728       8727  
      8596       8597       8608       8607       8717       8718       8729       8728  
      8597       8598       8609       8608       8718       8719       8730       8729  
      8598       8599       8610       8609       8719       8720       8731       8730  
      8599       8600       8611       8610       8720       8721       8732       8731  
      8600       8601       8612       8611       8721       8722       8733       8732  
      8601       8602       8613       8612       8722       8723       8734       8733  
      8603       8604       8615       8614       8724       8725       8736       8735  
      8604       8605       8616       8615       8725       8726       8737       8736  
      8605       8606       8617       8616       8726       8727       8738       8737  
      8606       8607       8618       8617       8727       8728       8739       8738  
      8607       8608       8619       8618       8728       8729       8740       8739  
      8608       8609       8620       8619       8729       8730       8741       8740  
      8609       8610       8621       8620       8730       8731       8742       8741  
      8610       8611       8622       8621       8731       8732       8743       8742  
      8611       8612       8623       8622       8732       8733       8744       8743  
      8612       8613       8624       8623       8733       8734       8745       8744  
      8614       8615       8626       8625       8735       8736       8747       8746  
      8615       8616       8627       8626       8736       8737       8748       8747  
      8616       8617       8628       8627       8737       8738       8749       8748  
      8617       8618       8629       8628       8738       8739       8750       8749  
      8618       8619       8630       8629       8739       8740       8751       8750  
      8619       8620       8631       8630       8740       8741       8752       8751  
      8620       8621       8632       8631       8741       8742       8753       8752  
      8621       8622       8633       8632       8742       8743       8754       8753  
      8622       8623       8634       8633       8743       8744       8755       8754  
      8623       8624       8635       8634       8744       8745       8756       8755  
      8625       8626       8637       8636       8746       8747       8758       8757  
      8626       8627       8638       8637       8747       8748       8759       8758  
      8627       8628       8639       8638       8748       8749       8760       8759  
      8628       8629       8640       8639       8749       8750       8761       8760  
      8629       8630       8641       8640       8750       8751       8762       8761  
      8630       8631       8642       8641       8751       8752       8763       8762  
      8631       8632       8643       8642       8752       8753       8764       8763  
      8632       8633       8644       8643       8753       8754       8765       8764  
      8633       8634       8645       8644       8754       8755       8766       8765  
      8634       8635       8646       8645       8755       8756       8767       8766  
      8636       8637       8648       8647       8757       8758       8769       8768  
      8637       8638       8649       8648       8758       8759       8770       8769  
      8638       8639       8650       8649       8759       8760       8771       8770  
      8639       8640       8651       8650       8760       8761       8772       8771  
      8640       8641       8652       8651       8761       8762       8773       8772  
      8641       8642       8653       8652       8762       8763       8774       8773  
      8642       8643       8654       8653       8763       8764       8775       8774  
      8643       8644       8655       8654       8764       8765       8776       8775  
      8644       8645       8656       8655       8765       8766       8777       8776  
      8645       8646       8657       8656       8766       8767       8778       8777  
      8647       8648       8659       8658       8768       8769       8780       8779  
      8648       8649       8660       8659       8769       8770       8781       8780  
      8649       8650       8661       8660       8770       8771       8782       8781  
      8650       8651       8662       8661       8771       8772       8783       8782  
      8651       8652       8663       8662       8772       8773       8784       8783  
      8652       8653       8664       8663       8773       8774       8785       8784  
      8653       8654       8665       8664       8774       8775       8786       8785  
      8654       8655       8666       8665       8775       8776       8787       8786  
      8655       8656       8667       8666       8776       8777       8788       8787  
      8656       8657       8668       8667       8777       8778       8789       8788  
      8658       8659       8670       8669       8779       8780       8791       8790  
      8659       8660       8671       8670       8780       8781       8792       8791  
      8660       8661       8672       8671       8781       8782       8793       8792  
      8661       8662       8673       8672       8782       8783       8794       8793  
      8662       8663       8674       8673       8783       8784       8795       8794  
      8663       8664       8675       8674       8784       8785       8796       8795  
      8664       8665       8676       8675       8785       8786       8797       8796  
      8665       8666       8677       8676       8786       8787       8798       8797  
      8666       8667       8678       8677       8787       8788       8799       8798  
      8667       8668       8679       8678       8788       8789       8800       8799  
      8669       8670       8681       8680       8790       8791       8802       8801  
      8670       8671       8682       8681       8791       8792       8803       8802  
      8671       8672       8683       8682       8792       8793       8804       8803  
      8672       8673       8684       8683       8793       8794       8805       8804  
      8673       8674       8685       8684       8794       8795       8806       8805  
      8674       8675       8686       8685       8795       8796       8807       8806  
      8675       8676       8687       8686       8796       8797       8808       8807  
      8676       8677       8688       8687       8797       8798       8809       8808  
      8677       8678       8689       8688       8798       8799       8810       8809  
      8678       8679       8690       8689       8799       8800       8811       8810  
      8680       8681       8692       8691       8801       8802       8813       8812  
      8681       8682       8693       8692       8802       8803       8814       8813  
      8682       8683       8694       8693       8803       8804       8815       8814  
      8683       8684       8695       8694       8804       8805       8816       8815  
      8684       8685       8696       8695       8805       8806       8817       8816  
      8685       8686       8697       8696       8806       8807       8818       8817  
      8686       8687       8698       8697       8807       8808       8819       8818  
      8687       8688       8699       8698       8808       8809       8820       8819  
      8688       8689       8700       8699       8809       8810       8821       8820  
      8689       8690       8701       8700       8810       8811       8822       8821  
      8691       8692       8703       8702       8812       8813       8824       8823  
      8692       8693       8704       8703       8813       8814       8825       8824  
      8693       8694       8705       8704       8814       8815       8826       8825  
      8694       8695       8706       8705       8815       8816       8827       8826  
      8695       8696       8707       8706       8816       8817       8828       8827  
      8696       8697       8708       8707       8817       8818       8829       8828  
      8697       8698       8709       8708       8818       8819       8830       8829  
      8698       8699       8710       8709       8819       8820       8831       8830  
      8699       8700       8711       8710       8820       8821       8832       8831  
      8700       8701       8712       8711       8821       8822       8833       8832  
      8713       8714       8725       8724       8834       8835       8846       8845  
      8714       8715       8726       8725       8835       8836       8847       8846  
      8715       8716       8727       8726       8836       8837       8848       8847  
      8716       8717       8728       8727       8837       8838       8849       8848  
      8717       8718       8729       8728       8838       8839       8850       8849  
      8718       8719       8730       8729       8839       8840       8851       8850  
      8719       8720       8731       8730       8840       8841       8852       8851  
      8720       8721       8732       8731       8841       8842       8853       8852  
      8721       8722       8733       8732       8842       8843       8854       8853  
      8722       8723       8734       8733       8843       8844       8855       8854  
      8724       8725       8736       8735       8845       8846       8857       8856  
      8725       8726       8737       8736       8846       8847       8858       8857  
      8726       8727       8738       8737       8847       8848       8859       8858  
      8727       8728       8739       8738       8848       8849       8860       8859  
      8728       8729       8740       8739       8849       8850       8861       8860  
      8729       8730       8741       8740       8850       8851       8862       8861  
      8730       8731       8742       8741       8851       8852       8863       8862  
      8731       8732       8743       8742       8852       8853       8864       8863  
      8732       8733       8744       8743       8853       8854       8865       8864  
      8733       8734       8745       8744       8854       8855       8866       8865  
      8735       8736       8747       8746       8856       8857       8868       8867  
      8736       8737       8748       8747       8857       8858       8869       8868  
      8737       8738       8749       8748       8858       8859       8870       8869  
      8738       8739       8750       8749       8859       8860       8871       8870  
      8739       8740       8751       8750       8860       8861       8872       8871  
      8740       8741       8752       8751       8861       8862       8873       8872  
      8741       8742       8753       8752       8862       8863       8874       8873  
      8742       8743       8754       8753       8863       8864       8875       8874  
      8743       8744       8755       8754       8864       8865       8876       8875  
      8744       8745       8756       8755       8865       8866       8877       8876  
      8746       8747       8758       8757       8867       8868       8879       8878  
      8747       8748       8759       8758       8868       8869       8880       8879  
      8748       8749       8760       8759       8869       8870       8881       8880  
      8749       8750       8761       8760       8870       8871       8882       8881  
      8750       8751       8762       8761       8871       8872       8883       8882  
      8751       8752       8763       8762       8872       8873       8884       8883  
      8752       8753       8764       8763       8873       8874       8885       8884  
      8753       8754       8765       8764       8874       8875       8886       8885  
      8754       8755       8766       8765       8875       8876       8887       8886  
      8755       8756       8767       8766       8876       8877       8888       8887  
      8757       8758       8769       8768       8878       8879       8890       8889  
      8758       8759       8770       8769       8879       8880       8891       8890  
      8759       8760       8771       8770       8880       8881       8892       8891  
      8760       8761       8772       8771       8881       8882       8893       8892  
      8761       8762       8773       8772       8882       8883       8894       8893  
      8762       8763       8774       8773       8883       8884       8895       8894  
      8763       8764       8775       8774       8884       8885       8896       8895  
      8764       8765       8776       8775       8885       8886       8897       8896  
      8765       8766       8777       8776       8886       8887       8898       8897  
      8766       8767       8778       8777       8887       8888       8899       8898  
      8768       8769       8780       8779       8889       8890       8901       8900  
      8769       8770       8781       8780       8890       8891       8902       8901  
      8770       8771       8782       8781       8891       8892       8903       8902  
      8771       8772       8783       8782       8892       8893       8904       8903  
      8772       8773       8784       8783       8893       8894       8905       8904  
      8773       8774       8785       8784       8894       8895       8906       8905  
      8774       8775       8786       8785       8895       8896       8907       8906  
      8775       8776       8787       8786       8896       8897       8908       8907  
      8776       8777       8788       8787       8897       8898       8909       8908  
      8777       8778       8789       8788       8898       8899       8910       8909  
      8779       8780       8791       8790       8900       8901       8912       8911  
      8780       8781       8792       8791       8901       8902       8913       8912  
      8781       8782       8793       8792       8902       8903       8914       8913  
      8782       8783       8794       8793       8903       8904       8915       8914  
      8783       8784       8795       8794       8904       8905       8916       8915  
      8784       8785       8796       8795       8905       8906       8917       8916  
      8785       8786       8797       8796       8906       8907       8918       8917  
      8786       8787       8798       8797       8907       8908       8919       8918  
      8787       8788       8799       8798       8908       8909       8920       8919  
      8788       8789       8800       8799       8909       8910       8921       8920  
      8790       8791       8802       8801       8911       8912       8923       8922  
      8791       8792       8803       8802       8912       8913       8924       8923  
      8792       8793       8804       8803       8913       8914       8925       8924  
      8793       8794       8805       8804       8914       8915       8926       8925  
      8794       8795       8806       8805       8915       8916       8927       8926  
      8795       8796       8807       8806       8916       8917       8928       8927  
      8796       8797       8808       8807       8917       8918       8929       8928  
      8797       8798       8809       8808       8918       8919       8930       8929  
      8798       8799       8810       8809       8919       8920       8931       8930  
      8799       8800       8811       8810       8920       8921       8932       8931  
      8801       8802       8813       8812       8922       8923       8934       8933  
      8802       8803       8814       8813       8923       8924       8935       8934  
      8803       8804       8815       8814       8924       8925       8936       8935  
      8804       8805       8816       8815       8925       8926       8937       8936  
      8805       8806       8817       8816       8926       8927       8938       8937  
      8806       8807       8818       8817       8927       8928       8939       8938  
      8807       8808       8819       8818       8928       8929       8940       8939  
      8808       8809       8820       8819       8929       8930       8941       8940  
      8809       8810       8821       8820       8930       8931       8942       8941  
      8810       8811       8822       8821       8931       8932       8943       8942  
      8812       8813       8824       8823       8933       8934       8945       8944  
      8813       8814       8825       8824       8934       8935       8946       8945  
      8814       8815       8826       8825       8935       8936       8947       8946  
      8815       8816       8827       8826       8936       8937       8948       8947  
      8816       8817       8828       8827       8937       8938       8949       8948  
      8817       8818       8829       8828       8938       8939       8950       8949  
      8818       8819       8830       8829       8939       8940       8951       8950  
      8819       8820       8831       8830       8940       8941       8952       8951  
      8820       8821       8832       8831       8941       8942       8953       8952  
      8821       8822       8833       8832       8942       8943       8954       8953  
      8834       8835       8846       8845       8955       8956       8967       8966  
      8835       8836       8847       8846       8956       8957       8968       8967  
      8836       8837       8848       8847       8957       8958       8969       8968  
      8837       8838       8849       8848       8958       8959       8970       8969  
      8838       8839       8850       8849       8959       8960       8971       8970  
      8839       8840       8851       8850       8960       8961       8972       8971  
      8840       8841       8852       8851       8961       8962       8973       8972  
      8841       8842       8853       8852       8962       8963       8974       8973  
      8842       8843       8854       8853       8963       8964       8975       8974  
      8843       8844       8855       8854       8964       8965       8976       8975  
      8845       8846       8857       8856       8966       8967       8978       8977  
      8846       8847       8858       8857       8967       8968       8979       8978  
      8847       8848       8859       8858       8968       8969       8980       8979  
      8848       8849       8860       8859       8969       8970       8981       8980  
      8849       8850       8861       8860       8970       8971       8982       8981  
      8850       8851       8862       8861       8971       8972       8983       8982  
      8851       8852       8863       8862       8972       8973       8984       8983  
      8852       8853       8864       8863       8973       8974       8985       8984  
      8853       8854       8865       8864       8974       8975       8986       8985  
      8854       8855       8866       8865       8975       8976       8987       8986  
      8856       8857       8868       8867       8977       8978       8989       8988  
      8857       8858       8869       8868       8978       8979       8990       8989  
      8858       8859       8870       8869       8979       8980       8991       8990  
      8859       8860       8871       8870       8980       8981       8992       8991  
      8860       8861       8872       8871       8981       8982       8993       8992  
      8861       8862       8873       8872       8982       8983       8994       8993  
      8862       8863       8874       8873       8983       8984       8995       8994  
      8863       8864       8875       8874       8984       8985       8996       8995  
      8864       8865       8876       8875       8985       8986       8997       8996  
      8865       8866       8877       8876       8986       8987       8998       8997  
      8867       8868       8879       8878       8988       8989       9000       8999  
      8868       8869       8880       8879       8989       8990       9001       9000  
      8869       8870       8881       8880       8990       8991       9002       9001  
      8870       8871       8882       8881       8991       8992       9003       9002  
      8871       8872       8883       8882       8992       8993       9004       9003  
      8872       8873       8884       8883       8993       8994       9005       9004  
      8873       8874       8885       8884       8994       8995       9006       9005  
      8874       8875       8886       8885       8995       8996       9007       9006  
      8875       8876       8887       8886       8996       8997       9008       9007  
      8876       8877       8888       8887       8997       8998       9009       9008  
      8878       8879       8890       8889       8999       9000       9011       9010  
      8879       8880       8891       8890       9000       9001       9012       9011  
      8880       8881       8892       8891       9001       9002       9013       9012  
      8881       8882       8893       8892       9002       9003       9014       9013  
      8882       8883       8894       8893       9003       9004       9015       9014  
      8883       8884       8895       8894       9004       9005       9016       9015  
      8884       8885       8896       8895       9005       9006       9017       9016  
      8885       8886       8897       8896       9006       9007       9018       9017  
      8886       8887       8898       8897       9007       9008       9019       9018  
      8887       8888       8899       8898       9008       9009       9020       9019  
      8889       8890       8901       8900       9010       9011       9022       9021  
      8890       8891       8902       8901       9011       9012       9023       9022  
      8891       8892       8903       8902       9012       9013       9024       9023  
      8892       8893       8904       8903       9013       9014       9025       9024  
      8893       8894       8905       8904       9014       9015       9026       9025  
      8894       8895       8906       8905       9015       9016       9027       9026  
      8895       8896       8907       8906       9016       9017       9028       9027  
      8896       8897       8908       8907       9017       9018       9029       9028  
      8897       8898       8909       8908       9018       9019       9030       9029  
      8898       8899       8910       8909       9019       9020       9031       9030  
      8900       8901       8912       8911       9021       9022       9033       9032  
      8901       8902       8913       8912       9022       9023       9034       9033  
      8902       8903       8914       8913       9023       9024       9035       9034  
      8903       8904       8915       8914       9024       9025       9036       9035  
      8904       8905       8916       8915       9025       9026       9037       9036  
      8905       8906       8917       8916       9026       9027       9038       9037  
      8906       8907       8918       8917       9027       9028       9039       9038  
      8907       8908       8919       8918       9028       9029       9040       9039  
      8908       8909       8920       8919       9029       9030       9041       9040  
      8909       8910       8921       8920       9030       9031       9042       9041  
      8911       8912       8923       8922       9032       9033       9044       9043  
      8912       8913       8924       8923       9033       9034       9045       9044  
      8913       8914       8925       8924       9034       9035       9046       9045  
      8914       8915       8926       8925       9035       9036       9047       9046  
      8915       8916       8927       8926       9036       9037       9048       9047  
      8916       8917       8928       8927       9037       9038       9049       9048  
      8917       8918       8929       8928       9038       9039       9050       9049  
      8918       8919       8930       8929       9039       9040       9051       9050  
      8919       8920       8931       8930       9040       9041       9052       9051  
      8920       8921       8932       8931       9041       9042       9053       9052  
      8922       8923       8934       8933       9043       9044       9055       9054  
      8923       8924       8935       8934       9044       9045       9056       9055  
      8924       8925       8936       8935       9045       9046       9057       9056  
      8925       8926       8937       8936       9046       9047       9058       9057  
      8926       8927       8938       8937       9047       9048       9059       9058  
      8927       8928       8939       8938       9048       9049       9060       9059  
      8928       8929       8940       8939       9049       9050       9061       9060  
      8929       8930       8941       8940       9050       9051       9062       9061  
      8930       8931       8942       8941       9051       9052       9063       9062  
      8931       8932       8943       8942       9052       9053       9064       9063  
      8933       8934       8945       8944       9054       9055       9066       9065  
      8934       8935       8946       8945       9055       9056       9067       9066  
      8935       8936       8947       8946       9056       9057       9068       9067  
      8936       8937       8948       8947       9057       9058       9069       9068  
      8937       8938       8949       8948       9058       9059       9070       9069  
      8938       8939       8950       8949       9059       9060       9071       9070  
      8939       8940       8951       8950       9060       9061       9072       9071  
      8940       8941       8952       8951       9061       9062       9073       9072  
      8941       8942       8953       8952       9062       9063       9074       9073  
      8942       8943       8954       8953       9063       9064       9075       9074  
      8955       8956       8967       8966       9076       9077       9088       9087  
      8956       8957       8968       8967       9077       9078       9089       9088  
      8957       8958       8969       8968       9078       9079       9090       9089  
      8958       8959       8970       8969       9079       9080       9091       9090  
      8959       8960       8971       8970       9080       9081       9092       9091  
      8960       8961       8972       8971       9081       9082       9093       9092  
      8961       8962       8973       8972       9082       9083       9094       9093  
      8962       8963       8974       8973       9083       9084       9095       9094  
      8963       8964       8975       8974       9084       9085       9096       9095  
      8964       8965       8976       8975       9085       9086       9097       9096  
      8966       8967       8978       8977       9087       9088       9099       9098  
      8967       8968       8979       8978       9088       9089       9100       9099  
      8968       8969       8980       8979       9089       9090       9101       9100  
      8969       8970       8981       8980       9090       9091       9102       9101  
      8970       8971       8982       8981       9091       9092       9103       9102  
      8971       8972       8983       8982       9092       9093       9104       9103  
      8972       8973       8984       8983       9093       9094       9105       9104  
      8973       8974       8985       8984       9094       9095       9106       9105  
      8974       8975       8986       8985       9095       9096       9107       9106  
      8975       8976       8987       8986       9096       9097       9108       9107  
      8977       8978       8989       8988       9098       9099       9110       9109  
      8978       8979       8990       8989       9099       9100       9111       9110  
      8979       8980       8991       8990       9100       9101       9112       9111  
      8980       8981       8992       8991       9101       9102       9113       9112  
      8981       8982       8993       8992       9102       9103       9114       9113  
      8982       8983       8994       8993       9103       9104       9115       9114  
      8983       8984       8995       8994       9104       9105       9116       9115  
      8984       8985       8996       8995       9105       9106       9117       9116  
      8985       8986       8997       8996       9106       9107       9118       9117  
      8986       8987       8998       8997       9107       9108       9119       9118  
      8988       8989       9000       8999       9109       9110       9121       9120  
      8989       8990       9001       9000       9110       9111       9122       9121  
      8990       8991       9002       9001       9111       9112       9123       9122  
      8991       8992       9003       9002       9112       9113       9124       9123  
      8992       8993       9004       9003       9113       9114       9125       9124  
      8993       8994       9005       9004       9114       9115       9126       9125  
      8994       8995       9006       9005       9115       9116       9127       9126  
      8995       8996       9007       9006       9116       9117       9128       9127  
      8996       8997       9008       9007       9117       9118       9129       9128  
      8997       8998       9009       9008       9118       9119       9130       9129  
      8999       9000       9011       9010       9120       9121       9132       9131  
      9000       9001       9012       9011       9121       9122       9133       9132  
      9001       9002       9013       9012       9122       9123       9134       9133  
      9002       9003       9014       9013       9123       9124       9135       9134  
      9003       9004       9015       9014       9124       9125       9136       9135  
      9004       9005       9016       9015       9125       9126       9137       9136  
      9005       9006       9017       9016       9126       9127       9138       9137  
      9006       9007       9018       9017       9127       9128       9139       9138  
      9007       9008       9019       9018       9128       9129       9140       9139  
      9008       9009       9020       9019       9129       9130       9141       9140  
      9010       9011       9022       9021       9131       9132       9143       9142  
      9011       9012       9023       9022       9132       9133       9144       9143  
      9012       9013       9024       9023       9133       9134       9145       9144  
      9013       9014       9025       9024       9134       9135       9146       9145  
      9014       9015       9026       9025       9135       9136       9147       9146  
      9015       9016       9027       9026       9136       9137       9148       9147  
      9016       9017       9028       9027       9137       9138       9149       9148  
      9017       9018       9029       9028       9138       9139       9150       9149  
      9018       9019       9030       9029       9139       9140       9151       9150  
      9019       9020       9031       9030       9140       9141       9152       9151  
      9021       9022       9033       9032       9142       9143       9154       9153  
      9022       9023       9034       9033       9143       9144       9155       9154  
      9023       9024       9035       9034       9144       9145       9156       9155  
      9024       9025       9036       9035       9145       9146       9157       9156  
      9025       9026       9037       9036       9146       9147       9158       9157  
      9026       9027       9038       9037       9147       9148       9159       9158  
      9027       9028       9039       9038       9148       9149       9160       9159  
      9028       9029       9040       9039       9149       9150       9161       9160  
      9029       9030       9041       9040       9150       9151       9162       9161  
      9030       9031       9042       9041       9151       9152       9163       9162  
      9032       9033       9044       9043       9153       9154       9165       9164  
      9033       9034       9045       9044       9154       9155       9166       9165  
      9034       9035       9046       9045       9155       9156       9167       9166  
      9035       9036       9047       9046       9156       9157       9168       9167  
      9036       9037       9048       9047       9157       9158       9169       9168  
      9037       9038       9049       9048       9158       9159       9170       9169  
      9038       9039       9050       9049       9159       9160       9171       9170  
      9039       9040       9051       9050       9160       9161       9172       9171  
      9040       9041       9052       9051       9161       9162       9173       9172  
      9041       9042       9053       9052       9162       9163       9174       9173  
      9043       9044       9055       9054       9164       9165       9176       9175  
      9044       9045       9056       9055       9165       9166       9177       9176  
      9045       9046       9057       9056       9166       9167       9178       9177  
      9046       9047       9058       9057       9167       9168       9179       9178  
      9047       9048       9059       9058       9168       9169       9180       9179  
      9048       9049       9060       9059       9169       9170       9181       9180  
      9049       9050       9061       9060       9170       9171       9182       9181  
      9050       9051       9062       9061       9171       9172       9183       9182  
      9051       9052       9063       9062       9172       9173       9184       9183  
      9052       9053       9064       9063       9173       9174       9185       9184  
      9054       9055       9066       9065       9175       9176       9187       9186  
      9055       9056       9067       9066       9176       9177       9188       9187  
      9056       9057       9068       9067       9177       9178       9189       9188  
      9057       9058       9069       9068       9178       9179       9190       9189  
      9058       9059       9070       9069       9179       9180       9191       9190  
      9059       9060       9071       9070       9180       9181       9192       9191  
      9060       9061       9072       9071       9181       9182       9193       9192  
      9061       9062       9073       9072       9182       9183       9194       9193  
      9062       9063       9074       9073       9183       9184       9195       9194  
      9063       9064       9075       9074       9184       9185       9196       9195  
      9076       9077       9088       9087       9197       9198       9209       9208  
      9077       9078       9089       9088       9198       9199       9210       9209  
      9078       9079       9090       9089       9199       9200       9211       9210  
      9079       9080       9091       9090       9200       9201       9212       9211  
      9080       9081       9092       9091       9201       9202       9213       9212  
      9081       9082       9093       9092       9202       9203       9214       9213  
      9082       9083       9094       9093       9203       9204       9215       9214  
      9083       9084       9095       9094       9204       9205       9216       9215  
      9084       9085       9096       9095       9205       9206       9217       9216  
      9085       9086       9097       9096       9206       9207       9218       9217  
      9087       9088       9099       9098       9208       9209       9220       9219  
      9088       9089       9100       9099       9209       9210       9221       9220  
      9089       9090       9101       9100       9210       9211       9222       9221  
      9090       9091       9102       9101       9211       9212       9223       9222  
      9091       9092       9103       9102       9212       9213       9224       9223  
      9092       9093       9104       9103       9213       9214       9225       9224  
      9093       9094       9105       9104       9214       9215       9226       9225  
      9094       9095       9106       9105       9215       9216       9227       9226  
      9095       9096       9107       9106       9216       9217       9228       9227  
      9096       9097       9108       9107       9217       9218       9229       9228  
      9098       9099       9110       9109       9219       9220       9231       9230  
      9099       9100       9111       9110       9220       9221       9232       9231  
      9100       9101       9112       9111       9221       9222       9233       9232  
      9101       9102       9113       9112       9222       9223       9234       9233  
      9102       9103       9114       9113       9223       9224       9235       9234  
      9103       9104       9115       9114       9224       9225       9236       9235  
      9104       9105       9116       9115       9225       9226       9237       9236  
      9105       9106       9117       9116       9226       9227       9238       9237  
      9106       9107       9118       9117       9227       9228       9239       9238  
      9107       9108       9119       9118       9228       9229       9240       9239  
      9109       9110       9121       9120       9230       9231       9242       9241  
      9110       9111       9122       9121       9231       9232       9243       9242  
      9111       9112       9123       9122       9232       9233       9244       9243  
      9112       9113       9124       9123       9233       9234       9245       9244  
      9113       9114       9125       9124       9234       9235       9246       9245  
      9114       9115       9126       9125       9235       9236       9247       9246  
      9115       9116       9127       9126       9236       9237       9248       9247  
      9116       9117       9128       9127       9237       9238       9249       9248  
      9117       9118       9129       9128       9238       9239       9250       9249  
      9118       9119       9130       9129       9239       9240       9251       9250  
      9120       9121       9132       9131       9241       9242       9253       9252  
      9121       9122       9133       9132       9242       9243       9254       9253  
      9122       9123       9134       9133       9243       9244       9255       9254  
      9123       9124       9135       9134       9244       9245       9256       9255  
      9124       9125       9136       9135       9245       9246       9257       9256  
      9125       9126       9137       9136       9246       9247       9258       9257  
      9126       9127       9138       9137       9247       9248       9259       9258  
      9127       9128       9139       9138       9248       9249       9260       9259  
      9128       9129       9140       9139       9249       9250       9261       9260  
      9129       9130       9141       9140       9250       9251       9262       9261  
      9131       9132       9143       9142       9252       9253       9264       9263  
      9132       9133       9144       9143       9253       9254       9265       9264  
      9133       9134       9145       9144       9254       9255       9266       9265  
      9134       9135       9146       9145       9255       9256       9267       9266  
      9135       9136       9147       9146       9256       9257       9268       9267  
      9136       9137       9148       9147       9257       9258       9269       9268  
      9137       9138       9149       9148       9258       9259       9270       9269  
      9138       9139       9150       9149       9259       9260       9271       9270  
      9139       9140       9151       9150       9260       9261       9272       9271  
      9140       9141       9152       9151       9261       9262       9273       9272  
      9142       9143       9154       9153       9263       9264       9275       9274  
      9143       9144       9155       9154       9264       9265       9276       9275  
      9144       9145       9156       9155       9265       9266       9277       9276  
      9145       9146       9157       9156       9266       9267       9278       9277  
      9146       9147       9158       9157       9267       9268       9279       9278  
      9147       9148       9159       9158       9268       9269       9280       9279  
      9148       9149       9160       9159       9269       9270       9281       9280  
      9149       9150       9161       9160       9270       9271       9282       9281  
      9150       9151       9162       9161       9271       9272       9283       9282  
      9151       9152       9163       9162       9272       9273       9284       9283  
      9153       9154       9165       9164       9274       9275       9286       9285  
      9154       9155       9166       9165       9275       9276       9287       9286  
      9155       9156       9167       9166       9276       9277       9288       9287  
      9156       9157       9168       9167       9277       9278       9289       9288  
      9157       9158       9169       9168       9278       9279       9290       9289  
      9158       9159       9170       9169       9279       9280       9291       9290  
      9159       9160       9171       9170       9280       9281       9292       9291  
      9160       9161       9172       9171       9281       9282       9293       9292  
      9161       9162       9173       9172       9282       9283       9294       9293  
      9162       9163       9174       9173       9283       9284       9295       9294  
      9164       9165       9176       9175       9285       9286       9297       9296  
      9165       9166       9177       9176       9286       9287       9298       9297  
      9166       9167       9178       9177       9287       9288       9299       9298  
      9167       9168       9179       9178       9288       9289       9300       9299  
      9168       9169       9180       9179       9289       9290       9301       9300  
      9169       9170       9181       9180       9290       9291       9302       9301  
      9170       9171       9182       9181       9291       9292       9303       9302  
      9171       9172       9183       9182       9292       9293       9304       9303  
      9172       9173       9184       9183       9293       9294       9305       9304  
      9173       9174       9185       9184       9294       9295       9306       9305  
      9175       9176       9187       9186       9296       9297       9308       9307  
      9176       9177       9188       9187       9297       9298       9309       9308  
      9177       9178       9189       9188       9298       9299       9310       9309  
      9178       9179       9190       9189       9299       9300       9311       9310  
      9179       9180       9191       9190       9300       9301       9312       9311  
      9180       9181       9192       9191       9301       9302       9313       9312  
      9181       9182       9193       9192       9302       9303       9314       9313  
      9182       9183       9194       9193       9303       9304       9315       9314  
      9183       9184       9195       9194       9304       9305       9316       9315  
      9184       9185       9196       9195       9305       9306       9317       9316  
      9197       9198       9209       9208       9318       9319       9330       9329  
      9198       9199       9210       9209       9319       9320       9331       9330  
      9199       9200       9211       9210       9320       9321       9332       9331  
      9200       9201       9212       9211       9321       9322       9333       9332  
      9201       9202       9213       9212       9322       9323       9334       9333  
      9202       9203       9214       9213       9323       9324       9335       9334  
      9203       9204       9215       9214       9324       9325       9336       9335  
      9204       9205       9216       9215       9325       9326       9337       9336  
      9205       9206       9217       9216       9326       9327       9338       9337  
      9206       9207       9218       9217       9327       9328       9339       9338  
      9208       9209       9220       9219       9329       9330       9341       9340  
      9209       9210       9221       9220       9330       9331       9342       9341  
      9210       9211       9222       9221       9331       9332       9343       9342  
      9211       9212       9223       9222       9332       9333       9344       9343  
      9212       9213       9224       9223       9333       9334       9345       9344  
      9213       9214       9225       9224       9334       9335       9346       9345  
      9214       9215       9226       9225       9335       9336       9347       9346  
      9215       9216       9227       9226       9336       9337       9348       9347  
      9216       9217       9228       9227       9337       9338       9349       9348  
      9217       9218       9229       9228       9338       9339       9350       9349  
      9219       9220       9231       9230       9340       9341       9352       9351  
      9220       9221       9232       9231       9341       9342       9353       9352  
      9221       9222       9233       9232       9342       9343       9354       9353  
      9222       9223       9234       9233       9343       9344       9355       9354  
      9223       9224       9235       9234       9344       9345       9356       9355  
      9224       9225       9236       9235       9345       9346       9357       9356  
      9225       9226       9237       9236       9346       9347       9358       9357  
      9226       9227       9238       9237       9347       9348       9359       9358  
      9227       9228       9239       9238       9348       9349       9360       9359  
      9228       9229       9240       9239       9349       9350       9361       9360  
      9230       9231       9242       9241       9351       9352       9363       9362  
      9231       9232       9243       9242       9352       9353       9364       9363  
      9232       9233       9244       9243       9353       9354       9365       9364  
      9233       9234       9245       9244       9354       9355       9366       9365  
      9234       9235       9246       9245       9355       9356       9367       9366  
      9235       9236       9247       9246       9356       9357       9368       9367  
      9236       9237       9248       9247       9357       9358       9369       9368  
      9237       9238       9249       9248       9358       9359       9370       9369  
      9238       9239       9250       9249       9359       9360       9371       9370  
      9239       9240       9251       9250       9360       9361       9372       9371  
      9241       9242       9253       9252       9362       9363       9374       9373  
      9242       9243       9254       9253       9363       9364       9375       9374  
      9243       9244       9255       9254       9364       9365       9376       9375  
      9244       9245       9256       9255       9365       9366       9377       9376  
      9245       9246       9257       9256       9366       9367       9378       9377  
      9246       9247       9258       9257       9367       9368       9379       9378  
      9247       9248       9259       9258       9368       9369       9380       9379  
      9248       9249       9260       9259       9369       9370       9381       9380  
      9249       9250       9261       9260       9370       9371       9382       9381  
      9250       9251       9262       9261       9371       9372       9383       9382  
      9252       9253       9264       9263       9373       9374       9385       9384  
      9253       9254       9265       9264       9374       9375       9386       9385  
      9254       9255       9266       9265       9375       9376       9387       9386  
      9255       9256       9267       9266       9376       9377       9388       9387  
      9256       9257       9268       9267       9377       9378       9389       9388  
      9257       9258       9269       9268       9378       9379       9390       9389  
      9258       9259       9270       9269       9379       9380       9391       9390  
      9259       9260       9271       9270       9380       9381       9392       9391  
      9260       9261       9272       9271       9381       9382       9393       9392  
      9261       9262       9273       9272       9382       9383       9394       9393  
      9263       9264       9275       9274       9384       9385       9396       9395  
      9264       9265       9276       9275       9385       9386       9397       9396  
      9265       9266       9277       9276       9386       9387       9398       9397  
      9266       9267       9278       9277       9387       9388       9399       9398  
      9267       9268       9279       9278       9388       9389       9400       9399  
      9268       9269       9280       9279       9389       9390       9401       9400  
      9269       9270       9281       9280       9390       9391       9402       9401  
      9270       9271       9282       9281       9391       9392       9403       9402  
      9271       9272       9283       9282       9392       9393       9404       9403  
      9272       9273       9284       9283       9393       9394       9405       9404  
      9274       9275       9286       9285       9395       9396       9407       9406  
      9275       9276       9287       9286       9396       9397       9408       9407  
      9276       9277       9288       9287       9397       9398       9409       9408  
      9277       9278       9289       9288       9398       9399       9410       9409  
      9278       9279       9290       9289       9399       9400       9411       9410  
      9279       9280       9291       9290       9400       9401       9412       9411  
      9280       9281       9292       9291       9401       9402       9413       9412  
      9281       9282       9293       9292       9402       9403       9414       9413  
      9282       9283       9294       9293       9403       9404       9415       9414  
      9283       9284       9295       9294       9404       9405       9416       9415  
      9285       9286       9297       9296       9406       9407       9418       9417  
      9286       9287       9298       9297       9407       9408       9419       9418  
      9287       9288       9299       9298       9408       9409       9420       9419  
      9288       9289       9300       9299       9409       9410       9421       9420  
      9289       9290       9301       9300       9410       9411       9422       9421  
      9290       9291       9302       9301       9411       9412       9423       9422  
      9291       9292       9303       9302       9412       9413       9424       9423  
      9292       9293       9304       9303       9413       9414       9425       9424  
      9293       9294       9305       9304       9414       9415       9426       9425  
      9294       9295       9306       9305       9415       9416       9427       9426  
      9296       9297       9308       9307       9417       9418       9429       9428  
      9297       9298       9309       9308       9418       9419       9430       9429  
      9298       9299       9310       9309       9419       9420       9431       9430  
      9299       9300       9311       9310       9420       9421       9432       9431  
      9300       9301       9312       9311       9421       9422       9433       9432  
      9301       9302       9313       9312       9422       9423       9434       9433  
      9302       9303       9314       9313       9423       9424       9435       9434  
      9303       9304       9315       9314       9424       9425       9436       9435  
      9304       9305       9316       9315       9425       9426       9437       9436  
      9305       9306       9317       9316       9426       9427       9438       9437  
      9318       9319       9330       9329       9439       9440       9451       9450  
      9319       9320       9331       9330       9440       9441       9452       9451  
      9320       9321       9332       9331       9441       9442       9453       9452  
      9321       9322       9333       9332       9442       9443       9454       9453  
      9322       9323       9334       9333       9443       9444       9455       9454  
      9323       9324       9335       9334       9444       9445       9456       9455  
      9324       9325       9336       9335       9445       9446       9457       9456  
      9325       9326       9337       9336       9446       9447       9458       9457  
      9326       9327       9338       9337       9447       9448       9459       9458  
      9327       9328       9339       9338       9448       9449       9460       9459  
      9329       9330       9341       9340       9450       9451       9462       9461  
      9330       9331       9342       9341       9451       9452       9463       9462  
      9331       9332       9343       9342       9452       9453       9464       9463  
      9332       9333       9344       9343       9453       9454       9465       9464  
      9333       9334       9345       9344       9454       9455       9466       9465  
      9334       9335       9346       9345       9455       9456       9467       9466  
      9335       9336       9347       9346       9456       9457       9468       9467  
      9336       9337       9348       9347       9457       9458       9469       9468  
      9337       9338       9349       9348       9458       9459       9470       9469  
      9338       9339       9350       9349       9459       9460       9471       9470  
      9340       9341       9352       9351       9461       9462       9473       9472  
      9341       9342       9353       9352       9462       9463       9474       9473  
      9342       9343       9354       9353       9463       9464       9475       9474  
      9343       9344       9355       9354       9464       9465       9476       9475  
      9344       9345       9356       9355       9465       9466       9477       9476  
      9345       9346       9357       9356       9466       9467       9478       9477  
      9346       9347       9358       9357       9467       9468       9479       9478  
      9347       9348       9359       9358       9468       9469       9480       9479  
      9348       9349       9360       9359       9469       9470       9481       9480  
      9349       9350       9361       9360       9470       9471       9482       9481  
      9351       9352       9363       9362       9472       9473       9484       9483  
      9352       9353       9364       9363       9473       9474       9485       9484  
      9353       9354       9365       9364       9474       9475       9486       9485  
      9354       9355       9366       9365       9475       9476       9487       9486  
      9355       9356       9367       9366       9476       9477       9488       9487  
      9356       9357       9368       9367       9477       9478       9489       9488  
      9357       9358       9369       9368       9478       9479       9490       9489  
      9358       9359       9370       9369       9479       9480       9491       9490  
      9359       9360       9371       9370       9480       9481       9492       9491  
      9360       9361       9372       9371       9481       9482       9493       9492  
      9362       9363       9374       9373       9483       9484       9495       9494  
      9363       9364       9375       9374       9484       9485       9496       9495  
      9364       9365       9376       9375       9485       9486       9497       9496  
      9365       9366       9377       9376       9486       9487       9498       9497  
      9366       9367       9378       9377       9487       9488       9499       9498  
      9367       9368       9379       9378       9488       9489       9500       9499  
      9368       9369       9380       9379       9489       9490       9501       9500  
      9369       9370       9381       9380       9490       9491       9502       9501  
      9370       9371       9382       9381       9491       9492       9503       9502  
      9371       9372       9383       9382       9492       9493       9504       9503  
      9373       9374       9385       9384       9494       9495       9506       9505  
      9374       9375       9386       9385       9495       9496       9507       9506  
      9375       9376       9387       9386       9496       9497       9508       9507  
      9376       9377       9388       9387       9497       9498       9509       9508  
      9377       9378       9389       9388       9498       9499       9510       9509  
      9378       9379       9390       9389       9499       9500       9511       9510  
      9379       9380       9391       9390       9500       9501       9512       9511  
      9380       9381       9392       9391       9501       9502       9513       9512  
      9381       9382       9393       9392       9502       9503       9514       9513  
      9382       9383       9394       9393       9503       9504       9515       9514  
      9384       9385       9396       9395       9505       9506       9517       9516  
      9385       9386       9397       9396       9506       9507       9518       9517  
      9386       9387       9398       9397       9507       9508       9519       9518  
      9387       9388       9399       9398       9508       9509       9520       9519  
      9388       9389       9400       9399       9509       9510       9521       9520  
      9389       9390       9401       9400       9510       9511       9522       9521  
      9390       9391       9402       9401       9511       9512       9523       9522  
      9391       9392       9403       9402       9512       9513       9524       9523  
      9392       9393       9404       9403       9513       9514       9525       9524  
      9393       9394       9405       9404       9514       9515       9526       9525  
      9395       9396       9407       9406       9516       9517       9528       9527  
      9396       9397       9408       9407       9517       9518       9529       9528  
      9397       9398       9409       9408       9518       9519       9530       9529  
      9398       9399       9410       9409       9519       9520       9531       9530  
      9399       9400       9411       9410       9520       9521       9532       9531  
      9400       9401       9412       9411       9521       9522       9533       9532  
      9401       9402       9413       9412       9522       9523       9534       9533  
      9402       9403       9414       9413       9523       9524       9535       9534  
      9403       9404       9415       9414       9524       9525       9536       9535  
      9404       9405       9416       9415       9525       9526       9537       9536  
      9406       9407       9418       9417       9527       9528       9539       9538  
      9407       9408       9419       9418       9528       9529       9540       9539  
      9408       9409       9420       9419       9529       9530       9541       9540  
      9409       9410       9421       9420       9530       9531       9542       9541  
      9410       9411       9422       9421       9531       9532       9543       9542  
      9411       9412       9423       9422       9532       9533       9544       9543  
      9412       9413       9424       9423       9533       9534       9545       9544  
      9413       9414       9425       9424       9534       9535       9546       9545  
      9414       9415       9426       9425       9535       9536       9547       9546  
      9415       9416       9427       9426       9536       9537       9548       9547  
      9417       9418       9429       9428       9538       9539       9550       9549  
      9418       9419       9430       9429       9539       9540       9551       9550  
      9419       9420       9431       9430       9540       9541       9552       9551  
      9420       9421       9432       9431       9541       9542       9553       9552  
      9421       9422       9433       9432       9542       9543       9554       9553  
      9422       9423       9434       9433       9543       9544       9555       9554  
      9423       9424       9435       9434       9544       9545       9556       9555  
      9424       9425       9436       9435       9545       9546       9557       9556  
      9425       9426       9437       9436       9546       9547       9558       9557  
      9426       9427       9438       9437       9547       9548       9559       9558  
      9439       9440       9451       9450       9560       9561       9572       9571  
      9440       9441       9452       9451       9561       9562       9573       9572  
      9441       9442       9453       9452       9562       9563       9574       9573  
      9442       9443       9454       9453       9563       9564       9575       9574  
      9443       9444       9455       9454       9564       9565       9576       9575  
      9444       9445       9456       9455       9565       9566       9577       9576  
      9445       9446       9457       9456       9566       9567       9578       9577  
      9446       9447       9458       9457       9567       9568       9579       9578  
      9447       9448       9459       9458       9568       9569       9580       9579  
      9448       9449       9460       9459       9569       9570       9581       9580  
      9450       9451       9462       9461       9571       9572       9583       9582  
      9451       9452       9463       9462       9572       9573       9584       9583  
      9452       9453       9464       9463       9573       9574       9585       9584  
      9453       9454       9465       9464       9574       9575       9586       9585  
      9454       9455       9466       9465       9575       9576       9587       9586  
      9455       9456       9467       9466       9576       9577       9588       9587  
      9456       9457       9468       9467       9577       9578       9589       9588  
      9457       9458       9469       9468       9578       9579       9590       9589  
      9458       9459       9470       9469       9579       9580       9591       9590  
      9459       9460       9471       9470       9580       9581       9592       9591  
      9461       9462       9473       9472       9582       9583       9594       9593  
      9462       9463       9474       9473       9583       9584       9595       9594  
      9463       9464       9475       9474       9584       9585       9596       9595  
      9464       9465       9476       9475       9585       9586       9597       9596  
      9465       9466       9477       9476       9586       9587       9598       9597  
      9466       9467       9478       9477       9587       9588       9599       9598  
      9467       9468       9479       9478       9588       9589       9600       9599  
      9468       9469       9480       9479       9589       9590       9601       9600  
      9469       9470       9481       9480       9590       9591       9602       9601  
      9470       9471       9482       9481       9591       9592       9603       9602  
      9472       9473       9484       9483       9593       9594       9605       9604  
      9473       9474       9485       9484       9594       9595       9606       9605  
      9474       9475       9486       9485       9595       9596       9607       9606  
      9475       9476       9487       9486       9596       9597       9608       9607  
      9476       9477       9488       9487       9597       9598       9609       9608  
      9477       9478       9489       9488       9598       9599       9610       9609  
      9478       9479       9490       9489       9599       9600       9611       9610  
      9479       9480       9491       9490       9600       9601       9612       9611  
      9480       9481       9492       9491       9601       9602       9613       9612  
      9481       9482       9493       9492       9602       9603       9614       9613  
      9483       9484       9495       9494       9604       9605       9616       9615  
      9484       9485       9496       9495       9605       9606       9617       9616  
      9485       9486       9497       9496       9606       9607       9618       9617  
      9486       9487       9498       9497       9607       9608       9619       9618  
      9487       9488       9499       9498       9608       9609       9620       9619  
      9488       9489       9500       9499       9609       9610       9621       9620  
      9489       9490       9501       9500       9610       9611       9622       9621  
      9490       9491       9502       9501       9611       9612       9623       9622  
      9491       9492       9503       9502       9612       9613       9624       9623  
      9492       9493       9504       9503       9613       9614       9625       9624  
      9494       9495       9506       9505       9615       9616       9627       9626  
      9495       9496       9507       9506       9616       9617       9628       9627  
      9496       9497       9508       9507       9617       9618       9629       9628  
      9497       9498       9509       9508       9618       9619       9630       9629  
      9498       9499       9510       9509       9619       9620       9631       9630  
      9499       9500       9511       9510       9620       9621       9632       9631  
      9500       9501       9512       9511       9621       9622       9633       9632  
      9501       9502       9513       9512       9622       9623       9634       9633  
      9502       9503       9514       9513       9623       9624       9635       9634  
      9503       9504       9515       9514       9624       9625       9636       9635  
      9505       9506       9517       9516       9626       9627       9638       9637  
      9506       9507       9518       9517       9627       9628       9639       9638  
      9507       9508       9519       9518       9628       9629       9640       9639  
      9508       9509       9520       9519       9629       9630       9641       9640  
      9509       9510       9521       9520       9630       9631       9642       9641  
      9510       9511       9522       9521       9631       9632       9643       9642  
      9511       9512       9523       9522       9632       9633       9644       9643  
      9512       9513       9524       9523       9633       9634       9645       9644  
      9513       9514       9525       9524       9634       9635       9646       9645  
      9514       9515       9526       9525       9635       9636       9647       9646  
      9516       9517       9528       9527       9637       9638       9649       9648  
      9517       9518       9529       9528       9638       9639       9650       9649  
      9518       9519       9530       9529       9639       9640       9651       9650  
      9519       9520       9531       9530       9640       9641       9652       9651  
      9520       9521       9532       9531       9641       9642       9653       9652  
      9521       9522       9533       9532       9642       9643       9654       9653  
      9522       9523       9534       9533       9643       9644       9655       9654  
      9523       9524       9535       9534       9644       9645       9656       9655  
      9524       9525       9536       9535       9645       9646       9657       9656  
      9525       9526       9537       9536       9646       9647       9658       9657  
      9527       9528       9539       9538       9648       9649       9660       9659  
      9528       9529       9540       9539       9649       9650       9661       9660  
      9529       9530       9541       9540       9650       9651       9662       9661  
      9530       9531       9542       9541       9651       9652       9663       9662  
      9531       9532       9543       9542       9652       9653       9664       9663  
      9532       9533       9544       9543       9653       9654       9665       9664  
      9533       9534       9545       9544       9654       9655       9666       9665  
      9534       9535       9546       9545       9655       9656       9667       9666  
      9535       9536       9547       9546       9656       9657       9668       9667  
      9536       9537       9548       9547       9657       9658       9669       9668  
      9538       9539       9550       9549       9659       9660       9671       9670  
      9539       9540       9551       9550       9660       9661       9672       9671  
      9540       9541       9552       9551       9661       9662       9673       9672  
      9541       9542       9553       9552       9662       9663       9674       9673  
      9542       9543       9554       9553       9663       9664       9675       9674  
      9543       9544       9555       9554       9664       9665       9676       9675  
      9544       9545       9556       9555       9665       9666       9677       9676  
      9545       9546       9557       9556       9666       9667       9678       9677  
      9546       9547       9558       9557       9667       9668       9679       9678  
      9547       9548       9559       9558       9668       9669       9680       9679  
      9560       9561       9572       9571       9681       9682       9693       9692  
      9561       9562       9573       9572       9682       9683       9694       9693  
      9562       9563       9574       9573       9683       9684       9695       9694  
      9563       9564       9575       9574       9684       9685       9696       9695  
      9564       9565       9576       9575       9685       9686       9697       9696  
      9565       9566       9577       9576       9686       9687       9698       9697  
      9566       9567       9578       9577       9687       9688       9699       9698  
      9567       9568       9579       9578       9688       9689       9700       9699  
      9568       9569       9580       9579       9689       9690       9701       9700  
      9569       9570       9581       9580       9690       9691       9702       9701  
      9571       9572       9583       9582       9692       9693       9704       9703  
      9572       9573       9584       9583       9693       9694       9705       9704  
      9573       9574       9585       9584       9694       9695       9706       9705  
      9574       9575       9586       9585       9695       9696       9707       9706  
      9575       9576       9587       9586       9696       9697       9708       9707  
      9576       9577       9588       9587       9697       9698       9709       9708  
      9577       9578       9589       9588       9698       9699       9710       9709  
      9578       9579       9590       9589       9699       9700       9711       9710  
      9579       9580       9591       9590       9700       9701       9712       9711  
      9580       9581       9592       9591       9701       9702       9713       9712  
      9582       9583       9594       9593       9703       9704       9715       9714  
      9583       9584       9595       9594       9704       9705       9716       9715  
      9584       9585       9596       9595       9705       9706       9717       9716  
      9585       9586       9597       9596       9706       9707       9718       9717  
      9586       9587       9598       9597       9707       9708       9719       9718  
      9587       9588       9599       9598       9708       9709       9720       9719  
      9588       9589       9600       9599       9709       9710       9721       9720  
      9589       9590       9601       9600       9710       9711       9722       9721  
      9590       9591       9602       9601       9711       9712       9723       9722  
      9591       9592       9603       9602       9712       9713       9724       9723  
      9593       9594       9605       9604       9714       9715       9726       9725  
      9594       9595       9606       9605       9715       9716       9727       9726  
      9595       9596       9607       9606       9716       9717       9728       9727  
      9596       9597       9608       9607       9717       9718       9729       9728  
      9597       9598       9609       9608       9718       9719       9730       9729  
      9598       9599       9610       9609       9719       9720       9731       9730  
      9599       9600       9611       9610       9720       9721       9732       9731  
      9600       9601       9612       9611       9721       9722       9733       9732  
      9601       9602       9613       9612       9722       9723       9734       9733  
      9602       9603       9614       9613       9723       9724       9735       9734  
      9604       9605       9616       9615       9725       9726       9737       9736  
      9605       9606       9617       9616       9726       9727       9738       9737  
      9606       9607       9618       9617       9727       9728       9739       9738  
      9607       9608       9619       9618       9728       9729       9740       9739  
      9608       9609       9620       9619       9729       9730       9741       9740  
      9609       9610       9621       9620       9730       9731       9742       9741  
      9610       9611       9622       9621       9731       9732       9743       9742  
      9611       9612       9623       9622       9732       9733       9744       9743  
      9612       9613       9624       9623       9733       9734       9745       9744  
      9613       9614       9625       9624       9734       9735       9746       9745  
      9615       9616       9627       9626       9736       9737       9748       9747  
      9616       9617       9628       9627       9737       9738       9749       9748  
      9617       9618       9629       9628       9738       9739       9750       9749  
      9618       9619       9630       9629       9739       9740       9751       9750  
      9619       9620       9631       9630       9740       9741       9752       9751  
      9620       9621       9632       9631       9741       9742       9753       9752  
      9621       9622       9633       9632       9742       9743       9754       9753  
      9622       9623       9634       9633       9743       9744       9755       9754  
      9623       9624       9635       9634       9744       9745       9756       9755  
      9624       9625       9636       9635       9745       9746       9757       9756  
      9626       9627       9638       9637       9747       9748       9759       9758  
      9627       9628       9639       9638       9748       9749       9760       9759  
      9628       9629       9640       9639       9749       9750       9761       9760  
      9629       9630       9641       9640       9750       9751       9762       9761  
      9630       9631       9642       9641       9751       9752       9763       9762  
      9631       9632       9643       9642       9752       9753       9764       9763  
      9632       9633       9644       9643       9753       9754       9765       9764  
      9633       9634       9645       9644       9754       9755       9766       9765  
      9634       9635       9646       9645       9755       9756       9767       9766  
      9635       9636       9647       9646       9756       9757       9768       9767  
      9637       9638       9649       9648       9758       9759       9770       9769  
      9638       9639       9650       9649       9759       9760       9771       9770  
      9639       9640       9651       9650       9760       9761       9772       9771  
      9640       9641       9652       9651       9761       9762       9773       9772  
      9641       9642       9653       9652       9762       9763       9774       9773  
      9642       9643       9654       9653       9763       9764       9775       9774  
      9643       9644       9655       9654       9764       9765       9776       9775  
      9644       9645       9656       9655       9765       9766       9777       9776  
      9645       9646       9657       9656       9766       9767       9778       9777  
      9646       9647       9658       9657       9767       9768       9779       9778  
      9648       9649       9660       9659       9769       9770       9781       9780  
      9649       9650       9661       9660       9770       9771       9782       9781  
      9650       9651       9662       9661       9771       9772       9783       9782  
      9651       9652       9663       9662       9772       9773       9784       9783  
      9652       9653       9664       9663       9773       9774       9785       9784  
      9653       9654       9665       9664       9774       9775       9786       9785  
      9654       9655       9666       9665       9775       9776       9787       9786  
      9655       9656       9667       9666       9776       9777       9788       9787  
      9656       9657       9668       9667       9777       9778       9789       9788  
      9657       9658       9669       9668       9778       9779       9790       9789  
      9659       9660       9671       9670       9780       9781       9792       9791  
      9660       9661       9672       9671       9781       9782       9793       9792  
      9661       9662       9673       9672       9782       9783       9794       9793  
      9662       9663       9674       9673       9783       9784       9795       9794  
      9663       9664       9675       9674       9784       9785       9796       9795  
      9664       9665       9676       9675       9785       9786       9797       9796  
      9665       9666       9677       9676       9786       9787       9798       9797  
      9666       9667       9678       9677       9787       9788       9799       9798  
      9667       9668       9679       9678       9788       9789       9800       9799  
      9668       9669       9680       9679       9789       9790       9801       9800  
      9681       9682       9693       9692       9802       9803       9814       9813  
      9682       9683       9694       9693       9803       9804       9815       9814  
      9683       9684       9695       9694       9804       9805       9816       9815  
      9684       9685       9696       9695       9805       9806       9817       9816  
      9685       9686       9697       9696       9806       9807       9818       9817  
      9686       9687       9698       9697       9807       9808       9819       9818  
      9687       9688       9699       9698       9808       9809       9820       9819  
      9688       9689       9700       9699       9809       9810       9821       9820  
      9689       9690       9701       9700       9810       9811       9822       9821  
      9690       9691       9702       9701       9811       9812       9823       9822  
      9692       9693       9704       9703       9813       9814       9825       9824  
      9693       9694       9705       9704       9814       9815       9826       9825  
      9694       9695       9706       9705       9815       9816       9827       9826  
      9695       9696       9707       9706       9816       9817       9828       9827  
      9696       9697       9708       9707       9817       9818       9829       9828  
      9697       9698       9709       9708       9818       9819       9830       9829  
      9698       9699       9710       9709       9819       9820       9831       9830  
      9699       9700       9711       9710       9820       9821       9832       9831  
      9700       9701       9712       9711       9821       9822       9833       9832  
      9701       9702       9713       9712       9822       9823       9834       9833  
      9703       9704       9715       9714       9824       9825       9836       9835  
      9704       9705       9716       9715       9825       9826       9837       9836  
      9705       9706       9717       9716       9826       9827       9838       9837  
      9706       9707       9718       9717       9827       9828       9839       9838  
      9707       9708       9719       9718       9828       9829       9840       9839  
      9708       9709       9720       9719       9829       9830       9841       9840  
      9709       9710       9721       9720       9830       9831       9842       9841  
      9710       9711       9722       9721       9831       9832       9843       9842  
      9711       9712       9723       9722       9832       9833       9844       9843  
      9712       9713       9724       9723       9833       9834       9845       9844  
      9714       9715       9726       9725       9835       9836       9847       9846  
      9715       9716       9727       9726       9836       9837       9848       9847  
      9716       9717       9728       9727       9837       9838       9849       9848  
      9717       9718       9729       9728       9838       9839       9850       9849  
      9718       9719       9730       9729       9839       9840       9851       9850  
      9719       9720       9731       9730       9840       9841       9852       9851  
      9720       9721       9732       9731       9841       9842       9853       9852  
      9721       9722       9733       9732       9842       9843       9854       9853  
      9722       9723       9734       9733       9843       9844       9855       9854  
      9723       9724       9735       9734       9844       9845       9856       9855  
      9725       9726       9737       9736       9846       9847       9858       9857  
      9726       9727       9738       9737       9847       9848       9859       9858  
      9727       9728       9739       9738       9848       9849       9860       9859  
      9728       9729       9740       9739       9849       9850       9861       9860  
      9729       9730       9741       9740       9850       9851       9862       9861  
      9730       9731       9742       9741       9851       9852       9863       9862  
      9731       9732       9743       9742       9852       9853       9864       9863  
      9732       9733       9744       9743       9853       9854       9865       9864  
      9733       9734       9745       9744       9854       9855       9866       9865  
      9734       9735       9746       9745       9855       9856       9867       9866  
      9736       9737       9748       9747       9857       9858       9869       9868  
      9737       9738       9749       9748       9858       9859       9870       9869  
      9738       9739       9750       9749       9859       9860       9871       9870  
      9739       9740       9751       9750       9860       9861       9872       9871  
      9740       9741       9752       9751       9861       9862       9873       9872  
      9741       9742       9753       9752       9862       9863       9874       9873  
      9742       9743       9754       9753       9863       9864       9875       9874  
      9743       9744       9755       9754       9864       9865       9876       9875  
      9744       9745       9756       9755       9865       9866       9877       9876  
      9745       9746       9757       9756       9866       9867       9878       9877  
      9747       9748       9759       9758       9868       9869       9880       9879  
      9748       9749       9760       9759       9869       9870       9881       9880  
      9749       9750       9761       9760       9870       9871       9882       9881  
      9750       9751       9762       9761       9871       9872       9883       9882  
      9751       9752       9763       9762       9872       9873       9884       9883  
      9752       9753       9764       9763       9873       9874       9885       9884  
      9753       9754       9765       9764       9874       9875       9886       9885  
      9754       9755       9766       9765       9875       9876       9887       9886  
      9755       9756       9767       9766       9876       9877       9888       9887  
      9756       9757       9768       9767       9877       9878       9889       9888  
      9758       9759       9770       9769       9879       9880       9891       9890  
      9759       9760       9771       9770       9880       9881       9892       9891  
      9760       9761       9772       9771       9881       9882       9893       9892  
      9761       9762       9773       9772       9882       9883       9894       9893  
      9762       9763       9774       9773       9883       9884       9895       9894  
      9763       9764       9775       9774       9884       9885       9896       9895  
      9764       9765       9776       9775       9885       9886       9897       9896  
      9765       9766       9777       9776       9886       9887       9898       9897  
      9766       9767       9778       9777       9887       9888       9899       9898  
      9767       9768       9779       9778       9888       9889       9900       9899  
      9769       9770       9781       9780       9890       9891       9902       9901  
      9770       9771       9782       9781       9891       9892       9903       9902  
      9771       9772       9783       9782       9892       9893       9904       9903  
      9772       9773       9784       9783       9893       9894       9905       9904  
      9773       9774       9785       9784       9894       9895       9906       9905  
      9774       9775       9786       9785       9895       9896       9907       9906  
      9775       9776       9787       9786       9896       9897       9908       9907  
      9776       9777       9788       9787       9897       9898       9909       9908  
      9777       9778       9789       9788       9898       9899       9910       9909  
      9778       9779       9790       9789       9899       9900       9911       9910  
      9780       9781       9792       9791       9901       9902       9913       9912  
      9781       9782       9793       9792       9902       9903       9914       9913  
      9782       9783       9794       9793       9903       9904       9915       9914  
      9783       9784       9795       9794       9904       9905       9916       9915  
      9784       9785       9796       9795       9905       9906       9917       9916  
      9785       9786       9797       9796       9906       9907       9918       9917  
      9786       9787       9798       9797       9907       9908       9919       9918  
      9787       9788       9799       9798       9908       9909       9920       9919  
      9788       9789       9800       9799       9909       9910       9921       9920  
      9789       9790       9801       9800       9910       9911       9922       9921  
      9802       9803       9814       9813       9923       9924       9935       9934  
      9803       9804       9815       9814       9924       9925       9936       9935  
      9804       9805       9816       9815       9925       9926       9937       9936  
      9805       9806       9817       9816       9926       9927       9938       9937  
      9806       9807       9818       9817       9927       9928       9939       9938  
      9807       9808       9819       9818       9928       9929       9940       9939  
      9808       9809       9820       9819       9929       9930       9941       9940  
      9809       9810       9821       9820       9930       9931       9942       9941  
      9810       9811       9822       9821       9931       9932       9943       9942  
      9811       9812       9823       9822       9932       9933       9944       9943  
      9813       9814       9825       9824       9934       9935       9946       9945  
      9814       9815       9826       9825       9935       9936       9947       9946  
      9815       9816       9827       9826       9936       9937       9948       9947  
      9816       9817       9828       9827       9937       9938       9949       9948  
      9817       9818       9829       9828       9938       9939       9950       9949  
      9818       9819       9830       9829       9939       9940       9951       9950  
      9819       9820       9831       9830       9940       9941       9952       9951  
      9820       9821       9832       9831       9941       9942       9953       9952  
      9821       9822       9833       9832       9942       9943       9954       9953  
      9822       9823       9834       9833       9943       9944       9955       9954  
      9824       9825       9836       9835       9945       9946       9957       9956  
      9825       9826       9837       9836       9946       9947       9958       9957  
      9826       9827       9838       9837       9947       9948       9959       9958  
      9827       9828       9839       9838       9948       9949       9960       9959  
      9828       9829       9840       9839       9949       9950       9961       9960  
      9829       9830       9841       9840       9950       9951       9962       9961  
      9830       9831       9842       9841       9951       9952       9963       9962  
      9831       9832       9843       9842       9952       9953       9964       9963  
      9832       9833       9844       9843       9953       9954       9965       9964  
      9833       9834       9845       9844       9954       9955       9966       9965  
      9835       9836       9847       9846       9956       9957       9968       9967  
      9836       9837       9848       9847       9957       9958       9969       9968  
      9837       9838       9849       9848       9958       9959       9970       9969  
      9838       9839       9850       9849       9959       9960       9971       9970  
      9839       9840       9851       9850       9960       9961       9972       9971  
      9840       9841       9852       9851       9961       9962       9973       9972  
      9841       9842       9853       9852       9962       9963       9974       9973  
      9842       9843       9854       9853       9963       9964       9975       9974  
      9843       9844       9855       9854       9964       9965       9976       9975  
      9844       9845       9856       9855       9965       9966       9977       9976  
      9846       9847       9858       9857       9967       9968       9979       9978  
      9847       9848       9859       9858       9968       9969       9980       9979  
      9848       9849       9860       9859       9969       9970       9981       9980  
      9849       9850       9861       9860       9970       9971       9982       9981  
      9850       9851       9862       9861       9971       9972       9983       9982  
      9851       9852       9863       9862       9972       9973       9984       9983  
      9852       9853       9864       9863       9973       9974       9985       9984  
      9853       9854       9865       9864       9974       9975       9986       9985  
      9854       9855       9866       9865       9975       9976       9987       9986  
      9855       9856       9867       9866       9976       9977       9988       9987  
      9857       9858       9869       9868       9978       9979       9990       9989  
      9858       9859       9870       9869       9979       9980       9991       9990  
      9859       9860       9871       9870       9980       9981       9992       9991  
      9860       9861       9872       9871       9981       9982       9993       9992  
      9861       9862       9873       9872       9982       9983       9994       9993  
      9862       9863       9874       9873       9983       9984       9995       9994  
      9863       9864       9875       9874       9984       9985       9996       9995  
      9864       9865       9876       9875       9985       9986       9997       9996  
      9865       9866       9877       9876       9986       9987       9998       9997  
      9866       9867       9878       9877       9987       9988       9999       9998  
      9868       9869       9880       9879       9989       9990      10001      10000  
      9869       9870       9881       9880       9990       9991      10002      10001  
      9870       9871       9882       9881       9991       9992      10003      10002  
      9871       9872       9883       9882       9992       9993      10004      10003  
      9872       9873       9884       9883       9993       9994      10005      10004  
      9873       9874       9885       9884       9994       9995      10006      10005  
      9874       9875       9886       9885       9995       9996      10007      10006  
      9875       9876       9887       9886       9996       9997      10008      10007  
      9876       9877       9888       9887       9997       9998      10009      10008  
      9877       9878       9889       9888       9998       9999      10010      10009  
      9879       9880       9891       9890      10000      10001      10012      10011  
      9880       9881       9892       9891      10001      10002      10013      10012  
      9881       9882       9893       9892      10002      10003      10014      10013  
      9882       9883       9894       9893      10003      10004      10015      10014  
      9883       9884       9895       9894      10004      10005      10016      10015  
      9884       9885       9896       9895      10005      10006      10017      10016  
      9885       9886       9897       9896      10006      10007      10018      10017  
      9886       9887       9898       9897      10007      10008      10019      10018  
      9887       9888       9899       9898      10008      10009      10020      10019  
      9888       9889       9900       9899      10009      10010      10021      10020  
      9890       9891       9902       9901      10011      10012      10023      10022  
      9891       9892       9903       9902      10012      10013      10024      10023  
      9892       9893       9904       9903      10013      10014      10025      10024  
      9893       9894       9905       9904      10014      10015      10026      10025  
      9894       9895       9906       9905      10015      10016      10027      10026  
      9895       9896       9907       9906      10016      10017      10028      10027  
      9896       9897       9908       9907      10017      10018      10029      10028  
      9897       9898       9909       9908      10018      10019      10030      10029  
      9898       9899       9910       9909      10019      10020      10031      10030  
      9899       9900       9911       9910      10020      10021      10032      10031  
      9901       9902       9913       9912      10022      10023      10034      10033  
      9902       9903       9914       9913      10023      10024      10035      10034  
      9903       9904       9915       9914      10024      10025      10036      10035  
      9904       9905       9916       9915      10025      10026      10037      10036  
      9905       9906       9917       9916      10026      10027      10038      10037  
      9906       9907       9918       9917      10027      10028      10039      10038  
      9907       9908       9919       9918      10028      10029      10040      10039  
      9908       9909       9920       9919      10029      10030      10041      10040  
      9909       9910       9921       9920      10030      10031      10042      10041  
      9910       9911       9922       9921      10031      10032      10043      10042  
      9923       9924       9935       9934      10044      10045      10056      10055  
      9924       9925       9936       9935      10045      10046      10057      10056  
      9925       9926       9937       9936      10046      10047      10058      10057  
      9926       9927       9938       9937      10047      10048      10059      10058  
      9927       9928       9939       9938      10048      10049      10060      10059  
      9928       9929       9940       9939      10049      10050      10061      10060  
      9929       9930       9941       9940      10050      10051      10062      10061  
      9930       9931       9942       9941      10051      10052      10063      10062  
      9931       9932       9943       9942      10052      10053      10064      10063  
      9932       9933       9944       9943      10053      10054      10065      10064  
      9934       9935       9946       9945      10055      10056      10067      10066  
      9935       9936       9947       9946      10056      10057      10068      10067  
      9936       9937       9948       9947      10057      10058      10069      10068  
      9937       9938       9949       9948      10058      10059      10070      10069  
      9938       9939       9950       9949      10059      10060      10071      10070  
      9939       9940       9951       9950      10060      10061      10072      10071  
      9940       9941       9952       9951      10061      10062      10073      10072  
      9941       9942       9953       9952      10062      10063      10074      10073  
      9942       9943       9954       9953      10063      10064      10075      10074  
      9943       9944       9955       9954      10064      10065      10076      10075  
      9945       9946       9957       9956      10066      10067      10078      10077  
      9946       9947       9958       9957      10067      10068      10079      10078  
      9947       9948       9959       9958      10068      10069      10080      10079  
      9948       9949       9960       9959      10069      10070      10081      10080  
      9949       9950       9961       9960      10070      10071      10082      10081  
      9950       9951       9962       9961      10071      10072      10083      10082  
      9951       9952       9963       9962      10072      10073      10084      10083  
      9952       9953       9964       9963      10073      10074      10085      10084  
      9953       9954       9965       9964      10074      10075      10086      10085  
      9954       9955       9966       9965      10075      10076      10087      10086  
      9956       9957       9968       9967      10077      10078      10089      10088  
      9957       9958       9969       9968      10078      10079      10090      10089  
      9958       9959       9970       9969      10079      10080      10091      10090  
      9959       9960       9971       9970      10080      10081      10092      10091  
      9960       9961       9972       9971      10081      10082      10093      10092  
      9961       9962       9973       9972      10082      10083      10094      10093  
      9962       9963       9974       9973      10083      10084      10095      10094  
      9963       9964       9975       9974      10084      10085      10096      10095  
      9964       9965       9976       9975      10085      10086      10097      10096  
      9965       9966       9977       9976      10086      10087      10098      10097  
      9967       9968       9979       9978      10088      10089      10100      10099  
      9968       9969       9980       9979      10089      10090      10101      10100  
      9969       9970       9981       9980      10090      10091      10102      10101  
      9970       9971       9982       9981      10091      10092      10103      10102  
      9971       9972       9983       9982      10092      10093      10104      10103  
      9972       9973       9984       9983      10093      10094      10105      10104  
      9973       9974       9985       9984      10094      10095      10106      10105  
      9974       9975       9986       9985      10095      10096      10107      10106  
      9975       9976       9987       9986      10096      10097      10108      10107  
      9976       9977       9988       9987      10097      10098      10109      10108  
      9978       9979       9990       9989      10099      10100      10111      10110  
      9979       9980       9991       9990      10100      10101      10112      10111  
      9980       9981       9992       9991      10101      10102      10113      10112  
      9981       9982       9993       9992      10102      10103      10114      10113  
      9982       9983       9994       9993      10103      10104      10115      10114  
      9983       9984       9995       9994      10104      10105      10116      10115  
      9984       9985       9996       9995      10105      10106      10117      10116  
      9985       9986       9997       9996      10106      10107      10118      10117  
      9986       9987       9998       9997      10107      10108      10119      10118  
      9987       9988       9999       9998      10108      10109      10120      10119  
      9989       9990      10001      10000      10110      10111      10122      10121  
      9990       9991      10002      10001      10111      10112      10123      10122  
      9991       9992      10003      10002      10112      10113      10124      10123  
      9992       9993      10004      10003      10113      10114      10125      10124  
      9993       9994      10005      10004      10114      10115      10126      10125  
      9994       9995      10006      10005      10115      10116      10127      10126  
      9995       9996      10007      10006      10116      10117      10128      10127  
      9996       9997      10008      10007      10117      10118      10129      10128  
      9997       9998      10009      10008      10118      10119      10130      10129  
      9998       9999      10010      10009      10119      10120      10131      10130  
     10000      10001      10012      10011      10121      10122      10133      10132  
     10001      10002      10013      10012      10122      10123      10134      10133  
     10002      10003      10014      10013      10123      10124      10135      10134  
     10003      10004      10015      10014      10124      10125      10136      10135  
     10004      10005      10016      10015      10125      10126      10137      10136  
     10005      10006      10017      10016      10126      10127      10138      10137  
     10006      10007      10018      10017      10127      10128      10139      10138  
     10007      10008      10019      10018      10128      10129      10140      10139  
     10008      10009      10020      10019      10129      10130      10141      10140  
     10009      10010      10021      10020      10130      10131      10142      10141  
     10011      10012      10023      10022      10132      10133      10144      10143  
     10012      10013      10024      10023      10133      10134      10145      10144  
     10013      10014      10025      10024      10134      10135      10146      10145  
     10014      10015      10026      10025      10135      10136      10147      10146  
     10015      10016      10027      10026      10136      10137      10148      10147  
     10016      10017      10028      10027      10137      10138      10149      10148  
     10017      10018      10029      10028      10138      10139      10150      10149  
     10018      10019      10030      10029      10139      10140      10151      10150  
     10019      10020      10031      10030      10140      10141      10152      10151  
     10020      10021      10032      10031      10141      10142      10153      10152  
     10022      10023      10034      10033      10143      10144      10155      10154  
     10023      10024      10035      10034      10144      10145      10156      10155  
     10024      10025      10036      10035      10145      10146      10157      10156  
     10025      10026      10037      10036      10146      10147      10158      10157  
     10026      10027      10038      10037      10147      10148      10159      10158  
     10027      10028      10039      10038      10148      10149      10160      10159  
     10028      10029      10040      10039      10149      10150      10161      10160  
     10029      10030      10041      10040      10150      10151      10162      10161  
     10030      10031      10042      10041      10151      10152      10163      10162  
     10031      10032      10043      10042      10152      10153      10164      10163  
     10044      10045      10056      10055      10165      10166      10177      10176  
     10045      10046      10057      10056      10166      10167      10178      10177  
     10046      10047      10058      10057      10167      10168      10179      10178  
     10047      10048      10059      10058      10168      10169      10180      10179  
     10048      10049      10060      10059      10169      10170      10181      10180  
     10049      10050      10061      10060      10170      10171      10182      10181  
     10050      10051      10062      10061      10171      10172      10183      10182  
     10051      10052      10063      10062      10172      10173      10184      10183  
     10052      10053      10064      10063      10173      10174      10185      10184  
     10053      10054      10065      10064      10174      10175      10186      10185  
     10055      10056      10067      10066      10176      10177      10188      10187  
     10056      10057      10068      10067      10177      10178      10189      10188  
     10057      10058      10069      10068      10178      10179      10190      10189  
     10058      10059      10070      10069      10179      10180      10191      10190  
     10059      10060      10071      10070      10180      10181      10192      10191  
     10060      10061      10072      10071      10181      10182      10193      10192  
     10061      10062      10073      10072      10182      10183      10194      10193  
     10062      10063      10074      10073      10183      10184      10195      10194  
     10063      10064      10075      10074      10184      10185      10196      10195  
     10064      10065      10076      10075      10185      10186      10197      10196  
     10066      10067      10078      10077      10187      10188      10199      10198  
     10067      10068      10079      10078      10188      10189      10200      10199  
     10068      10069      10080      10079      10189      10190      10201      10200  
     10069      10070      10081      10080      10190      10191      10202      10201  
     10070      10071      10082      10081      10191      10192      10203      10202  
     10071      10072      10083      10082      10192      10193      10204      10203  
     10072      10073      10084      10083      10193      10194      10205      10204  
     10073      10074      10085      10084      10194      10195      10206      10205  
     10074      10075      10086      10085      10195      10196      10207      10206  
     10075      10076      10087      10086      10196      10197      10208      10207  
     10077      10078      10089      10088      10198      10199      10210      10209  
     10078      10079      10090      10089      10199      10200      10211      10210  
     10079      10080      10091      10090      10200      10201      10212      10211  
     10080      10081      10092      10091      10201      10202      10213      10212  
     10081      10082      10093      10092      10202      10203      10214      10213  
     10082      10083      10094      10093      10203      10204      10215      10214  
     10083      10084      10095      10094      10204      10205      10216      10215  
     10084      10085      10096      10095      10205      10206      10217      10216  
     10085      10086      10097      10096      10206      10207      10218      10217  
     10086      10087      10098      10097      10207      10208      10219      10218  
     10088      10089      10100      10099      10209      10210      10221      10220  
     10089      10090      10101      10100      10210      10211      10222      10221  
     10090      10091      10102      10101      10211      10212      10223      10222  
     10091      10092      10103      10102      10212      10213      10224      10223  
     10092      10093      10104      10103      10213      10214      10225      10224  
     10093      10094      10105      10104      10214      10215      10226      10225  
     10094      10095      10106      10105      10215      10216      10227      10226  
     10095      10096      10107      10106      10216      10217      10228      10227  
     10096      10097      10108      10107      10217      10218      10229      10228  
     10097      10098      10109      10108      10218      10219      10230      10229  
     10099      10100      10111      10110      10220      10221      10232      10231  
     10100      10101      10112      10111      10221      10222      10233      10232  
     10101      10102      10113      10112      10222      10223      10234      10233  
     10102      10103      10114      10113      10223      10224      10235      10234  
     10103      10104      10115      10114      10224      10225      10236      10235  
     10104      10105      10116      10115      10225      10226      10237      10236  
     10105      10106      10117      10116      10226      10227      10238      10237  
     10106      10107      10118      10117      10227      10228      10239      10238  
     10107      10108      10119      10118      10228      10229      10240      10239  
     10108      10109      10120      10119      10229      10230      10241      10240  
     10110      10111      10122      10121      10231      10232      10243      10242  
     10111      10112      10123      10122      10232      10233      10244      10243  
     10112      10113      10124      10123      10233      10234      10245      10244  
     10113      10114      10125      10124      10234      10235      10246      10245  
     10114      10115      10126      10125      10235      10236      10247      10246  
     10115      10116      10127      10126      10236      10237      10248      10247  
     10116      10117      10128      10127      10237      10238      10249      10248  
     10117      10118      10129      10128      10238      10239      10250      10249  
     10118      10119      10130      10129      10239      10240      10251      10250  
     10119      10120      10131      10130      10240      10241      10252      10251  
     10121      10122      10133      10132      10242      10243      10254      10253  
     10122      10123      10134      10133      10243      10244      10255      10254  
     10123      10124      10135      10134      10244      10245      10256      10255  
     10124      10125      10136      10135      10245      10246      10257      10256  
     10125      10126      10137      10136      10246      10247      10258      10257  
     10126      10127      10138      10137      10247      10248      10259      10258  
     10127      10128      10139      10138      10248      10249      10260      10259  
     10128      10129      10140      10139      10249      10250      10261      10260  
     10129      10130      10141      10140      10250      10251      10262      10261  
     10130      10131      10142      10141      10251      10252      10263      10262  
     10132      10133      10144      10143      10253      10254      10265      10264  
     10133      10134      10145      10144      10254      10255      10266      10265  
     10134      10135      10146      10145      10255      10256      10267      10266  
     10135      10136      10147      10146      10256      10257      10268      10267  
     10136      10137      10148      10147      10257      10258      10269      10268  
     10137      10138      10149      10148      10258      10259      10270      10269  
     10138      10139      10150      10149      10259      10260      10271      10270  
     10139      10140      10151      10150      10260      10261      10272      10271  
     10140      10141      10152      10151      10261      10262      10273      10272  
     10141      10142      10153      10152      10262      10263      10274      10273  
     10143      10144      10155      10154      10264      10265      10276      10275  
     10144      10145      10156      10155      10265      10266      10277      10276  
     10145      10146      10157      10156      10266      10267      10278      10277  
     10146      10147      10158      10157      10267      10268      10279      10278  
     10147      10148      10159      10158      10268      10269      10280      10279  
     10148      10149      10160      10159      10269      10270      10281      10280  
     10149      10150      10161      10160      10270      10271      10282      10281  
     10150      10151      10162      10161      10271      10272      10283      10282  
     10151      10152      10163      10162      10272      10273      10284      10283  
     10152      10153      10164      10163      10273      10274      10285      10284  
     10165      10166      10177      10176      10286      10287      10298      10297  
     10166      10167      10178      10177      10287      10288      10299      10298  
     10167      10168      10179      10178      10288      10289      10300      10299  
     10168      10169      10180      10179      10289      10290      10301      10300  
     10169      10170      10181      10180      10290      10291      10302      10301  
     10170      10171      10182      10181      10291      10292      10303      10302  
     10171      10172      10183      10182      10292      10293      10304      10303  
     10172      10173      10184      10183      10293      10294      10305      10304  
     10173      10174      10185      10184      10294      10295      10306      10305  
     10174      10175      10186      10185      10295      10296      10307      10306  
     10176      10177      10188      10187      10297      10298      10309      10308  
     10177      10178      10189      10188      10298      10299      10310      10309  
     10178      10179      10190      10189      10299      10300      10311      10310  
     10179      10180      10191      10190      10300      10301      10312      10311  
     10180      10181      10192      10191      10301      10302      10313      10312  
     10181      10182      10193      10192      10302      10303      10314      10313  
     10182      10183      10194      10193      10303      10304      10315      10314  
     10183      10184      10195      10194      10304      10305      10316      10315  
     10184      10185      10196      10195      10305      10306      10317      10316  
     10185      10186      10197      10196      10306      10307      10318      10317  
     10187      10188      10199      10198      10308      10309      10320      10319  
     10188      10189      10200      10199      10309      10310      10321      10320  
     10189      10190      10201      10200      10310      10311      10322      10321  
     10190      10191      10202      10201      10311      10312      10323      10322  
     10191      10192      10203      10202      10312      10313      10324      10323  
     10192      10193      10204      10203      10313      10314      10325      10324  
     10193      10194      10205      10204      10314      10315      10326      10325  
     10194      10195      10206      10205      10315      10316      10327      10326  
     10195      10196      10207      10206      10316      10317      10328      10327  
     10196      10197      10208      10207      10317      10318      10329      10328  
     10198      10199      10210      10209      10319      10320      10331      10330  
     10199      10200      10211      10210      10320      10321      10332      10331  
     10200      10201      10212      10211      10321      10322      10333      10332  
     10201      10202      10213      10212      10322      10323      10334      10333  
     10202      10203      10214      10213      10323      10324      10335      10334  
     10203      10204      10215      10214      10324      10325      10336      10335  
     10204      10205      10216      10215      10325      10326      10337      10336  
     10205      10206      10217      10216      10326      10327      10338      10337  
     10206      10207      10218      10217      10327      10328      10339      10338  
     10207      10208      10219      10218      10328      10329      10340      10339  
     10209      10210      10221      10220      10330      10331      10342      10341  
     10210      10211      10222      10221      10331      10332      10343      10342  
     10211      10212      10223      10222      10332      10333      10344      10343  
     10212      10213      10224      10223      10333      10334      10345      10344  
     10213      10214      10225      10224      10334      10335      10346      10345  
     10214      10215      10226      10225      10335      10336      10347      10346  
     10215      10216      10227      10226      10336      10337      10348      10347  
     10216      10217      10228      10227      10337      10338      10349      10348  
     10217      10218      10229      10228      10338      10339      10350      10349  
     10218      10219      10230      10229      10339      10340      10351      10350  
     10220      10221      10232      10231      10341      10342      10353      10352  
     10221      10222      10233      10232      10342      10343      10354      10353  
     10222      10223      10234      10233      10343      10344      10355      10354  
     10223      10224      10235      10234      10344      10345      10356      10355  
     10224      10225      10236      10235      10345      10346      10357      10356  
     10225      10226      10237      10236      10346      10347      10358      10357  
     10226      10227      10238      10237      10347      10348      10359      10358  
     10227      10228      10239      10238      10348      10349      10360      10359  
     10228      10229      10240      10239      10349      10350      10361      10360  
     10229      10230      10241      10240      10350      10351      10362      10361  
     10231      10232      10243      10242      10352      10353      10364      10363  
     10232      10233      10244      10243      10353      10354      10365      10364  
     10233      10234      10245      10244      10354      10355      10366      10365  
     10234      10235      10246      10245      10355      10356      10367      10366  
     10235      10236      10247      10246      10356      10357      10368      10367  
     10236      10237      10248      10247      10357      10358      10369      10368  
     10237      10238      10249      10248      10358      10359      10370      10369  
     10238      10239      10250      10249      10359      10360      10371      10370  
     10239      10240      10251      10250      10360      10361      10372      10371  
     10240      10241      10252      10251      10361      10362      10373      10372  
     10242      10243      10254      10253      10363      10364      10375      10374  
     10243      10244      10255      10254      10364      10365      10376      10375  
     10244      10245      10256      10255      10365      10366      10377      10376  
     10245      10246      10257      10256      10366      10367      10378      10377  
     10246      10247      10258      10257      10367      10368      10379      10378  
     10247      10248      10259      10258      10368      10369      10380      10379  
     10248      10249      10260      10259      10369      10370      10381      10380  
     10249      10250      10261      10260      10370      10371      10382      10381  
     10250      10251      10262      10261      10371      10372      10383      10382  
     10251      10252      10263      10262      10372      10373      10384      10383  
     10253      10254      10265      10264      10374      10375      10386      10385  
     10254      10255      10266      10265      10375      10376      10387      10386  
     10255      10256      10267      10266      10376      10377      10388      10387  
     10256      10257      10268      10267      10377      10378      10389      10388  
     10257      10258      10269      10268      10378      10379      10390      10389  
     10258      10259      10270      10269      10379      10380      10391      10390  
     10259      10260      10271      10270      10380      10381      10392      10391  
     10260      10261      10272      10271      10381      10382      10393      10392  
     10261      10262      10273      10272      10382      10383      10394      10393  
     10262      10263      10274      10273      10383      10384      10395      10394  
     10264      10265      10276      10275      10385      10386      10397      10396  
     10265      10266      10277      10276      10386      10387      10398      10397  
     10266      10267      10278      10277      10387      10388      10399      10398  
     10267      10268      10279      10278      10388      10389      10400      10399  
     10268      10269      10280      10279      10389      10390      10401      10400  
     10269      10270      10281      10280      10390      10391      10402      10401  
     10270      10271      10282      10281      10391      10392      10403      10402  
     10271      10272      10283      10282      10392      10393      10404      10403  
     10272      10273      10284      10283      10393      10394      10405      10404  
     10273      10274      10285      10284      10394      10395      10406      10405  
     10286      10287      10298      10297      10407      10408      10419      10418  
     10287      10288      10299      10298      10408      10409      10420      10419  
     10288      10289      10300      10299      10409      10410      10421      10420  
     10289      10290      10301      10300      10410      10411      10422      10421  
     10290      10291      10302      10301      10411      10412      10423      10422  
     10291      10292      10303      10302      10412      10413      10424      10423  
     10292      10293      10304      10303      10413      10414      10425      10424  
     10293      10294      10305      10304      10414      10415      10426      10425  
     10294      10295      10306      10305      10415      10416      10427      10426  
     10295      10296      10307      10306      10416      10417      10428      10427  
     10297      10298      10309      10308      10418      10419      10430      10429  
     10298      10299      10310      10309      10419      10420      10431      10430  
     10299      10300      10311      10310      10420      10421      10432      10431  
     10300      10301      10312      10311      10421      10422      10433      10432  
     10301      10302      10313      10312      10422      10423      10434      10433  
     10302      10303      10314      10313      10423      10424      10435      10434  
     10303      10304      10315      10314      10424      10425      10436      10435  
     10304      10305      10316      10315      10425      10426      10437      10436  
     10305      10306      10317      10316      10426      10427      10438      10437  
     10306      10307      10318      10317      10427      10428      10439      10438  
     10308      10309      10320      10319      10429      10430      10441      10440  
     10309      10310      10321      10320      10430      10431      10442      10441  
     10310      10311      10322      10321      10431      10432      10443      10442  
     10311      10312      10323      10322      10432      10433      10444      10443  
     10312      10313      10324      10323      10433      10434      10445      10444  
     10313      10314      10325      10324      10434      10435      10446      10445  
     10314      10315      10326      10325      10435      10436      10447      10446  
     10315      10316      10327      10326      10436      10437      10448      10447  
     10316      10317      10328      10327      10437      10438      10449      10448  
     10317      10318      10329      10328      10438      10439      10450      10449  
     10319      10320      10331      10330      10440      10441      10452      10451  
     10320      10321      10332      10331      10441      10442      10453      10452  
     10321      10322      10333      10332      10442      10443      10454      10453  
     10322      10323      10334      10333      10443      10444      10455      10454  
     10323      10324      10335      10334      10444      10445      10456      10455  
     10324      10325      10336      10335      10445      10446      10457      10456  
     10325      10326      10337      10336      10446      10447      10458      10457  
     10326      10327      10338      10337      10447      10448      10459      10458  
     10327      10328      10339      10338      10448      10449      10460      10459  
     10328      10329      10340      10339      10449      10450      10461      10460  
     10330      10331      10342      10341      10451      10452      10463      10462  
     10331      10332      10343      10342      10452      10453      10464      10463  
     10332      10333      10344      10343      10453      10454      10465      10464  
     10333      10334      10345      10344      10454      10455      10466      10465  
     10334      10335      10346      10345      10455      10456      10467      10466  
     10335      10336      10347      10346      10456      10457      10468      10467  
     10336      10337      10348      10347      10457      10458      10469      10468  
     10337      10338      10349      10348      10458      10459      10470      10469  
     10338      10339      10350      10349      10459      10460      10471      10470  
     10339      10340      10351      10350      10460      10461      10472      10471  
     10341      10342      10353      10352      10462      10463      10474      10473  
     10342      10343      10354      10353      10463      10464      10475      10474  
     10343      10344      10355      10354      10464      10465      10476      10475  
     10344      10345      10356      10355      10465      10466      10477      10476  
     10345      10346      10357      10356      10466      10467      10478      10477  
     10346      10347      10358      10357      10467      10468      10479      10478  
     10347      10348      10359      10358      10468      10469      10480      10479  
     10348      10349      10360      10359      10469      10470      10481      10480  
     10349      10350      10361      10360      10470      10471      10482      10481  
     10350      10351      10362      10361      10471      10472      10483      10482  
     10352      10353      10364      10363      10473      10474      10485      10484  
     10353      10354      10365      10364      10474      10475      10486      10485  
     10354      10355      10366      10365      10475      10476      10487      10486  
     10355      10356      10367      10366      10476      10477      10488      10487  
     10356      10357      10368      10367      10477      10478      10489      10488  
     10357      10358      10369      10368      10478      10479      10490      10489  
     10358      10359      10370      10369      10479      10480      10491      10490  
     10359      10360      10371      10370      10480      10481      10492      10491  
     10360      10361      10372      10371      10481      10482      10493      10492  
     10361      10362      10373      10372      10482      10483      10494      10493  
     10363      10364      10375      10374      10484      10485      10496      10495  
     10364      10365      10376      10375      10485      10486      10497      10496  
     10365      10366      10377      10376      10486      10487      10498      10497  
     10366      10367      10378      10377      10487      10488      10499      10498  
     10367      10368      10379      10378      10488      10489      10500      10499  
     10368      10369      10380      10379      10489      10490      10501      10500  
     10369      10370      10381      10380      10490      10491      10502      10501  
     10370      10371      10382      10381      10491      10492      10503      10502  
     10371      10372      10383      10382      10492      10493      10504      10503  
     10372      10373      10384      10383      10493      10494      10505      10504  
     10374      10375      10386      10385      10495      10496      10507      10506  
     10375      10376      10387      10386      10496      10497      10508      10507  
     10376      10377      10388      10387      10497      10498      10509      10508  
     10377      10378      10389      10388      10498      10499      10510      10509  
     10378      10379      10390      10389      10499      10500      10511      10510  
     10379      10380      10391      10390      10500      10501      10512      10511  
     10380      10381      10392      10391      10501      10502      10513      10512  
     10381      10382      10393      10392      10502      10503      10514      10513  
     10382      10383      10394      10393      10503      10504      10515      10514  
     10383      10384      10395      10394      10504      10505      10516      10515  
     10385      10386      10397      10396      10506      10507      10518      10517  
     10386      10387      10398      10397      10507      10508      10519      10518  
     10387      10388      10399      10398      10508      10509      10520      10519  
     10388      10389      10400      10399      10509      10510      10521      10520  
     10389      10390      10401      10400      10510      10511      10522      10521  
     10390      10391      10402      10401      10511      10512      10523      10522  
     10391      10392      10403      10402      10512      10513      10524      10523  
     10392      10393      10404      10403      10513      10514      10525      10524  
     10393      10394      10405      10404      10514      10515      10526      10525  
     10394      10395      10406      10405      10515      10516      10527      10526  
     10407      10408      10419      10418      10528      10529      10540      10539  
     10408      10409      10420      10419      10529      10530      10541      10540  
     10409      10410      10421      10420      10530      10531      10542      10541  
     10410      10411      10422      10421      10531      10532      10543      10542  
     10411      10412      10423      10422      10532      10533      10544      10543  
     10412      10413      10424      10423      10533      10534      10545      10544  
     10413      10414      10425      10424      10534      10535      10546      10545  
     10414      10415      10426      10425      10535      10536      10547      10546  
     10415      10416      10427      10426      10536      10537      10548      10547  
     10416      10417      10428      10427      10537      10538      10549      10548  
     10418      10419      10430      10429      10539      10540      10551      10550  
     10419      10420      10431      10430      10540      10541      10552      10551  
     10420      10421      10432      10431      10541      10542      10553      10552  
     10421      10422      10433      10432      10542      10543      10554      10553  
     10422      10423      10434      10433      10543      10544      10555      10554  
     10423      10424      10435      10434      10544      10545      10556      10555  
     10424      10425      10436      10435      10545      10546      10557      10556  
     10425      10426      10437      10436      10546      10547      10558      10557  
     10426      10427      10438      10437      10547      10548      10559      10558  
     10427      10428      10439      10438      10548      10549      10560      10559  
     10429      10430      10441      10440      10550      10551      10562      10561  
     10430      10431      10442      10441      10551      10552      10563      10562  
     10431      10432      10443      10442      10552      10553      10564      10563  
     10432      10433      10444      10443      10553      10554      10565      10564  
     10433      10434      10445      10444      10554      10555      10566      10565  
     10434      10435      10446      10445      10555      10556      10567      10566  
     10435      10436      10447      10446      10556      10557      10568      10567  
     10436      10437      10448      10447      10557      10558      10569      10568  
     10437      10438      10449      10448      10558      10559      10570      10569  
     10438      10439      10450      10449      10559      10560      10571      10570  
     10440      10441      10452      10451      10561      10562      10573      10572  
     10441      10442      10453      10452      10562      10563      10574      10573  
     10442      10443      10454      10453      10563      10564      10575      10574  
     10443      10444      10455      10454      10564      10565      10576      10575  
     10444      10445      10456      10455      10565      10566      10577      10576  
     10445      10446      10457      10456      10566      10567      10578      10577  
     10446      10447      10458      10457      10567      10568      10579      10578  
     10447      10448      10459      10458      10568      10569      10580      10579  
     10448      10449      10460      10459      10569      10570      10581      10580  
     10449      10450      10461      10460      10570      10571      10582      10581  
     10451      10452      10463      10462      10572      10573      10584      10583  
     10452      10453      10464      10463      10573      10574      10585      10584  
     10453      10454      10465      10464      10574      10575      10586      10585  
     10454      10455      10466      10465      10575      10576      10587      10586  
     10455      10456      10467      10466      10576      10577      10588      10587  
     10456      10457      10468      10467      10577      10578      10589      10588  
     10457      10458      10469      10468      10578      10579      10590      10589  
     10458      10459      10470      10469      10579      10580      10591      10590  
     10459      10460      10471      10470      10580      10581      10592      10591  
     10460      10461      10472      10471      10581      10582      10593      10592  
     10462      10463      10474      10473      10583      10584      10595      10594  
     10463      10464      10475      10474      10584      10585      10596      10595  
     10464      10465      10476      10475      10585      10586      10597      10596  
     10465      10466      10477      10476      10586      10587      10598      10597  
     10466      10467      10478      10477      10587      10588      10599      10598  
     10467      10468      10479      10478      10588      10589      10600      10599  
     10468      10469      10480      10479      10589      10590      10601      10600  
     10469      10470      10481      10480      10590      10591      10602      10601  
     10470      10471      10482      10481      10591      10592      10603      10602  
     10471      10472      10483      10482      10592      10593      10604      10603  
     10473      10474      10485      10484      10594      10595      10606      10605  
     10474      10475      10486      10485      10595      10596      10607      10606  
     10475      10476      10487      10486      10596      10597      10608      10607  
     10476      10477      10488      10487      10597      10598      10609      10608  
     10477      10478      10489      10488      10598      10599      10610      10609  
     10478      10479      10490      10489      10599      10600      10611      10610  
     10479      10480      10491      10490      10600      10601      10612      10611  
     10480      10481      10492      10491      10601      10602      10613      10612  
     10481      10482      10493      10492      10602      10603      10614      10613  
     10482      10483      10494      10493      10603      10604      10615      10614  
     10484      10485      10496      10495      10605      10606      10617      10616  
     10485      10486      10497      10496      10606      10607      10618      10617  
     10486      10487      10498      10497      10607      10608      10619      10618  
     10487      10488      10499      10498      10608      10609      10620      10619  
     10488      10489      10500      10499      10609      10610      10621      10620  
     10489      10490      10501      10500      10610      10611      10622      10621  
     10490      10491      10502      10501      10611      10612      10623      10622  
     10491      10492      10503      10502      10612      10613      10624      10623  
     10492      10493      10504      10503      10613      10614      10625      10624  
     10493      10494      10505      10504      10614      10615      10626      10625  
     10495      10496      10507      10506      10616      10617      10628      10627  
     10496      10497      10508      10507      10617      10618      10629      10628  
     10497      10498      10509      10508      10618      10619      10630      10629  
     10498      10499      10510      10509      10619      10620      10631      10630  
     10499      10500      10511      10510      10620      10621      10632      10631  
     10500      10501      10512      10511      10621      10622      10633      10632  
     10501      10502      10513      10512      10622      10623      10634      10633  
     10502      10503      10514      10513      10623      10624      10635      10634  
     10503      10504      10515      10514      10624      10625      10636      10635  
     10504      10505      10516      10515      10625      10626      10637      10636  
     10506      10507      10518      10517      10627      10628      10639      10638  
     10507      10508      10519      10518      10628      10629      10640      10639  
     10508      10509      10520      10519      10629      10630      10641      10640  
     10509      10510      10521      10520      10630      10631      10642      10641  
     10510      10511      10522      10521      10631      10632      10643      10642  
     10511      10512      10523      10522      10632      10633      10644      10643  
     10512      10513      10524      10523      10633      10634      10645      10644  
     10513      10514      10525      10524      10634      10635      10646      10645  
     10514      10515      10526      10525      10635      10636      10647      10646  
     10515      10516      10527      10526      10636      10637      10648      10647  
     10528      10529      10540      10539      10649      10650      10661      10660  
     10529      10530      10541      10540      10650      10651      10662      10661  
     10530      10531      10542      10541      10651      10652      10663      10662  
     10531      10532      10543      10542      10652      10653      10664      10663  
     10532      10533      10544      10543      10653      10654      10665      10664  
     10533      10534      10545      10544      10654      10655      10666      10665  
     10534      10535      10546      10545      10655      10656      10667      10666  
     10535      10536      10547      10546      10656      10657      10668      10667  
     10536      10537      10548      10547      10657      10658      10669      10668  
     10537      10538      10549      10548      10658      10659      10670      10669  
     10539      10540      10551      10550      10660      10661      10672      10671  
     10540      10541      10552      10551      10661      10662      10673      10672  
     10541      10542      10553      10552      10662      10663      10674      10673  
     10542      10543      10554      10553      10663      10664      10675      10674  
     10543      10544      10555      10554      10664      10665      10676      10675  
     10544      10545      10556      10555      10665      10666      10677      10676  
     10545      10546      10557      10556      10666      10667      10678      10677  
     10546      10547      10558      10557      10667      10668      10679      10678  
     10547      10548      10559      10558      10668      10669      10680      10679  
     10548      10549      10560      10559      10669      10670      10681      10680  
     10550      10551      10562      10561      10671      10672      10683      10682  
     10551      10552      10563      10562      10672      10673      10684      10683  
     10552      10553      10564      10563      10673      10674      10685      10684  
     10553      10554      10565      10564      10674      10675      10686      10685  
     10554      10555      10566      10565      10675      10676      10687      10686  
     10555      10556      10567      10566      10676      10677      10688      10687  
     10556      10557      10568      10567      10677      10678      10689      10688  
     10557      10558      10569      10568      10678      10679      10690      10689  
     10558      10559      10570      10569      10679      10680      10691      10690  
     10559      10560      10571      10570      10680      10681      10692      10691  
     10561      10562      10573      10572      10682      10683      10694      10693  
     10562      10563      10574      10573      10683      10684      10695      10694  
     10563      10564      10575      10574      10684      10685      10696      10695  
     10564      10565      10576      10575      10685      10686      10697      10696  
     10565      10566      10577      10576      10686      10687      10698      10697  
     10566      10567      10578      10577      10687      10688      10699      10698  
     10567      10568      10579      10578      10688      10689      10700      10699  
     10568      10569      10580      10579      10689      10690      10701      10700  
     10569      10570      10581      10580      10690      10691      10702      10701  
     10570      10571      10582      10581      10691      10692      10703      10702  
     10572      10573      10584      10583      10693      10694      10705      10704  
     10573      10574      10585      10584      10694      10695      10706      10705  
     10574      10575      10586      10585      10695      10696      10707      10706  
     10575      10576      10587      10586      10696      10697      10708      10707  
     10576      10577      10588      10587      10697      10698      10709      10708  
     10577      10578      10589      10588      10698      10699      10710      10709  
     10578      10579      10590      10589      10699      10700      10711      10710  
     10579      10580      10591      10590      10700      10701      10712      10711  
     10580      10581      10592      10591      10701      10702      10713      10712  
     10581      10582      10593      10592      10702      10703      10714      10713  
     10583      10584      10595      10594      10704      10705      10716      10715  
     10584      10585      10596      10595      10705      10706      10717      10716  
     10585      10586      10597      10596      10706      10707      10718      10717  
     10586      10587      10598      10597      10707      10708      10719      10718  
     10587      10588      10599      10598      10708      10709      10720      10719  
     10588      10589      10600      10599      10709      10710      10721      10720  
     10589      10590      10601      10600      10710      10711      10722      10721  
     10590      10591      10602      10601      10711      10712      10723      10722  
     10591      10592      10603      10602      10712      10713      10724      10723  
     10592      10593      10604      10603      10713      10714      10725      10724  
     10594      10595      10606      10605      10715      10716      10727      10726  
     10595      10596      10607      10606      10716      10717      10728      10727  
     10596      10597      10608      10607      10717      10718      10729      10728  
     10597      10598      10609      10608      10718      10719      10730      10729  
     10598      10599      10610      10609      10719      10720      10731      10730  
     10599      10600      10611      10610      10720      10721      10732      10731  
     10600      10601      10612      10611      10721      10722      10733      10732  
     10601      10602      10613      10612      10722      10723      10734      10733  
     10602      10603      10614      10613      10723      10724      10735      10734  
     10603      10604      10615      10614      10724      10725      10736      10735  
     10605      10606      10617      10616      10726      10727      10738      10737  
     10606      10607      10618      10617      10727      10728      10739      10738  
     10607      10608      10619      10618      10728      10729      10740      10739  
     10608      10609      10620      10619      10729      10730      10741      10740  
     10609      10610      10621      10620      10730      10731      10742      10741  
     10610      10611      10622      10621      10731      10732      10743      10742  
     10611      10612      10623      10622      10732      10733      10744      10743  
     10612      10613      10624      10623      10733      10734      10745      10744  
     10613      10614      10625      10624      10734      10735      10746      10745  
     10614      10615      10626      10625      10735      10736      10747      10746  
     10616      10617      10628      10627      10737      10738      10749      10748  
     10617      10618      10629      10628      10738      10739      10750      10749  
     10618      10619      10630      10629      10739      10740      10751      10750  
     10619      10620      10631      10630      10740      10741      10752      10751  
     10620      10621      10632      10631      10741      10742      10753      10752  
     10621      10622      10633      10632      10742      10743      10754      10753  
     10622      10623      10634      10633      10743      10744      10755      10754  
     10623      10624      10635      10634      10744      10745      10756      10755  
     10624      10625      10636      10635      10745      10746      10757      10756  
     10625      10626      10637      10636      10746      10747      10758      10757  
     10627      10628      10639      10638      10748      10749      10760      10759  
     10628      10629      10640      10639      10749      10750      10761      10760  
     10629      10630      10641      10640      10750      10751      10762      10761  
     10630      10631      10642      10641      10751      10752      10763      10762  
     10631      10632      10643      10642      10752      10753      10764      10763  
     10632      10633      10644      10643      10753      10754      10765      10764  
     10633      10634      10645      10644      10754      10755      10766      10765  
     10634      10635      10646      10645      10755      10756      10767      10766  
     10635      10636      10647      10646      10756      10757      10768      10767  
     10636      10637      10648      10647      10757      10758      10769      10768  
     10649      10650      10661      10660      10770      10771      10782      10781  
     10650      10651      10662      10661      10771      10772      10783      10782  
     10651      10652      10663      10662      10772      10773      10784      10783  
     10652      10653      10664      10663      10773      10774      10785      10784  
     10653      10654      10665      10664      10774      10775      10786      10785  
     10654      10655      10666      10665      10775      10776      10787      10786  
     10655      10656      10667      10666      10776      10777      10788      10787  
     10656      10657      10668      10667      10777      10778      10789      10788  
     10657      10658      10669      10668      10778      10779      10790      10789  
     10658      10659      10670      10669      10779      10780      10791      10790  
     10660      10661      10672      10671      10781      10782      10793      10792  
     10661      10662      10673      10672      10782      10783      10794      10793  
     10662      10663      10674      10673      10783      10784      10795      10794  
     10663      10664      10675      10674      10784      10785      10796      10795  
     10664      10665      10676      10675      10785      10786      10797      10796  
     10665      10666      10677      10676      10786      10787      10798      10797  
     10666      10667      10678      10677      10787      10788      10799      10798  
     10667      10668      10679      10678      10788      10789      10800      10799  
     10668      10669      10680      10679      10789      10790      10801      10800  
     10669      10670      10681      10680      10790      10791      10802      10801  
     10671      10672      10683      10682      10792      10793      10804      10803  
     10672      10673      10684      10683      10793      10794      10805      10804  
     10673      10674      10685      10684      10794      10795      10806      10805  
     10674      10675      10686      10685      10795      10796      10807      10806  
     10675      10676      10687      10686      10796      10797      10808      10807  
     10676      10677      10688      10687      10797      10798      10809      10808  
     10677      10678      10689      10688      10798      10799      10810      10809  
     10678      10679      10690      10689      10799      10800      10811      10810  
     10679      10680      10691      10690      10800      10801      10812      10811  
     10680      10681      10692      10691      10801      10802      10813      10812  
     10682      10683      10694      10693      10803      10804      10815      10814  
     10683      10684      10695      10694      10804      10805      10816      10815  
     10684      10685      10696      10695      10805      10806      10817      10816  
     10685      10686      10697      10696      10806      10807      10818      10817  
     10686      10687      10698      10697      10807      10808      10819      10818  
     10687      10688      10699      10698      10808      10809      10820      10819  
     10688      10689      10700      10699      10809      10810      10821      10820  
     10689      10690      10701      10700      10810      10811      10822      10821  
     10690      10691      10702      10701      10811      10812      10823      10822  
     10691      10692      10703      10702      10812      10813      10824      10823  
     10693      10694      10705      10704      10814      10815      10826      10825  
     10694      10695      10706      10705      10815      10816      10827      10826  
     10695      10696      10707      10706      10816      10817      10828      10827  
     10696      10697      10708      10707      10817      10818      10829      10828  
     10697      10698      10709      10708      10818      10819      10830      10829  
     10698      10699      10710      10709      10819      10820      10831      10830  
     10699      10700      10711      10710      10820      10821      10832      10831  
     10700      10701      10712      10711      10821      10822      10833      10832  
     10701      10702      10713      10712      10822      10823      10834      10833  
     10702      10703      10714      10713      10823      10824      10835      10834  
     10704      10705      10716      10715      10825      10826      10837      10836  
     10705      10706      10717      10716      10826      10827      10838      10837  
     10706      10707      10718      10717      10827      10828      10839      10838  
     10707      10708      10719      10718      10828      10829      10840      10839  
     10708      10709      10720      10719      10829      10830      10841      10840  
     10709      10710      10721      10720      10830      10831      10842      10841  
     10710      10711      10722      10721      10831      10832      10843      10842  
     10711      10712      10723      10722      10832      10833      10844      10843  
     10712      10713      10724      10723      10833      10834      10845      10844  
     10713      10714      10725      10724      10834      10835      10846      10845  
     10715      10716      10727      10726      10836      10837      10848      10847  
     10716      10717      10728      10727      10837      10838      10849      10848  
     10717      10718      10729      10728      10838      10839      10850      10849  
     10718      10719      10730      10729      10839      10840      10851      10850  
     10719      10720      10731      10730      10840      10841      10852      10851  
     10720      10721      10732      10731      10841      10842      10853      10852  
     10721      10722      10733      10732      10842      10843      10854      10853  
     10722      10723      10734      10733      10843      10844      10855      10854  
     10723      10724      10735      10734      10844      10845      10856      10855  
     10724      10725      10736      10735      10845      10846      10857      10856  
     10726      10727      10738      10737      10847      10848      10859      10858  
     10727      10728      10739      10738      10848      10849      10860      10859  
     10728      10729      10740      10739      10849      10850      10861      10860  
     10729      10730      10741      10740      10850      10851      10862      10861  
     10730      10731      10742      10741      10851      10852      10863      10862  
     10731      10732      10743      10742      10852      10853      10864      10863  
     10732      10733      10744      10743      10853      10854      10865      10864  
     10733      10734      10745      10744      10854      10855      10866      10865  
     10734      10735      10746      10745      10855      10856      10867      10866  
     10735      10736      10747      10746      10856      10857      10868      10867  
     10737      10738      10749      10748      10858      10859      10870      10869  
     10738      10739      10750      10749      10859      10860      10871      10870  
     10739      10740      10751      10750      10860      10861      10872      10871  
     10740      10741      10752      10751      10861      10862      10873      10872  
     10741      10742      10753      10752      10862      10863      10874      10873  
     10742      10743      10754      10753      10863      10864      10875      10874  
     10743      10744      10755      10754      10864      10865      10876      10875  
     10744      10745      10756      10755      10865      10866      10877      10876  
     10745      10746      10757      10756      10866      10867      10878      10877  
     10746      10747      10758      10757      10867      10868      10879      10878  
     10748      10749      10760      10759      10869      10870      10881      10880  
     10749      10750      10761      10760      10870      10871      10882      10881  
     10750      10751      10762      10761      10871      10872      10883      10882  
     10751      10752      10763      10762      10872      10873      10884      10883  
     10752      10753      10764      10763      10873      10874      10885      10884  
     10753      10754      10765      10764      10874      10875      10886      10885  
     10754      10755      10766      10765      10875      10876      10887      10886  
     10755      10756      10767      10766      10876      10877      10888      10887  
     10756      10757      10768      10767      10877      10878      10889      10888  
     10757      10758      10769      10768      10878      10879      10890      10889  
     10770      10771      10782      10781      10891      10892      10903      10902  
     10771      10772      10783      10782      10892      10893      10904      10903  
     10772      10773      10784      10783      10893      10894      10905      10904  
     10773      10774      10785      10784      10894      10895      10906      10905  
     10774      10775      10786      10785      10895      10896      10907      10906  
     10775      10776      10787      10786      10896      10897      10908      10907  
     10776      10777      10788      10787      10897      10898      10909      10908  
     10777      10778      10789      10788      10898      10899      10910      10909  
     10778      10779      10790      10789      10899      10900      10911      10910  
     10779      10780      10791      10790      10900      10901      10912      10911  
     10781      10782      10793      10792      10902      10903      10914      10913  
     10782      10783      10794      10793      10903      10904      10915      10914  
     10783      10784      10795      10794      10904      10905      10916      10915  
     10784      10785      10796      10795      10905      10906      10917      10916  
     10785      10786      10797      10796      10906      10907      10918      10917  
     10786      10787      10798      10797      10907      10908      10919      10918  
     10787      10788      10799      10798      10908      10909      10920      10919  
     10788      10789      10800      10799      10909      10910      10921      10920  
     10789      10790      10801      10800      10910      10911      10922      10921  
     10790      10791      10802      10801      10911      10912      10923      10922  
     10792      10793      10804      10803      10913      10914      10925      10924  
     10793      10794      10805      10804      10914      10915      10926      10925  
     10794      10795      10806      10805      10915      10916      10927      10926  
     10795      10796      10807      10806      10916      10917      10928      10927  
     10796      10797      10808      10807      10917      10918      10929      10928  
     10797      10798      10809      10808      10918      10919      10930      10929  
     10798      10799      10810      10809      10919      10920      10931      10930  
     10799      10800      10811      10810      10920      10921      10932      10931  
     10800      10801      10812      10811      10921      10922      10933      10932  
     10801      10802      10813      10812      10922      10923      10934      10933  
     10803      10804      10815      10814      10924      10925      10936      10935  
     10804      10805      10816      10815      10925      10926      10937      10936  
     10805      10806      10817      10816      10926      10927      10938      10937  
     10806      10807      10818      10817      10927      10928      10939      10938  
     10807      10808      10819      10818      10928      10929      10940      10939  
     10808      10809      10820      10819      10929      10930      10941      10940  
     10809      10810      10821      10820      10930      10931      10942      10941  
     10810      10811      10822      10821      10931      10932      10943      10942  
     10811      10812      10823      10822      10932      10933      10944      10943  
     10812      10813      10824      10823      10933      10934      10945      10944  
     10814      10815      10826      10825      10935      10936      10947      10946  
     10815      10816      10827      10826      10936      10937      10948      10947  
     10816      10817      10828      10827      10937      10938      10949      10948  
     10817      10818      10829      10828      10938      10939      10950      10949  
     10818      10819      10830      10829      10939      10940      10951      10950  
     10819      10820      10831      10830      10940      10941      10952      10951  
     10820      10821      10832      10831      10941      10942      10953      10952  
     10821      10822      10833      10832      10942      10943      10954      10953  
     10822      10823      10834      10833      10943      10944      10955      10954  
     10823      10824      10835      10834      10944      10945      10956      10955  
     10825      10826      10837      10836      10946      10947      10958      10957  
     10826      10827      10838      10837      10947      10948      10959      10958  
     10827      10828      10839      10838      10948      10949      10960      10959  
     10828      10829      10840      10839      10949      10950      10961      10960  
     10829      10830      10841      10840      10950      10951      10962      10961  
     10830      10831      10842      10841      10951      10952      10963      10962  
     10831      10832      10843      10842      10952      10953      10964      10963  
     10832      10833      10844      10843      10953      10954      10965      10964  
     10833      10834      10845      10844      10954      10955      10966      10965  
     10834      10835      10846      10845      10955      10956      10967      10966  
     10836      10837      10848      10847      10957      10958      10969      10968  
     10837      10838      10849      10848      10958      10959      10970      10969  
     10838      10839      10850      10849      10959      10960      10971      10970  
     10839      10840      10851      10850      10960      10961      10972      10971  
     10840      10841      10852      10851      10961      10962      10973      10972  
     10841      10842      10853      10852      10962      10963      10974      10973  
     10842      10843      10854      10853      10963      10964      10975      10974  
     10843      10844      10855      10854      10964      10965      10976      10975  
     10844      10845      10856      10855      10965      10966      10977      10976  
     10845      10846      10857      10856      10966      10967      10978      10977  
     10847      10848      10859      10858      10968      10969      10980      10979  
     10848      10849      10860      10859      10969      10970      10981      10980  
     10849      10850      10861      10860      10970      10971      10982      10981  
     10850      10851      10862      10861      10971      10972      10983      10982  
     10851      10852      10863      10862      10972      10973      10984      10983  
     10852      10853      10864      10863      10973      10974      10985      10984  
     10853      10854      10865      10864      10974      10975      10986      10985  
     10854      10855      10866      10865      10975      10976      10987      10986  
     10855      10856      10867      10866      10976      10977      10988      10987  
     10856      10857      10868      10867      10977      10978      10989      10988  
     10858      10859      10870      10869      10979      10980      10991      10990  
     10859      10860      10871      10870      10980      10981      10992      10991  
     10860      10861      10872      10871      10981      10982      10993      10992  
     10861      10862      10873      10872      10982      10983      10994      10993  
     10862      10863      10874      10873      10983      10984      10995      10994  
     10863      10864      10875      10874      10984      10985      10996      10995  
     10864      10865      10876      10875      10985      10986      10997      10996  
     10865      10866      10877      10876      10986      10987      10998      10997  
     10866      10867      10878      10877      10987      10988      10999      10998  
     10867      10868      10879      10878      10988      10989      11000      10999  
     10869      10870      10881      10880      10990      10991      11002      11001  
     10870      10871      10882      10881      10991      10992      11003      11002  
     10871      10872      10883      10882      10992      10993      11004      11003  
     10872      10873      10884      10883      10993      10994      11005      11004  
     10873      10874      10885      10884      10994      10995      11006      11005  
     10874      10875      10886      10885      10995      10996      11007      11006  
     10875      10876      10887      10886      10996      10997      11008      11007  
     10876      10877      10888      10887      10997      10998      11009      11008  
     10877      10878      10889      10888      10998      10999      11010      11009  
     10878      10879      10890      10889      10999      11000      11011      11010  
     10891      10892      10903      10902      11012      11013      11024      11023  
     10892      10893      10904      10903      11013      11014      11025      11024  
     10893      10894      10905      10904      11014      11015      11026      11025  
     10894      10895      10906      10905      11015      11016      11027      11026  
     10895      10896      10907      10906      11016      11017      11028      11027  
     10896      10897      10908      10907      11017      11018      11029      11028  
     10897      10898      10909      10908      11018      11019      11030      11029  
     10898      10899      10910      10909      11019      11020      11031      11030  
     10899      10900      10911      10910      11020      11021      11032      11031  
     10900      10901      10912      10911      11021      11022      11033      11032  
     10902      10903      10914      10913      11023      11024      11035      11034  
     10903      10904      10915      10914      11024      11025      11036      11035  
     10904      10905      10916      10915      11025      11026      11037      11036  
     10905      10906      10917      10916      11026      11027      11038      11037  
     10906      10907      10918      10917      11027      11028      11039      11038  
     10907      10908      10919      10918      11028      11029      11040      11039  
     10908      10909      10920      10919      11029      11030      11041      11040  
     10909      10910      10921      10920      11030      11031      11042      11041  
     10910      10911      10922      10921      11031      11032      11043      11042  
     10911      10912      10923      10922      11032      11033      11044      11043  
     10913      10914      10925      10924      11034      11035      11046      11045  
     10914      10915      10926      10925      11035      11036      11047      11046  
     10915      10916      10927      10926      11036      11037      11048      11047  
     10916      10917      10928      10927      11037      11038      11049      11048  
     10917      10918      10929      10928      11038      11039      11050      11049  
     10918      10919      10930      10929      11039      11040      11051      11050  
     10919      10920      10931      10930      11040      11041      11052      11051  
     10920      10921      10932      10931      11041      11042      11053      11052  
     10921      10922      10933      10932      11042      11043      11054      11053  
     10922      10923      10934      10933      11043      11044      11055      11054  
     10924      10925      10936      10935      11045      11046      11057      11056  
     10925      10926      10937      10936      11046      11047      11058      11057  
     10926      10927      10938      10937      11047      11048      11059      11058  
     10927      10928      10939      10938      11048      11049      11060      11059  
     10928      10929      10940      10939      11049      11050      11061      11060  
     10929      10930      10941      10940      11050      11051      11062      11061  
     10930      10931      10942      10941      11051      11052      11063      11062  
     10931      10932      10943      10942      11052      11053      11064      11063  
     10932      10933      10944      10943      11053      11054      11065      11064  
     10933      10934      10945      10944      11054      11055      11066      11065  
     10935      10936      10947      10946      11056      11057      11068      11067  
     10936      10937      10948      10947      11057      11058      11069      11068  
     10937      10938      10949      10948      11058      11059      11070      11069  
     10938      10939      10950      10949      11059      11060      11071      11070  
     10939      10940      10951      10950      11060      11061      11072      11071  
     10940      10941      10952      10951      11061      11062      11073      11072  
     10941      10942      10953      10952      11062      11063      11074      11073  
     10942      10943      10954      10953      11063      11064      11075      11074  
     10943      10944      10955      10954      11064      11065      11076      11075  
     10944      10945      10956      10955      11065      11066      11077      11076  
     10946      10947      10958      10957      11067      11068      11079      11078  
     10947      10948      10959      10958      11068      11069      11080      11079  
     10948      10949      10960      10959      11069      11070      11081      11080  
     10949      10950      10961      10960      11070      11071      11082      11081  
     10950      10951      10962      10961      11071      11072      11083      11082  
     10951      10952      10963      10962      11072      11073      11084      11083  
     10952      10953      10964      10963      11073      11074      11085      11084  
     10953      10954      10965      10964      11074      11075      11086      11085  
     10954      10955      10966      10965      11075      11076      11087      11086  
     10955      10956      10967      10966      11076      11077      11088      11087  
     10957      10958      10969      10968      11078      11079      11090      11089  
     10958      10959      10970      10969      11079      11080      11091      11090  
     10959      10960      10971      10970      11080      11081      11092      11091  
     10960      10961      10972      10971      11081      11082      11093      11092  
     10961      10962      10973      10972      11082      11083      11094      11093  
     10962      10963      10974      10973      11083      11084      11095      11094  
     10963      10964      10975      10974      11084      11085      11096      11095  
     10964      10965      10976      10975      11085      11086      11097      11096  
     10965      10966      10977      10976      11086      11087      11098      11097  
     10966      10967      10978      10977      11087      11088      11099      11098  
     10968      10969      10980      10979      11089      11090      11101      11100  
     10969      10970      10981      10980      11090      11091      11102      11101  
     10970      10971      10982      10981      11091      11092      11103      11102  
     10971      10972      10983      10982      11092      11093      11104      11103  
     10972      10973      10984      10983      11093      11094      11105      11104  
     10973      10974      10985      10984      11094      11095      11106      11105  
     10974      10975      10986      10985      11095      11096      11107      11106  
     10975      10976      10987      10986      11096      11097      11108      11107  
     10976      10977      10988      10987      11097      11098      11109      11108  
     10977      10978      10989      10988      11098      11099      11110      11109  
     10979      10980      10991      10990      11100      11101      11112      11111  
     10980      10981      10992      10991      11101      11102      11113      11112  
     10981      10982      10993      10992      11102      11103      11114      11113  
     10982      10983      10994      10993      11103      11104      11115      11114  
     10983      10984      10995      10994      11104      11105      11116      11115  
     10984      10985      10996      10995      11105      11106      11117      11116  
     10985      10986      10997      10996      11106      11107      11118      11117  
     10986      10987      10998      10997      11107      11108      11119      11118  
     10987      10988      10999      10998      11108      11109      11120      11119  
     10988      10989      11000      10999      11109      11110      11121      11120  
     10990      10991      11002      11001      11111      11112      11123      11122  
     10991      10992      11003      11002      11112      11113      11124      11123  
     10992      10993      11004      11003      11113      11114      11125      11124  
     10993      10994      11005      11004      11114      11115      11126      11125  
     10994      10995      11006      11005      11115      11116      11127      11126  
     10995      10996      11007      11006      11116      11117      11128      11127  
     10996      10997      11008      11007      11117      11118      11129      11128  
     10997      10998      11009      11008      11118      11119      11130      11129  
     10998      10999      11010      11009      11119      11120      11131      11130  
     10999      11000      11011      11010      11120      11121      11132      11131  
     11012      11013      11024      11023      11133      11134      11145      11144  
     11013      11014      11025      11024      11134      11135      11146      11145  
     11014      11015      11026      11025      11135      11136      11147      11146  
     11015      11016      11027      11026      11136      11137      11148      11147  
     11016      11017      11028      11027      11137      11138      11149      11148  
     11017      11018      11029      11028      11138      11139      11150      11149  
     11018      11019      11030      11029      11139      11140      11151      11150  
     11019      11020      11031      11030      11140      11141      11152      11151  
     11020      11021      11032      11031      11141      11142      11153      11152  
     11021      11022      11033      11032      11142      11143      11154      11153  
     11023      11024      11035      11034      11144      11145      11156      11155  
     11024      11025      11036      11035      11145      11146      11157      11156  
     11025      11026      11037      11036      11146      11147      11158      11157  
     11026      11027      11038      11037      11147      11148      11159      11158  
     11027      11028      11039      11038      11148      11149      11160      11159  
     11028      11029      11040      11039      11149      11150      11161      11160  
     11029      11030      11041      11040      11150      11151      11162      11161  
     11030      11031      11042      11041      11151      11152      11163      11162  
     11031      11032      11043      11042      11152      11153      11164      11163  
     11032      11033      11044      11043      11153      11154      11165      11164  
     11034      11035      11046      11045      11155      11156      11167      11166  
     11035      11036      11047      11046      11156      11157      11168      11167  
     11036      11037      11048      11047      11157      11158      11169      11168  
     11037      11038      11049      11048      11158      11159      11170      11169  
     11038      11039      11050      11049      11159      11160      11171      11170  
     11039      11040      11051      11050      11160      11161      11172      11171  
     11040      11041      11052      11051      11161      11162      11173      11172  
     11041      11042      11053      11052      11162      11163      11174      11173  
     11042      11043      11054      11053      11163      11164      11175      11174  
     11043      11044      11055      11054      11164      11165      11176      11175  
     11045      11046      11057      11056      11166      11167      11178      11177  
     11046      11047      11058      11057      11167      11168      11179      11178  
     11047      11048      11059      11058      11168      11169      11180      11179  
     11048      11049      11060      11059      11169      11170      11181      11180  
     11049      11050      11061      11060      11170      11171      11182      11181  
     11050      11051      11062      11061      11171      11172      11183      11182  
     11051      11052      11063      11062      11172      11173      11184      11183  
     11052      11053      11064      11063      11173      11174      11185      11184  
     11053      11054      11065      11064      11174      11175      11186      11185  
     11054      11055      11066      11065      11175      11176      11187      11186  
     11056      11057      11068      11067      11177      11178      11189      11188  
     11057      11058      11069      11068      11178      11179      11190      11189  
     11058      11059      11070      11069      11179      11180      11191      11190  
     11059      11060      11071      11070      11180      11181      11192      11191  
     11060      11061      11072      11071      11181      11182      11193      11192  
     11061      11062      11073      11072      11182      11183      11194      11193  
     11062      11063      11074      11073      11183      11184      11195      11194  
     11063      11064      11075      11074      11184      11185      11196      11195  
     11064      11065      11076      11075      11185      11186      11197      11196  
     11065      11066      11077      11076      11186      11187      11198      11197  
     11067      11068      11079      11078      11188      11189      11200      11199  
     11068      11069      11080      11079      11189      11190      11201      11200  
     11069      11070      11081      11080      11190      11191      11202      11201  
     11070      11071      11082      11081      11191      11192      11203      11202  
     11071      11072      11083      11082      11192      11193      11204      11203  
     11072      11073      11084      11083      11193      11194      11205      11204  
     11073      11074      11085      11084      11194      11195      11206      11205  
     11074      11075      11086      11085      11195      11196      11207      11206  
     11075      11076      11087      11086      11196      11197      11208      11207  
     11076      11077      11088      11087      11197      11198      11209      11208  
     11078      11079      11090      11089      11199      11200      11211      11210  
     11079      11080      11091      11090      11200      11201      11212      11211  
     11080      11081      11092      11091      11201      11202      11213      11212  
     11081      11082      11093      11092      11202      11203      11214      11213  
     11082      11083      11094      11093      11203      11204      11215      11214  
     11083      11084      11095      11094      11204      11205      11216      11215  
     11084      11085      11096      11095      11205      11206      11217      11216  
     11085      11086      11097      11096      11206      11207      11218      11217  
     11086      11087      11098      11097      11207      11208      11219      11218  
     11087      11088      11099      11098      11208      11209      11220      11219  
     11089      11090      11101      11100      11210      11211      11222      11221  
     11090      11091      11102      11101      11211      11212      11223      11222  
     11091      11092      11103      11102      11212      11213      11224      11223  
     11092      11093      11104      11103      11213      11214      11225      11224  
     11093      11094      11105      11104      11214      11215      11226      11225  
     11094      11095      11106      11105      11215      11216      11227      11226  
     11095      11096      11107      11106      11216      11217      11228      11227  
     11096      11097      11108      11107      11217      11218      11229      11228  
     11097      11098      11109      11108      11218      11219      11230      11229  
     11098      11099      11110      11109      11219      11220      11231      11230  
     11100      11101      11112      11111      11221      11222      11233      11232  
     11101      11102      11113      11112      11222      11223      11234      11233  
     11102      11103      11114      11113      11223      11224      11235      11234  
     11103      11104      11115      11114      11224      11225      11236      11235  
     11104      11105      11116      11115      11225      11226      11237      11236  
     11105      11106      11117      11116      11226      11227      11238      11237  
     11106      11107      11118      11117      11227      11228      11239      11238  
     11107      11108      11119      11118      11228      11229      11240      11239  
     11108      11109      11120      11119      11229      11230      11241      11240  
     11109      11110      11121      11120      11230      11231      11242      11241  
     11111      11112      11123      11122      11232      11233      11244      11243  
     11112      11113      11124      11123      11233      11234      11245      11244  
     11113      11114      11125      11124      11234      11235      11246      11245  
     11114      11115      11126      11125      11235      11236      11247      11246  
     11115      11116      11127      11126      11236      11237      11248      11247  
     11116      11117      11128      11127      11237      11238      11249      11248  
     11117      11118      11129      11128      11238      11239      11250      11249  
     11118      11119      11130      11129      11239      11240      11251      11250  
     11119      11120      11131      11130      11240      11241      11252      11251  
     11120      11121      11132      11131      11241      11242      11253      11252  
     11133      11134      11145      11144      11254      11255      11266      11265  
     11134      11135      11146      11145      11255      11256      11267      11266  
     11135      11136      11147      11146      11256      11257      11268      11267  
     11136      11137      11148      11147      11257      11258      11269      11268  
     11137      11138      11149      11148      11258      11259      11270      11269  
     11138      11139      11150      11149      11259      11260      11271      11270  
     11139      11140      11151      11150      11260      11261      11272      11271  
     11140      11141      11152      11151      11261      11262      11273      11272  
     11141      11142      11153      11152      11262      11263      11274      11273  
     11142      11143      11154      11153      11263      11264      11275      11274  
     11144      11145      11156      11155      11265      11266      11277      11276  
     11145      11146      11157      11156      11266      11267      11278      11277  
     11146      11147      11158      11157      11267      11268      11279      11278  
     11147      11148      11159      11158      11268      11269      11280      11279  
     11148      11149      11160      11159      11269      11270      11281      11280  
     11149      11150      11161      11160      11270      11271      11282      11281  
     11150      11151      11162      11161      11271      11272      11283      11282  
     11151      11152      11163      11162      11272      11273      11284      11283  
     11152      11153      11164      11163      11273      11274      11285      11284  
     11153      11154      11165      11164      11274      11275      11286      11285  
     11155      11156      11167      11166      11276      11277      11288      11287  
     11156      11157      11168      11167      11277      11278      11289      11288  
     11157      11158      11169      11168      11278      11279      11290      11289  
     11158      11159      11170      11169      11279      11280      11291      11290  
     11159      11160      11171      11170      11280      11281      11292      11291  
     11160      11161      11172      11171      11281      11282      11293      11292  
     11161      11162      11173      11172      11282      11283      11294      11293  
     11162      11163      11174      11173      11283      11284      11295      11294  
     11163      11164      11175      11174      11284      11285      11296      11295  
     11164      11165      11176      11175      11285      11286      11297      11296  
     11166      11167      11178      11177      11287      11288      11299      11298  
     11167      11168      11179      11178      11288      11289      11300      11299  
     11168      11169      11180      11179      11289      11290      11301      11300  
     11169      11170      11181      11180      11290      11291      11302      11301  
     11170      11171      11182      11181      11291      11292      11303      11302  
     11171      11172      11183      11182      11292      11293      11304      11303  
     11172      11173      11184      11183      11293      11294      11305      11304  
     11173      11174      11185      11184      11294      11295      11306      11305  
     11174      11175      11186      11185      11295      11296      11307      11306  
     11175      11176      11187      11186      11296      11297      11308      11307  
     11177      11178      11189      11188      11298      11299      11310      11309  
     11178      11179      11190      11189      11299      11300      11311      11310  
     11179      11180      11191      11190      11300      11301      11312      11311  
     11180      11181      11192      11191      11301      11302      11313      11312  
     11181      11182      11193      11192      11302      11303      11314      11313  
     11182      11183      11194      11193      11303      11304      11315      11314  
     11183      11184      11195      11194      11304      11305      11316      11315  
     11184      11185      11196      11195      11305      11306      11317      11316  
     11185      11186      11197      11196      11306      11307      11318      11317  
     11186      11187      11198      11197      11307      11308      11319      11318  
     11188      11189      11200      11199      11309      11310      11321      11320  
     11189      11190      11201      11200      11310      11311      11322      11321  
     11190      11191      11202      11201      11311      11312      11323      11322  
     11191      11192      11203      11202      11312      11313      11324      11323  
     11192      11193      11204      11203      11313      11314      11325      11324  
     11193      11194      11205      11204      11314      11315      11326      11325  
     11194      11195      11206      11205      11315      11316      11327      11326  
     11195      11196      11207      11206      11316      11317      11328      11327  
     11196      11197      11208      11207      11317      11318      11329      11328  
     11197      11198      11209      11208      11318      11319      11330      11329  
     11199      11200      11211      11210      11320      11321      11332      11331  
     11200      11201      11212      11211      11321      11322      11333      11332  
     11201      11202      11213      11212      11322      11323      11334      11333  
     11202      11203      11214      11213      11323      11324      11335      11334  
     11203      11204      11215      11214      11324      11325      11336      11335  
     11204      11205      11216      11215      11325      11326      11337      11336  
     11205      11206      11217      11216      11326      11327      11338      11337  
     11206      11207      11218      11217      11327      11328      11339      11338  
     11207      11208      11219      11218      11328      11329      11340      11339  
     11208      11209      11220      11219      11329      11330      11341      11340  
     11210      11211      11222      11221      11331      11332      11343      11342  
     11211      11212      11223      11222      11332      11333      11344      11343  
     11212      11213      11224      11223      11333      11334      11345      11344  
     11213      11214      11225      11224      11334      11335      11346      11345  
     11214      11215      11226      11225      11335      11336      11347      11346  
     11215      11216      11227      11226      11336      11337      11348      11347  
     11216      11217      11228      11227      11337      11338      11349      11348  
     11217      11218      11229      11228      11338      11339      11350      11349  
     11218      11219      11230      11229      11339      11340      11351      11350  
     11219      11220      11231      11230      11340      11341      11352      11351  
     11221      11222      11233      11232      11342      11343      11354      11353  
     11222      11223      11234      11233      11343      11344      11355      11354  
     11223      11224      11235      11234      11344      11345      11356      11355  
     11224      11225      11236      11235      11345      11346      11357      11356  
     11225      11226      11237      11236      11346      11347      11358      11357  
     11226      11227      11238      11237      11347      11348      11359      11358  
     11227      11228      11239      11238      11348      11349      11360      11359  
     11228      11229      11240      11239      11349      11350      11361      11360  
     11229      11230      11241      11240      11350      11351      11362      11361  
     11230      11231      11242      11241      11351      11352      11363      11362  
     11232      11233      11244      11243      11353      11354      11365      11364  
     11233      11234      11245      11244      11354      11355      11366      11365  
     11234      11235      11246      11245      11355      11356      11367      11366  
     11235      11236      11247      11246      11356      11357      11368      11367  
     11236      11237      11248      11247      11357      11358      11369      11368  
     11237      11238      11249      11248      11358      11359      11370      11369  
     11238      11239      11250      11249      11359      11360      11371      11370  
     11239      11240      11251      11250      11360      11361      11372      11371  
     11240      11241      11252      11251      11361      11362      11373      11372  
     11241      11242      11253      11252      11362      11363      11374      11373  
     11254      11255      11266      11265      11375      11376      11387      11386  
     11255      11256      11267      11266      11376      11377      11388      11387  
     11256      11257      11268      11267      11377      11378      11389      11388  
     11257      11258      11269      11268      11378      11379      11390      11389  
     11258      11259      11270      11269      11379      11380      11391      11390  
     11259      11260      11271      11270      11380      11381      11392      11391  
     11260      11261      11272      11271      11381      11382      11393      11392  
     11261      11262      11273      11272      11382      11383      11394      11393  
     11262      11263      11274      11273      11383      11384      11395      11394  
     11263      11264      11275      11274      11384      11385      11396      11395  
     11265      11266      11277      11276      11386      11387      11398      11397  
     11266      11267      11278      11277      11387      11388      11399      11398  
     11267      11268      11279      11278      11388      11389      11400      11399  
     11268      11269      11280      11279      11389      11390      11401      11400  
     11269      11270      11281      11280      11390      11391      11402      11401  
     11270      11271      11282      11281      11391      11392      11403      11402  
     11271      11272      11283      11282      11392      11393      11404      11403  
     11272      11273      11284      11283      11393      11394      11405      11404  
     11273      11274      11285      11284      11394      11395      11406      11405  
     11274      11275      11286      11285      11395      11396      11407      11406  
     11276      11277      11288      11287      11397      11398      11409      11408  
     11277      11278      11289      11288      11398      11399      11410      11409  
     11278      11279      11290      11289      11399      11400      11411      11410  
     11279      11280      11291      11290      11400      11401      11412      11411  
     11280      11281      11292      11291      11401      11402      11413      11412  
     11281      11282      11293      11292      11402      11403      11414      11413  
     11282      11283      11294      11293      11403      11404      11415      11414  
     11283      11284      11295      11294      11404      11405      11416      11415  
     11284      11285      11296      11295      11405      11406      11417      11416  
     11285      11286      11297      11296      11406      11407      11418      11417  
     11287      11288      11299      11298      11408      11409      11420      11419  
     11288      11289      11300      11299      11409      11410      11421      11420  
     11289      11290      11301      11300      11410      11411      11422      11421  
     11290      11291      11302      11301      11411      11412      11423      11422  
     11291      11292      11303      11302      11412      11413      11424      11423  
     11292      11293      11304      11303      11413      11414      11425      11424  
     11293      11294      11305      11304      11414      11415      11426      11425  
     11294      11295      11306      11305      11415      11416      11427      11426  
     11295      11296      11307      11306      11416      11417      11428      11427  
     11296      11297      11308      11307      11417      11418      11429      11428  
     11298      11299      11310      11309      11419      11420      11431      11430  
     11299      11300      11311      11310      11420      11421      11432      11431  
     11300      11301      11312      11311      11421      11422      11433      11432  
     11301      11302      11313      11312      11422      11423      11434      11433  
     11302      11303      11314      11313      11423      11424      11435      11434  
     11303      11304      11315      11314      11424      11425      11436      11435  
     11304      11305      11316      11315      11425      11426      11437      11436  
     11305      11306      11317      11316      11426      11427      11438      11437  
     11306      11307      11318      11317      11427      11428      11439      11438  
     11307      11308      11319      11318      11428      11429      11440      11439  
     11309      11310      11321      11320      11430      11431      11442      11441  
     11310      11311      11322      11321      11431      11432      11443      11442  
     11311      11312      11323      11322      11432      11433      11444      11443  
     11312      11313      11324      11323      11433      11434      11445      11444  
     11313      11314      11325      11324      11434      11435      11446      11445  
     11314      11315      11326      11325      11435      11436      11447      11446  
     11315      11316      11327      11326      11436      11437      11448      11447  
     11316      11317      11328      11327      11437      11438      11449      11448  
     11317      11318      11329      11328      11438      11439      11450      11449  
     11318      11319      11330      11329      11439      11440      11451      11450  
     11320      11321      11332      11331      11441      11442      11453      11452  
     11321      11322      11333      11332      11442      11443      11454      11453  
     11322      11323      11334      11333      11443      11444      11455      11454  
     11323      11324      11335      11334      11444      11445      11456      11455  
     11324      11325      11336      11335      11445      11446      11457      11456  
     11325      11326      11337      11336      11446      11447      11458      11457  
     11326      11327      11338      11337      11447      11448      11459      11458  
     11327      11328      11339      11338      11448      11449      11460      11459  
     11328      11329      11340      11339      11449      11450      11461      11460  
     11329      11330      11341      11340      11450      11451      11462      11461  
     11331      11332      11343      11342      11452      11453      11464      11463  
     11332      11333      11344      11343      11453      11454      11465      11464  
     11333      11334      11345      11344      11454      11455      11466      11465  
     11334      11335      11346      11345      11455      11456      11467      11466  
     11335      11336      11347      11346      11456      11457      11468      11467  
     11336      11337      11348      11347      11457      11458      11469      11468  
     11337      11338      11349      11348      11458      11459      11470      11469  
     11338      11339      11350      11349      11459      11460      11471      11470  
     11339      11340      11351      11350      11460      11461      11472      11471  
     11340      11341      11352      11351      11461      11462      11473      11472  
     11342      11343      11354      11353      11463      11464      11475      11474  
     11343      11344      11355      11354      11464      11465      11476      11475  
     11344      11345      11356      11355      11465      11466      11477      11476  
     11345      11346      11357      11356      11466      11467      11478      11477  
     11346      11347      11358      11357      11467      11468      11479      11478  
     11347      11348      11359      11358      11468      11469      11480      11479  
     11348      11349      11360      11359      11469      11470      11481      11480  
     11349      11350      11361      11360      11470      11471      11482      11481  
     11350      11351      11362      11361      11471      11472      11483      11482  
     11351      11352      11363      11362      11472      11473      11484      11483  
     11353      11354      11365      11364      11474      11475      11486      11485  
     11354      11355      11366      11365      11475      11476      11487      11486  
     11355      11356      11367      11366      11476      11477      11488      11487  
     11356      11357      11368      11367      11477      11478      11489      11488  
     11357      11358      11369      11368      11478      11479      11490      11489  
     11358      11359      11370      11369      11479      11480      11491      11490  
     11359      11360      11371      11370      11480      11481      11492      11491  
     11360      11361      11372      11371      11481      11482      11493      11492  
     11361      11362      11373      11372      11482      11483      11494      11493  
     11362      11363      11374      11373      11483      11484      11495      11494  
     11375      11376      11387      11386      11496      11497      11508      11507  
     11376      11377      11388      11387      11497      11498      11509      11508  
     11377      11378      11389      11388      11498      11499      11510      11509  
     11378      11379      11390      11389      11499      11500      11511      11510  
     11379      11380      11391      11390      11500      11501      11512      11511  
     11380      11381      11392      11391      11501      11502      11513      11512  
     11381      11382      11393      11392      11502      11503      11514      11513  
     11382      11383      11394      11393      11503      11504      11515      11514  
     11383      11384      11395      11394      11504      11505      11516      11515  
     11384      11385      11396      11395      11505      11506      11517      11516  
     11386      11387      11398      11397      11507      11508      11519      11518  
     11387      11388      11399      11398      11508      11509      11520      11519  
     11388      11389      11400      11399      11509      11510      11521      11520  
     11389      11390      11401      11400      11510      11511      11522      11521  
     11390      11391      11402      11401      11511      11512      11523      11522  
     11391      11392      11403      11402      11512      11513      11524      11523  
     11392      11393      11404      11403      11513      11514      11525      11524  
     11393      11394      11405      11404      11514      11515      11526      11525  
     11394      11395      11406      11405      11515      11516      11527      11526  
     11395      11396      11407      11406      11516      11517      11528      11527  
     11397      11398      11409      11408      11518      11519      11530      11529  
     11398      11399      11410      11409      11519      11520      11531      11530  
     11399      11400      11411      11410      11520      11521      11532      11531  
     11400      11401      11412      11411      11521      11522      11533      11532  
     11401      11402      11413      11412      11522      11523      11534      11533  
     11402      11403      11414      11413      11523      11524      11535      11534  
     11403      11404      11415      11414      11524      11525      11536      11535  
     11404      11405      11416      11415      11525      11526      11537      11536  
     11405      11406      11417      11416      11526      11527      11538      11537  
     11406      11407      11418      11417      11527      11528      11539      11538  
     11408      11409      11420      11419      11529      11530      11541      11540  
     11409      11410      11421      11420      11530      11531      11542      11541  
     11410      11411      11422      11421      11531      11532      11543      11542  
     11411      11412      11423      11422      11532      11533      11544      11543  
     11412      11413      11424      11423      11533      11534      11545      11544  
     11413      11414      11425      11424      11534      11535      11546      11545  
     11414      11415      11426      11425      11535      11536      11547      11546  
     11415      11416      11427      11426      11536      11537      11548      11547  
     11416      11417      11428      11427      11537      11538      11549      11548  
     11417      11418      11429      11428      11538      11539      11550      11549  
     11419      11420      11431      11430      11540      11541      11552      11551  
     11420      11421      11432      11431      11541      11542      11553      11552  
     11421      11422      11433      11432      11542      11543      11554      11553  
     11422      11423      11434      11433      11543      11544      11555      11554  
     11423      11424      11435      11434      11544      11545      11556      11555  
     11424      11425      11436      11435      11545      11546      11557      11556  
     11425      11426      11437      11436      11546      11547      11558      11557  
     11426      11427      11438      11437      11547      11548      11559      11558  
     11427      11428      11439      11438      11548      11549      11560      11559  
     11428      11429      11440      11439      11549      11550      11561      11560  
     11430      11431      11442      11441      11551      11552      11563      11562  
     11431      11432      11443      11442      11552      11553      11564      11563  
     11432      11433      11444      11443      11553      11554      11565      11564  
     11433      11434      11445      11444      11554      11555      11566      11565  
     11434      11435      11446      11445      11555      11556      11567      11566  
     11435      11436      11447      11446      11556      11557      11568      11567  
     11436      11437      11448      11447      11557      11558      11569      11568  
     11437      11438      11449      11448      11558      11559      11570      11569  
     11438      11439      11450      11449      11559      11560      11571      11570  
     11439      11440      11451      11450      11560      11561      11572      11571  
     11441      11442      11453      11452      11562      11563      11574      11573  
     11442      11443      11454      11453      11563      11564      11575      11574  
     11443      11444      11455      11454      11564      11565      11576      11575  
     11444      11445      11456      11455      11565      11566      11577      11576  
     11445      11446      11457      11456      11566      11567      11578      11577  
     11446      11447      11458      11457      11567      11568      11579      11578  
     11447      11448      11459      11458      11568      11569      11580      11579  
     11448      11449      11460      11459      11569      11570      11581      11580  
     11449      11450      11461      11460      11570      11571      11582      11581  
     11450      11451      11462      11461      11571      11572      11583      11582  
     11452      11453      11464      11463      11573      11574      11585      11584  
     11453      11454      11465      11464      11574      11575      11586      11585  
     11454      11455      11466      11465      11575      11576      11587      11586  
     11455      11456      11467      11466      11576      11577      11588      11587  
     11456      11457      11468      11467      11577      11578      11589      11588  
     11457      11458      11469      11468      11578      11579      11590      11589  
     11458      11459      11470      11469      11579      11580      11591      11590  
     11459      11460      11471      11470      11580      11581      11592      11591  
     11460      11461      11472      11471      11581      11582      11593      11592  
     11461      11462      11473      11472      11582      11583      11594      11593  
     11463      11464      11475      11474      11584      11585      11596      11595  
     11464      11465      11476      11475      11585      11586      11597      11596  
     11465      11466      11477      11476      11586      11587      11598      11597  
     11466      11467      11478      11477      11587      11588      11599      11598  
     11467      11468      11479      11478      11588      11589      11600      11599  
     11468      11469      11480      11479      11589      11590      11601      11600  
     11469      11470      11481      11480      11590      11591      11602      11601  
     11470      11471      11482      11481      11591      11592      11603      11602  
     11471      11472      11483      11482      11592      11593      11604      11603  
     11472      11473      11484      11483      11593      11594      11605      11604  
     11474      11475      11486      11485      11595      11596      11607      11606  
     11475      11476      11487      11486      11596      11597      11608      11607  
     11476      11477      11488      11487      11597      11598      11609      11608  
     11477      11478      11489      11488      11598      11599      11610      11609  
     11478      11479      11490      11489      11599      11600      11611      11610  
     11479      11480      11491      11490      11600      11601      11612      11611  
     11480      11481      11492      11491      11601      11602      11613      11612  
     11481      11482      11493      11492      11602      11603      11614      11613  
     11482      11483      11494      11493      11603      11604      11615      11614  
     11483      11484      11495      11494      11604      11605      11616      11615  
     11496      11497      11508      11507      11617      11618      11629      11628  
     11497      11498      11509      11508      11618      11619      11630      11629  
     11498      11499      11510      11509      11619      11620      11631      11630  
     11499      11500      11511      11510      11620      11621      11632      11631  
     11500      11501      11512      11511      11621      11622      11633      11632  
     11501      11502      11513      11512      11622      11623      11634      11633  
     11502      11503      11514      11513      11623      11624      11635      11634  
     11503      11504      11515      11514      11624      11625      11636      11635  
     11504      11505      11516      11515      11625      11626      11637      11636  
     11505      11506      11517      11516      11626      11627      11638      11637  
     11507      11508      11519      11518      11628      11629      11640      11639  
     11508      11509      11520      11519      11629      11630      11641      11640  
     11509      11510      11521      11520      11630      11631      11642      11641  
     11510      11511      11522      11521      11631      11632      11643      11642  
     11511      11512      11523      11522      11632      11633      11644      11643  
     11512      11513      11524      11523      11633      11634      11645      11644  
     11513      11514      11525      11524      11634      11635      11646      11645  
     11514      11515      11526      11525      11635      11636      11647      11646  
     11515      11516      11527      11526      11636      11637      11648      11647  
     11516      11517      11528      11527      11637      11638      11649      11648  
     11518      11519      11530      11529      11639      11640      11651      11650  
     11519      11520      11531      11530      11640      11641      11652      11651  
     11520      11521      11532      11531      11641      11642      11653      11652  
     11521      11522      11533      11532      11642      11643      11654      11653  
     11522      11523      11534      11533      11643      11644      11655      11654  
     11523      11524      11535      11534      11644      11645      11656      11655  
     11524      11525      11536      11535      11645      11646      11657      11656  
     11525      11526      11537      11536      11646      11647      11658      11657  
     11526      11527      11538      11537      11647      11648      11659      11658  
     11527      11528      11539      11538      11648      11649      11660      11659  
     11529      11530      11541      11540      11650      11651      11662      11661  
     11530      11531      11542      11541      11651      11652      11663      11662  
     11531      11532      11543      11542      11652      11653      11664      11663  
     11532      11533      11544      11543      11653      11654      11665      11664  
     11533      11534      11545      11544      11654      11655      11666      11665  
     11534      11535      11546      11545      11655      11656      11667      11666  
     11535      11536      11547      11546      11656      11657      11668      11667  
     11536      11537      11548      11547      11657      11658      11669      11668  
     11537      11538      11549      11548      11658      11659      11670      11669  
     11538      11539      11550      11549      11659      11660      11671      11670  
     11540      11541      11552      11551      11661      11662      11673      11672  
     11541      11542      11553      11552      11662      11663      11674      11673  
     11542      11543      11554      11553      11663      11664      11675      11674  
     11543      11544      11555      11554      11664      11665      11676      11675  
     11544      11545      11556      11555      11665      11666      11677      11676  
     11545      11546      11557      11556      11666      11667      11678      11677  
     11546      11547      11558      11557      11667      11668      11679      11678  
     11547      11548      11559      11558      11668      11669      11680      11679  
     11548      11549      11560      11559      11669      11670      11681      11680  
     11549      11550      11561      11560      11670      11671      11682      11681  
     11551      11552      11563      11562      11672      11673      11684      11683  
     11552      11553      11564      11563      11673      11674      11685      11684  
     11553      11554      11565      11564      11674      11675      11686      11685  
     11554      11555      11566      11565      11675      11676      11687      11686  
     11555      11556      11567      11566      11676      11677      11688      11687  
     11556      11557      11568      11567      11677      11678      11689      11688  
     11557      11558      11569      11568      11678      11679      11690      11689  
     11558      11559      11570      11569      11679      11680      11691      11690  
     11559      11560      11571      11570      11680      11681      11692      11691  
     11560      11561      11572      11571      11681      11682      11693      11692  
     11562      11563      11574      11573      11683      11684      11695      11694  
     11563      11564      11575      11574      11684      11685      11696      11695  
     11564      11565      11576      11575      11685      11686      11697      11696  
     11565      11566      11577      11576      11686      11687      11698      11697  
     11566      11567      11578      11577      11687      11688      11699      11698  
     11567      11568      11579      11578      11688      11689      11700      11699  
     11568      11569      11580      11579      11689      11690      11701      11700  
     11569      11570      11581      11580      11690      11691      11702      11701  
     11570      11571      11582      11581      11691      11692      11703      11702  
     11571      11572      11583      11582      11692      11693      11704      11703  
     11573      11574      11585      11584      11694      11695      11706      11705  
     11574      11575      11586      11585      11695      11696      11707      11706  
     11575      11576      11587      11586      11696      11697      11708      11707  
     11576      11577      11588      11587      11697      11698      11709      11708  
     11577      11578      11589      11588      11698      11699      11710      11709  
     11578      11579      11590      11589      11699      11700      11711      11710  
     11579      11580      11591      11590      11700      11701      11712      11711  
     11580      11581      11592      11591      11701      11702      11713      11712  
     11581      11582      11593      11592      11702      11703      11714      11713  
     11582      11583      11594      11593      11703      11704      11715      11714  
     11584      11585      11596      11595      11705      11706      11717      11716  
     11585      11586      11597      11596      11706      11707      11718      11717  
     11586      11587      11598      11597      11707      11708      11719      11718  
     11587      11588      11599      11598      11708      11709      11720      11719  
     11588      11589      11600      11599      11709      11710      11721      11720  
     11589      11590      11601      11600      11710      11711      11722      11721  
     11590      11591      11602      11601      11711      11712      11723      11722  
     11591      11592      11603      11602      11712      11713      11724      11723  
     11592      11593      11604      11603      11713      11714      11725      11724  
     11593      11594      11605      11604      11714      11715      11726      11725  
     11595      11596      11607      11606      11716      11717      11728      11727  
     11596      11597      11608      11607      11717      11718      11729      11728  
     11597      11598      11609      11608      11718      11719      11730      11729  
     11598      11599      11610      11609      11719      11720      11731      11730  
     11599      11600      11611      11610      11720      11721      11732      11731  
     11600      11601      11612      11611      11721      11722      11733      11732  
     11601      11602      11613      11612      11722      11723      11734      11733  
     11602      11603      11614      11613      11723      11724      11735      11734  
     11603      11604      11615      11614      11724      11725      11736      11735  
     11604      11605      11616      11615      11725      11726      11737      11736  
     11617      11618      11629      11628      11738      11739      11750      11749  
     11618      11619      11630      11629      11739      11740      11751      11750  
     11619      11620      11631      11630      11740      11741      11752      11751  
     11620      11621      11632      11631      11741      11742      11753      11752  
     11621      11622      11633      11632      11742      11743      11754      11753  
     11622      11623      11634      11633      11743      11744      11755      11754  
     11623      11624      11635      11634      11744      11745      11756      11755  
     11624      11625      11636      11635      11745      11746      11757      11756  
     11625      11626      11637      11636      11746      11747      11758      11757  
     11626      11627      11638      11637      11747      11748      11759      11758  
     11628      11629      11640      11639      11749      11750      11761      11760  
     11629      11630      11641      11640      11750      11751      11762      11761  
     11630      11631      11642      11641      11751      11752      11763      11762  
     11631      11632      11643      11642      11752      11753      11764      11763  
     11632      11633      11644      11643      11753      11754      11765      11764  
     11633      11634      11645      11644      11754      11755      11766      11765  
     11634      11635      11646      11645      11755      11756      11767      11766  
     11635      11636      11647      11646      11756      11757      11768      11767  
     11636      11637      11648      11647      11757      11758      11769      11768  
     11637      11638      11649      11648      11758      11759      11770      11769  
     11639      11640      11651      11650      11760      11761      11772      11771  
     11640      11641      11652      11651      11761      11762      11773      11772  
     11641      11642      11653      11652      11762      11763      11774      11773  
     11642      11643      11654      11653      11763      11764      11775      11774  
     11643      11644      11655      11654      11764      11765      11776      11775  
     11644      11645      11656      11655      11765      11766      11777      11776  
     11645      11646      11657      11656      11766      11767      11778      11777  
     11646      11647      11658      11657      11767      11768      11779      11778  
     11647      11648      11659      11658      11768      11769      11780      11779  
     11648      11649      11660      11659      11769      11770      11781      11780  
     11650      11651      11662      11661      11771      11772      11783      11782  
     11651      11652      11663      11662      11772      11773      11784      11783  
     11652      11653      11664      11663      11773      11774      11785      11784  
     11653      11654      11665      11664      11774      11775      11786      11785  
     11654      11655      11666      11665      11775      11776      11787      11786  
     11655      11656      11667      11666      11776      11777      11788      11787  
     11656      11657      11668      11667      11777      11778      11789      11788  
     11657      11658      11669      11668      11778      11779      11790      11789  
     11658      11659      11670      11669      11779      11780      11791      11790  
     11659      11660      11671      11670      11780      11781      11792      11791  
     11661      11662      11673      11672      11782      11783      11794      11793  
     11662      11663      11674      11673      11783      11784      11795      11794  
     11663      11664      11675      11674      11784      11785      11796      11795  
     11664      11665      11676      11675      11785      11786      11797      11796  
     11665      11666      11677      11676      11786      11787      11798      11797  
     11666      11667      11678      11677      11787      11788      11799      11798  
     11667      11668      11679      11678      11788      11789      11800      11799  
     11668      11669      11680      11679      11789      11790      11801      11800  
     11669      11670      11681      11680      11790      11791      11802      11801  
     11670      11671      11682      11681      11791      11792      11803      11802  
     11672      11673      11684      11683      11793      11794      11805      11804  
     11673      11674      11685      11684      11794      11795      11806      11805  
     11674      11675      11686      11685      11795      11796      11807      11806  
     11675      11676      11687      11686      11796      11797      11808      11807  
     11676      11677      11688      11687      11797      11798      11809      11808  
     11677      11678      11689      11688      11798      11799      11810      11809  
     11678      11679      11690      11689      11799      11800      11811      11810  
     11679      11680      11691      11690      11800      11801      11812      11811  
     11680      11681      11692      11691      11801      11802      11813      11812  
     11681      11682      11693      11692      11802      11803      11814      11813  
     11683      11684      11695      11694      11804      11805      11816      11815  
     11684      11685      11696      11695      11805      11806      11817      11816  
     11685      11686      11697      11696      11806      11807      11818      11817  
     11686      11687      11698      11697      11807      11808      11819      11818  
     11687      11688      11699      11698      11808      11809      11820      11819  
     11688      11689      11700      11699      11809      11810      11821      11820  
     11689      11690      11701      11700      11810      11811      11822      11821  
     11690      11691      11702      11701      11811      11812      11823      11822  
     11691      11692      11703      11702      11812      11813      11824      11823  
     11692      11693      11704      11703      11813      11814      11825      11824  
     11694      11695      11706      11705      11815      11816      11827      11826  
     11695      11696      11707      11706      11816      11817      11828      11827  
     11696      11697      11708      11707      11817      11818      11829      11828  
     11697      11698      11709      11708      11818      11819      11830      11829  
     11698      11699      11710      11709      11819      11820      11831      11830  
     11699      11700      11711      11710      11820      11821      11832      11831  
     11700      11701      11712      11711      11821      11822      11833      11832  
     11701      11702      11713      11712      11822      11823      11834      11833  
     11702      11703      11714      11713      11823      11824      11835      11834  
     11703      11704      11715      11714      11824      11825      11836      11835  
     11705      11706      11717      11716      11826      11827      11838      11837  
     11706      11707      11718      11717      11827      11828      11839      11838  
     11707      11708      11719      11718      11828      11829      11840      11839  
     11708      11709      11720      11719      11829      11830      11841      11840  
     11709      11710      11721      11720      11830      11831      11842      11841  
     11710      11711      11722      11721      11831      11832      11843      11842  
     11711      11712      11723      11722      11832      11833      11844      11843  
     11712      11713      11724      11723      11833      11834      11845      11844  
     11713      11714      11725      11724      11834      11835      11846      11845  
     11714      11715      11726      11725      11835      11836      11847      11846  
     11716      11717      11728      11727      11837      11838      11849      11848  
     11717      11718      11729      11728      11838      11839      11850      11849  
     11718      11719      11730      11729      11839      11840      11851      11850  
     11719      11720      11731      11730      11840      11841      11852      11851  
     11720      11721      11732      11731      11841      11842      11853      11852  
     11721      11722      11733      11732      11842      11843      11854      11853  
     11722      11723      11734      11733      11843      11844      11855      11854  
     11723      11724      11735      11734      11844      11845      11856      11855  
     11724      11725      11736      11735      11845      11846      11857      11856  
     11725      11726      11737      11736      11846      11847      11858      11857  
     11738      11739      11750      11749      11859      11860      11871      11870  
     11739      11740      11751      11750      11860      11861      11872      11871  
     11740      11741      11752      11751      11861      11862      11873      11872  
     11741      11742      11753      11752      11862      11863      11874      11873  
     11742      11743      11754      11753      11863      11864      11875      11874  
     11743      11744      11755      11754      11864      11865      11876      11875  
     11744      11745      11756      11755      11865      11866      11877      11876  
     11745      11746      11757      11756      11866      11867      11878      11877  
     11746      11747      11758      11757      11867      11868      11879      11878  
     11747      11748      11759      11758      11868      11869      11880      11879  
     11749      11750      11761      11760      11870      11871      11882      11881  
     11750      11751      11762      11761      11871      11872      11883      11882  
     11751      11752      11763      11762      11872      11873      11884      11883  
     11752      11753      11764      11763      11873      11874      11885      11884  
     11753      11754      11765      11764      11874      11875      11886      11885  
     11754      11755      11766      11765      11875      11876      11887      11886  
     11755      11756      11767      11766      11876      11877      11888      11887  
     11756      11757      11768      11767      11877      11878      11889      11888  
     11757      11758      11769      11768      11878      11879      11890      11889  
     11758      11759      11770      11769      11879      11880      11891      11890  
     11760      11761      11772      11771      11881      11882      11893      11892  
     11761      11762      11773      11772      11882      11883      11894      11893  
     11762      11763      11774      11773      11883      11884      11895      11894  
     11763      11764      11775      11774      11884      11885      11896      11895  
     11764      11765      11776      11775      11885      11886      11897      11896  
     11765      11766      11777      11776      11886      11887      11898      11897  
     11766      11767      11778      11777      11887      11888      11899      11898  
     11767      11768      11779      11778      11888      11889      11900      11899  
     11768      11769      11780      11779      11889      11890      11901      11900  
     11769      11770      11781      11780      11890      11891      11902      11901  
     11771      11772      11783      11782      11892      11893      11904      11903  
     11772      11773      11784      11783      11893      11894      11905      11904  
     11773      11774      11785      11784      11894      11895      11906      11905  
     11774      11775      11786      11785      11895      11896      11907      11906  
     11775      11776      11787      11786      11896      11897      11908      11907  
     11776      11777      11788      11787      11897      11898      11909      11908  
     11777      11778      11789      11788      11898      11899      11910      11909  
     11778      11779      11790      11789      11899      11900      11911      11910  
     11779      11780      11791      11790      11900      11901      11912      11911  
     11780      11781      11792      11791      11901      11902      11913      11912  
     11782      11783      11794      11793      11903      11904      11915      11914  
     11783      11784      11795      11794      11904      11905      11916      11915  
     11784      11785      11796      11795      11905      11906      11917      11916  
     11785      11786      11797      11796      11906      11907      11918      11917  
     11786      11787      11798      11797      11907      11908      11919      11918  
     11787      11788      11799      11798      11908      11909      11920      11919  
     11788      11789      11800      11799      11909      11910      11921      11920  
     11789      11790      11801      11800      11910      11911      11922      11921  
     11790      11791      11802      11801      11911      11912      11923      11922  
     11791      11792      11803      11802      11912      11913      11924      11923  
     11793      11794      11805      11804      11914      11915      11926      11925  
     11794      11795      11806      11805      11915      11916      11927      11926  
     11795      11796      11807      11806      11916      11917      11928      11927  
     11796      11797      11808      11807      11917      11918      11929      11928  
     11797      11798      11809      11808      11918      11919      11930      11929  
     11798      11799      11810      11809      11919      11920      11931      11930  
     11799      11800      11811      11810      11920      11921      11932      11931  
     11800      11801      11812      11811      11921      11922      11933      11932  
     11801      11802      11813      11812      11922      11923      11934      11933  
     11802      11803      11814      11813      11923      11924      11935      11934  
     11804      11805      11816      11815      11925      11926      11937      11936  
     11805      11806      11817      11816      11926      11927      11938      11937  
     11806      11807      11818      11817      11927      11928      11939      11938  
     11807      11808      11819      11818      11928      11929      11940      11939  
     11808      11809      11820      11819      11929      11930      11941      11940  
     11809      11810      11821      11820      11930      11931      11942      11941  
     11810      11811      11822      11821      11931      11932      11943      11942  
     11811      11812      11823      11822      11932      11933      11944      11943  
     11812      11813      11824      11823      11933      11934      11945      11944  
     11813      11814      11825      11824      11934      11935      11946      11945  
     11815      11816      11827      11826      11936      11937      11948      11947  
     11816      11817      11828      11827      11937      11938      11949      11948  
     11817      11818      11829      11828      11938      11939      11950      11949  
     11818      11819      11830      11829      11939      11940      11951      11950  
     11819      11820      11831      11830      11940      11941      11952      11951  
     11820      11821      11832      11831      11941      11942      11953      11952  
     11821      11822      11833      11832      11942      11943      11954      11953  
     11822      11823      11834      11833      11943      11944      11955      11954  
     11823      11824      11835      11834      11944      11945      11956      11955  
     11824      11825      11836      11835      11945      11946      11957      11956  
     11826      11827      11838      11837      11947      11948      11959      11958  
     11827      11828      11839      11838      11948      11949      11960      11959  
     11828      11829      11840      11839      11949      11950      11961      11960  
     11829      11830      11841      11840      11950      11951      11962      11961  
     11830      11831      11842      11841      11951      11952      11963      11962  
     11831      11832      11843      11842      11952      11953      11964      11963  
     11832      11833      11844      11843      11953      11954      11965      11964  
     11833      11834      11845      11844      11954      11955      11966      11965  
     11834      11835      11846      11845      11955      11956      11967      11966  
     11835      11836      11847      11846      11956      11957      11968      11967  
     11837      11838      11849      11848      11958      11959      11970      11969  
     11838      11839      11850      11849      11959      11960      11971      11970  
     11839      11840      11851      11850      11960      11961      11972      11971  
     11840      11841      11852      11851      11961      11962      11973      11972  
     11841      11842      11853      11852      11962      11963      11974      11973  
     11842      11843      11854      11853      11963      11964      11975      11974  
     11843      11844      11855      11854      11964      11965      11976      11975  
     11844      11845      11856      11855      11965      11966      11977      11976  
     11845      11846      11857      11856      11966      11967      11978      11977  
     11846      11847      11858      11857      11967      11968      11979      11978  
     11859      11860      11871      11870      11980      11981      11992      11991  
     11860      11861      11872      11871      11981      11982      11993      11992  
     11861      11862      11873      11872      11982      11983      11994      11993  
     11862      11863      11874      11873      11983      11984      11995      11994  
     11863      11864      11875      11874      11984      11985      11996      11995  
     11864      11865      11876      11875      11985      11986      11997      11996  
     11865      11866      11877      11876      11986      11987      11998      11997  
     11866      11867      11878      11877      11987      11988      11999      11998  
     11867      11868      11879      11878      11988      11989      12000      11999  
     11868      11869      11880      11879      11989      11990      12001      12000  
     11870      11871      11882      11881      11991      11992      12003      12002  
     11871      11872      11883      11882      11992      11993      12004      12003  
     11872      11873      11884      11883      11993      11994      12005      12004  
     11873      11874      11885      11884      11994      11995      12006      12005  
     11874      11875      11886      11885      11995      11996      12007      12006  
     11875      11876      11887      11886      11996      11997      12008      12007  
     11876      11877      11888      11887      11997      11998      12009      12008  
     11877      11878      11889      11888      11998      11999      12010      12009  
     11878      11879      11890      11889      11999      12000      12011      12010  
     11879      11880      11891      11890      12000      12001      12012      12011  
     11881      11882      11893      11892      12002      12003      12014      12013  
     11882      11883      11894      11893      12003      12004      12015      12014  
     11883      11884      11895      11894      12004      12005      12016      12015  
     11884      11885      11896      11895      12005      12006      12017      12016  
     11885      11886      11897      11896      12006      12007      12018      12017  
     11886      11887      11898      11897      12007      12008      12019      12018  
     11887      11888      11899      11898      12008      12009      12020      12019  
     11888      11889      11900      11899      12009      12010      12021      12020  
     11889      11890      11901      11900      12010      12011      12022      12021  
     11890      11891      11902      11901      12011      12012      12023      12022  
     11892      11893      11904      11903      12013      12014      12025      12024  
     11893      11894      11905      11904      12014      12015      12026      12025  
     11894      11895      11906      11905      12015      12016      12027      12026  
     11895      11896      11907      11906      12016      12017      12028      12027  
     11896      11897      11908      11907      12017      12018      12029      12028  
     11897      11898      11909      11908      12018      12019      12030      12029  
     11898      11899      11910      11909      12019      12020      12031      12030  
     11899      11900      11911      11910      12020      12021      12032      12031  
     11900      11901      11912      11911      12021      12022      12033      12032  
     11901      11902      11913      11912      12022      12023      12034      12033  
     11903      11904      11915      11914      12024      12025      12036      12035  
     11904      11905      11916      11915      12025      12026      12037      12036  
     11905      11906      11917      11916      12026      12027      12038      12037  
     11906      11907      11918      11917      12027      12028      12039      12038  
     11907      11908      11919      11918      12028      12029      12040      12039  
     11908      11909      11920      11919      12029      12030      12041      12040  
     11909      11910      11921      11920      12030      12031      12042      12041  
     11910      11911      11922      11921      12031      12032      12043      12042  
     11911      11912      11923      11922      12032      12033      12044      12043  
     11912      11913      11924      11923      12033      12034      12045      12044  
     11914      11915      11926      11925      12035      12036      12047      12046  
     11915      11916      11927      11926      12036      12037      12048      12047  
     11916      11917      11928      11927      12037      12038      12049      12048  
     11917      11918      11929      11928      12038      12039      12050      12049  
     11918      11919      11930      11929      12039      12040      12051      12050  
     11919      11920      11931      11930      12040      12041      12052      12051  
     11920      11921      11932      11931      12041      12042      12053      12052  
     11921      11922      11933      11932      12042      12043      12054      12053  
     11922      11923      11934      11933      12043      12044      12055      12054  
     11923      11924      11935      11934      12044      12045      12056      12055  
     11925      11926      11937      11936      12046      12047      12058      12057  
     11926      11927      11938      11937      12047      12048      12059      12058  
     11927      11928      11939      11938      12048      12049      12060      12059  
     11928      11929      11940      11939      12049      12050      12061      12060  
     11929      11930      11941      11940      12050      12051      12062      12061  
     11930      11931      11942      11941      12051      12052      12063      12062  
     11931      11932      11943      11942      12052      12053      12064      12063  
     11932      11933      11944      11943      12053      12054      12065      12064  
     11933      11934      11945      11944      12054      12055      12066      12065  
     11934      11935      11946      11945      12055      12056      12067      12066  
     11936      11937      11948      11947      12057      12058      12069      12068  
     11937      11938      11949      11948      12058      12059      12070      12069  
     11938      11939      11950      11949      12059      12060      12071      12070  
     11939      11940      11951      11950      12060      12061      12072      12071  
     11940      11941      11952      11951      12061      12062      12073      12072  
     11941      11942      11953      11952      12062      12063      12074      12073  
     11942      11943      11954      11953      12063      12064      12075      12074  
     11943      11944      11955      11954      12064      12065      12076      12075  
     11944      11945      11956      11955      12065      12066      12077      12076  
     11945      11946      11957      11956      12066      12067      12078      12077  
     11947      11948      11959      11958      12068      12069      12080      12079  
     11948      11949      11960      11959      12069      12070      12081      12080  
     11949      11950      11961      11960      12070      12071      12082      12081  
     11950      11951      11962      11961      12071      12072      12083      12082  
     11951      11952      11963      11962      12072      12073      12084      12083  
     11952      11953      11964      11963      12073      12074      12085      12084  
     11953      11954      11965      11964      12074      12075      12086      12085  
     11954      11955      11966      11965      12075      12076      12087      12086  
     11955      11956      11967      11966      12076      12077      12088      12087  
     11956      11957      11968      11967      12077      12078      12089      12088  
     11958      11959      11970      11969      12079      12080      12091      12090  
     11959      11960      11971      11970      12080      12081      12092      12091  
     11960      11961      11972      11971      12081      12082      12093      12092  
     11961      11962      11973      11972      12082      12083      12094      12093  
     11962      11963      11974      11973      12083      12084      12095      12094  
     11963      11964      11975      11974      12084      12085      12096      12095  
     11964      11965      11976      11975      12085      12086      12097      12096  
     11965      11966      11977      11976      12086      12087      12098      12097  
     11966      11967      11978      11977      12087      12088      12099      12098  
     11967      11968      11979      11978      12088      12089      12100      12099  
     11980      11981      11992      11991      12101      12102      12113      12112  
     11981      11982      11993      11992      12102      12103      12114      12113  
     11982      11983      11994      11993      12103      12104      12115      12114  
     11983      11984      11995      11994      12104      12105      12116      12115  
     11984      11985      11996      11995      12105      12106      12117      12116  
     11985      11986      11997      11996      12106      12107      12118      12117  
     11986      11987      11998      11997      12107      12108      12119      12118  
     11987      11988      11999      11998      12108      12109      12120      12119  
     11988      11989      12000      11999      12109      12110      12121      12120  
     11989      11990      12001      12000      12110      12111      12122      12121  
     11991      11992      12003      12002      12112      12113      12124      12123  
     11992      11993      12004      12003      12113      12114      12125      12124  
     11993      11994      12005      12004      12114      12115      12126      12125  
     11994      11995      12006      12005      12115      12116      12127      12126  
     11995      11996      12007      12006      12116      12117      12128      12127  
     11996      11997      12008      12007      12117      12118      12129      12128  
     11997      11998      12009      12008      12118      12119      12130      12129  
     11998      11999      12010      12009      12119      12120      12131      12130  
     11999      12000      12011      12010      12120      12121      12132      12131  
     12000      12001      12012      12011      12121      12122      12133      12132  
     12002      12003      12014      12013      12123      12124      12135      12134  
     12003      12004      12015      12014      12124      12125      12136      12135  
     12004      12005      12016      12015      12125      12126      12137      12136  
     12005      12006      12017      12016      12126      12127      12138      12137  
     12006      12007      12018      12017      12127      12128      12139      12138  
     12007      12008      12019      12018      12128      12129      12140      12139  
     12008      12009      12020      12019      12129      12130      12141      12140  
     12009      12010      12021      12020      12130      12131      12142      12141  
     12010      12011      12022      12021      12131      12132      12143      12142  
     12011      12012      12023      12022      12132      12133      12144      12143  
     12013      12014      12025      12024      12134      12135      12146      12145  
     12014      12015      12026      12025      12135      12136      12147      12146  
     12015      12016      12027      12026      12136      12137      12148      12147  
     12016      12017      12028      12027      12137      12138      12149      12148  
     12017      12018      12029      12028      12138      12139      12150      12149  
     12018      12019      12030      12029      12139      12140      12151      12150  
     12019      12020      12031      12030      12140      12141      12152      12151  
     12020      12021      12032      12031      12141      12142      12153      12152  
     12021      12022      12033      12032      12142      12143      12154      12153  
     12022      12023      12034      12033      12143      12144      12155      12154  
     12024      12025      12036      12035      12145      12146      12157      12156  
     12025      12026      12037      12036      12146      12147      12158      12157  
     12026      12027      12038      12037      12147      12148      12159      12158  
     12027      12028      12039      12038      12148      12149      12160      12159  
     12028      12029      12040      12039      12149      12150      12161      12160  
     12029      12030      12041      12040      12150      12151      12162      12161  
     12030      12031      12042      12041      12151      12152      12163      12162  
     12031      12032      12043      12042      12152      12153      12164      12163  
     12032      12033      12044      12043      12153      12154      12165      12164  
     12033      12034      12045      12044      12154      12155      12166      12165  
     12035      12036      12047      12046      12156      12157      12168      12167  
     12036      12037      12048      12047      12157      12158      12169      12168  
     12037      12038      12049      12048      12158      12159      12170      12169  
     12038      12039      12050      12049      12159      12160      12171      12170  
     12039      12040      12051      12050      12160      12161      12172      12171  
     12040      12041      12052      12051      12161      12162      12173      12172  
     12041      12042      12053      12052      12162      12163      12174      12173  
     12042      12043      12054      12053      12163      12164      12175      12174  
     12043      12044      12055      12054      12164      12165      12176      12175  
     12044      12045      12056      12055      12165      12166      12177      12176  
     12046      12047      12058      12057      12167      12168      12179      12178  
     12047      12048      12059      12058      12168      12169      12180      12179  
     12048      12049      12060      12059      12169      12170      12181      12180  
     12049      12050      12061      12060      12170      12171      12182      12181  
     12050      12051      12062      12061      12171      12172      12183      12182  
     12051      12052      12063      12062      12172      12173      12184      12183  
     12052      12053      12064      12063      12173      12174      12185      12184  
     12053      12054      12065      12064      12174      12175      12186      12185  
     12054      12055      12066      12065      12175      12176      12187      12186  
     12055      12056      12067      12066      12176      12177      12188      12187  
     12057      12058      12069      12068      12178      12179      12190      12189  
     12058      12059      12070      12069      12179      12180      12191      12190  
     12059      12060      12071      12070      12180      12181      12192      12191  
     12060      12061      12072      12071      12181      12182      12193      12192  
     12061      12062      12073      12072      12182      12183      12194      12193  
     12062      12063      12074      12073      12183      12184      12195      12194  
     12063      12064      12075      12074      12184      12185      12196      12195  
     12064      12065      12076      12075      12185      12186      12197      12196  
     12065      12066      12077      12076      12186      12187      12198      12197  
     12066      12067      12078      12077      12187      12188      12199      12198  
     12068      12069      12080      12079      12189      12190      12201      12200  
     12069      12070      12081      12080      12190      12191      12202      12201  
     12070      12071      12082      12081      12191      12192      12203      12202  
     12071      12072      12083      12082      12192      12193      12204      12203  
     12072      12073      12084      12083      12193      12194      12205      12204  
     12073      12074      12085      12084      12194      12195      12206      12205  
     12074      12075      12086      12085      12195      12196      12207      12206  
     12075      12076      12087      12086      12196      12197      12208      12207  
     12076      12077      12088      12087      12197      12198      12209      12208  
     12077      12078      12089      12088      12198      12199      12210      12209  
     12079      12080      12091      12090      12200      12201      12212      12211  
     12080      12081      12092      12091      12201      12202      12213      12212  
     12081      12082      12093      12092      12202      12203      12214      12213  
     12082      12083      12094      12093      12203      12204      12215      12214  
     12083      12084      12095      12094      12204      12205      12216      12215  
     12084      12085      12096      12095      12205      12206      12217      12216  
     12085      12086      12097      12096      12206      12207      12218      12217  
     12086      12087      12098      12097      12207      12208      12219      12218  
     12087      12088      12099      12098      12208      12209      12220      12219  
     12088      12089      12100      12099      12209      12210      12221      12220  
